*SPEF "ieee 1481-1999"
*DESIGN "user_project_wrapper"
*DATE "11:11:11 Fri 11 11, 1111"
*VENDOR "OpenRCX"
*PROGRAM "Parallel Extraction"
*VERSION "1.0"
*DESIGN_FLOW "NAME_SCOPE LOCAL" "PIN_CAP NONE"
*DIVIDER /
*DELIMITER :
*BUS_DELIMITER []
*T_UNIT 1 NS
*C_UNIT 1 PF
*R_UNIT 1 OHM
*L_UNIT 1 HENRY

*NAME_MAP
*1 analog_io[0]
*2 analog_io[10]
*3 analog_io[11]
*4 analog_io[12]
*5 analog_io[13]
*6 analog_io[14]
*7 analog_io[15]
*8 analog_io[16]
*9 analog_io[17]
*10 analog_io[18]
*11 analog_io[19]
*12 analog_io[1]
*13 analog_io[20]
*14 analog_io[21]
*15 analog_io[22]
*16 analog_io[23]
*17 analog_io[24]
*18 analog_io[25]
*19 analog_io[26]
*20 analog_io[27]
*21 analog_io[28]
*22 analog_io[2]
*23 analog_io[3]
*24 analog_io[4]
*25 analog_io[5]
*26 analog_io[6]
*27 analog_io[7]
*28 analog_io[8]
*29 analog_io[9]
*30 io_in[0]
*31 io_in[10]
*32 io_in[11]
*33 io_in[12]
*34 io_in[13]
*35 io_in[14]
*36 io_in[15]
*37 io_in[16]
*38 io_in[17]
*39 io_in[18]
*40 io_in[19]
*41 io_in[1]
*42 io_in[20]
*43 io_in[21]
*44 io_in[22]
*45 io_in[23]
*46 io_in[24]
*47 io_in[25]
*48 io_in[26]
*49 io_in[27]
*50 io_in[28]
*51 io_in[29]
*52 io_in[2]
*53 io_in[30]
*54 io_in[31]
*55 io_in[32]
*56 io_in[33]
*57 io_in[34]
*58 io_in[35]
*59 io_in[36]
*60 io_in[37]
*61 io_in[3]
*62 io_in[4]
*63 io_in[5]
*64 io_in[6]
*65 io_in[7]
*66 io_in[8]
*67 io_in[9]
*68 io_oeb[0]
*69 io_oeb[10]
*70 io_oeb[11]
*71 io_oeb[12]
*72 io_oeb[13]
*73 io_oeb[14]
*74 io_oeb[15]
*75 io_oeb[16]
*76 io_oeb[17]
*77 io_oeb[18]
*78 io_oeb[19]
*79 io_oeb[1]
*80 io_oeb[20]
*81 io_oeb[21]
*82 io_oeb[22]
*83 io_oeb[23]
*84 io_oeb[24]
*85 io_oeb[25]
*86 io_oeb[26]
*87 io_oeb[27]
*88 io_oeb[28]
*89 io_oeb[29]
*90 io_oeb[2]
*91 io_oeb[30]
*92 io_oeb[31]
*93 io_oeb[32]
*94 io_oeb[33]
*95 io_oeb[34]
*96 io_oeb[35]
*97 io_oeb[36]
*98 io_oeb[37]
*99 io_oeb[3]
*100 io_oeb[4]
*101 io_oeb[5]
*102 io_oeb[6]
*103 io_oeb[7]
*104 io_oeb[8]
*105 io_oeb[9]
*106 io_out[0]
*107 io_out[10]
*108 io_out[11]
*109 io_out[12]
*110 io_out[13]
*111 io_out[14]
*112 io_out[15]
*113 io_out[16]
*114 io_out[17]
*115 io_out[18]
*116 io_out[19]
*117 io_out[1]
*118 io_out[20]
*119 io_out[21]
*120 io_out[22]
*121 io_out[23]
*122 io_out[24]
*123 io_out[25]
*124 io_out[26]
*125 io_out[27]
*126 io_out[28]
*127 io_out[29]
*128 io_out[2]
*129 io_out[30]
*130 io_out[31]
*131 io_out[32]
*132 io_out[33]
*133 io_out[34]
*134 io_out[35]
*135 io_out[36]
*136 io_out[37]
*137 io_out[3]
*138 io_out[4]
*139 io_out[5]
*140 io_out[6]
*141 io_out[7]
*142 io_out[8]
*143 io_out[9]
*144 la_data_in[0]
*145 la_data_in[100]
*146 la_data_in[101]
*147 la_data_in[102]
*148 la_data_in[103]
*149 la_data_in[104]
*150 la_data_in[105]
*151 la_data_in[106]
*152 la_data_in[107]
*153 la_data_in[108]
*154 la_data_in[109]
*155 la_data_in[10]
*156 la_data_in[110]
*157 la_data_in[111]
*158 la_data_in[112]
*159 la_data_in[113]
*160 la_data_in[114]
*161 la_data_in[115]
*162 la_data_in[116]
*163 la_data_in[117]
*164 la_data_in[118]
*165 la_data_in[119]
*166 la_data_in[11]
*167 la_data_in[120]
*168 la_data_in[121]
*169 la_data_in[122]
*170 la_data_in[123]
*171 la_data_in[124]
*172 la_data_in[125]
*173 la_data_in[126]
*174 la_data_in[127]
*175 la_data_in[12]
*176 la_data_in[13]
*177 la_data_in[14]
*178 la_data_in[15]
*179 la_data_in[16]
*180 la_data_in[17]
*181 la_data_in[18]
*182 la_data_in[19]
*183 la_data_in[1]
*184 la_data_in[20]
*185 la_data_in[21]
*186 la_data_in[22]
*187 la_data_in[23]
*188 la_data_in[24]
*189 la_data_in[25]
*190 la_data_in[26]
*191 la_data_in[27]
*192 la_data_in[28]
*193 la_data_in[29]
*194 la_data_in[2]
*195 la_data_in[30]
*196 la_data_in[31]
*197 la_data_in[32]
*198 la_data_in[33]
*199 la_data_in[34]
*200 la_data_in[35]
*201 la_data_in[36]
*202 la_data_in[37]
*203 la_data_in[38]
*204 la_data_in[39]
*205 la_data_in[3]
*206 la_data_in[40]
*207 la_data_in[41]
*208 la_data_in[42]
*209 la_data_in[43]
*210 la_data_in[44]
*211 la_data_in[45]
*212 la_data_in[46]
*213 la_data_in[47]
*214 la_data_in[48]
*215 la_data_in[49]
*216 la_data_in[4]
*217 la_data_in[50]
*218 la_data_in[51]
*219 la_data_in[52]
*220 la_data_in[53]
*221 la_data_in[54]
*222 la_data_in[55]
*223 la_data_in[56]
*224 la_data_in[57]
*225 la_data_in[58]
*226 la_data_in[59]
*227 la_data_in[5]
*228 la_data_in[60]
*229 la_data_in[61]
*230 la_data_in[62]
*231 la_data_in[63]
*232 la_data_in[64]
*233 la_data_in[65]
*234 la_data_in[66]
*235 la_data_in[67]
*236 la_data_in[68]
*237 la_data_in[69]
*238 la_data_in[6]
*239 la_data_in[70]
*240 la_data_in[71]
*241 la_data_in[72]
*242 la_data_in[73]
*243 la_data_in[74]
*244 la_data_in[75]
*245 la_data_in[76]
*246 la_data_in[77]
*247 la_data_in[78]
*248 la_data_in[79]
*249 la_data_in[7]
*250 la_data_in[80]
*251 la_data_in[81]
*252 la_data_in[82]
*253 la_data_in[83]
*254 la_data_in[84]
*255 la_data_in[85]
*256 la_data_in[86]
*257 la_data_in[87]
*258 la_data_in[88]
*259 la_data_in[89]
*260 la_data_in[8]
*261 la_data_in[90]
*262 la_data_in[91]
*263 la_data_in[92]
*264 la_data_in[93]
*265 la_data_in[94]
*266 la_data_in[95]
*267 la_data_in[96]
*268 la_data_in[97]
*269 la_data_in[98]
*270 la_data_in[99]
*271 la_data_in[9]
*272 la_data_out[0]
*273 la_data_out[100]
*274 la_data_out[101]
*275 la_data_out[102]
*276 la_data_out[103]
*277 la_data_out[104]
*278 la_data_out[105]
*279 la_data_out[106]
*280 la_data_out[107]
*281 la_data_out[108]
*282 la_data_out[109]
*283 la_data_out[10]
*284 la_data_out[110]
*285 la_data_out[111]
*286 la_data_out[112]
*287 la_data_out[113]
*288 la_data_out[114]
*289 la_data_out[115]
*290 la_data_out[116]
*291 la_data_out[117]
*292 la_data_out[118]
*293 la_data_out[119]
*294 la_data_out[11]
*295 la_data_out[120]
*296 la_data_out[121]
*297 la_data_out[122]
*298 la_data_out[123]
*299 la_data_out[124]
*300 la_data_out[125]
*301 la_data_out[126]
*302 la_data_out[127]
*303 la_data_out[12]
*304 la_data_out[13]
*305 la_data_out[14]
*306 la_data_out[15]
*307 la_data_out[16]
*308 la_data_out[17]
*309 la_data_out[18]
*310 la_data_out[19]
*311 la_data_out[1]
*312 la_data_out[20]
*313 la_data_out[21]
*314 la_data_out[22]
*315 la_data_out[23]
*316 la_data_out[24]
*317 la_data_out[25]
*318 la_data_out[26]
*319 la_data_out[27]
*320 la_data_out[28]
*321 la_data_out[29]
*322 la_data_out[2]
*323 la_data_out[30]
*324 la_data_out[31]
*325 la_data_out[32]
*326 la_data_out[33]
*327 la_data_out[34]
*328 la_data_out[35]
*329 la_data_out[36]
*330 la_data_out[37]
*331 la_data_out[38]
*332 la_data_out[39]
*333 la_data_out[3]
*334 la_data_out[40]
*335 la_data_out[41]
*336 la_data_out[42]
*337 la_data_out[43]
*338 la_data_out[44]
*339 la_data_out[45]
*340 la_data_out[46]
*341 la_data_out[47]
*342 la_data_out[48]
*343 la_data_out[49]
*344 la_data_out[4]
*345 la_data_out[50]
*346 la_data_out[51]
*347 la_data_out[52]
*348 la_data_out[53]
*349 la_data_out[54]
*350 la_data_out[55]
*351 la_data_out[56]
*352 la_data_out[57]
*353 la_data_out[58]
*354 la_data_out[59]
*355 la_data_out[5]
*356 la_data_out[60]
*357 la_data_out[61]
*358 la_data_out[62]
*359 la_data_out[63]
*360 la_data_out[64]
*361 la_data_out[65]
*362 la_data_out[66]
*363 la_data_out[67]
*364 la_data_out[68]
*365 la_data_out[69]
*366 la_data_out[6]
*367 la_data_out[70]
*368 la_data_out[71]
*369 la_data_out[72]
*370 la_data_out[73]
*371 la_data_out[74]
*372 la_data_out[75]
*373 la_data_out[76]
*374 la_data_out[77]
*375 la_data_out[78]
*376 la_data_out[79]
*377 la_data_out[7]
*378 la_data_out[80]
*379 la_data_out[81]
*380 la_data_out[82]
*381 la_data_out[83]
*382 la_data_out[84]
*383 la_data_out[85]
*384 la_data_out[86]
*385 la_data_out[87]
*386 la_data_out[88]
*387 la_data_out[89]
*388 la_data_out[8]
*389 la_data_out[90]
*390 la_data_out[91]
*391 la_data_out[92]
*392 la_data_out[93]
*393 la_data_out[94]
*394 la_data_out[95]
*395 la_data_out[96]
*396 la_data_out[97]
*397 la_data_out[98]
*398 la_data_out[99]
*399 la_data_out[9]
*400 la_oenb[0]
*401 la_oenb[100]
*402 la_oenb[101]
*403 la_oenb[102]
*404 la_oenb[103]
*405 la_oenb[104]
*406 la_oenb[105]
*407 la_oenb[106]
*408 la_oenb[107]
*409 la_oenb[108]
*410 la_oenb[109]
*411 la_oenb[10]
*412 la_oenb[110]
*413 la_oenb[111]
*414 la_oenb[112]
*415 la_oenb[113]
*416 la_oenb[114]
*417 la_oenb[115]
*418 la_oenb[116]
*419 la_oenb[117]
*420 la_oenb[118]
*421 la_oenb[119]
*422 la_oenb[11]
*423 la_oenb[120]
*424 la_oenb[121]
*425 la_oenb[122]
*426 la_oenb[123]
*427 la_oenb[124]
*428 la_oenb[125]
*429 la_oenb[126]
*430 la_oenb[127]
*431 la_oenb[12]
*432 la_oenb[13]
*433 la_oenb[14]
*434 la_oenb[15]
*435 la_oenb[16]
*436 la_oenb[17]
*437 la_oenb[18]
*438 la_oenb[19]
*439 la_oenb[1]
*440 la_oenb[20]
*441 la_oenb[21]
*442 la_oenb[22]
*443 la_oenb[23]
*444 la_oenb[24]
*445 la_oenb[25]
*446 la_oenb[26]
*447 la_oenb[27]
*448 la_oenb[28]
*449 la_oenb[29]
*450 la_oenb[2]
*451 la_oenb[30]
*452 la_oenb[31]
*453 la_oenb[32]
*454 la_oenb[33]
*455 la_oenb[34]
*456 la_oenb[35]
*457 la_oenb[36]
*458 la_oenb[37]
*459 la_oenb[38]
*460 la_oenb[39]
*461 la_oenb[3]
*462 la_oenb[40]
*463 la_oenb[41]
*464 la_oenb[42]
*465 la_oenb[43]
*466 la_oenb[44]
*467 la_oenb[45]
*468 la_oenb[46]
*469 la_oenb[47]
*470 la_oenb[48]
*471 la_oenb[49]
*472 la_oenb[4]
*473 la_oenb[50]
*474 la_oenb[51]
*475 la_oenb[52]
*476 la_oenb[53]
*477 la_oenb[54]
*478 la_oenb[55]
*479 la_oenb[56]
*480 la_oenb[57]
*481 la_oenb[58]
*482 la_oenb[59]
*483 la_oenb[5]
*484 la_oenb[60]
*485 la_oenb[61]
*486 la_oenb[62]
*487 la_oenb[63]
*488 la_oenb[64]
*489 la_oenb[65]
*490 la_oenb[66]
*491 la_oenb[67]
*492 la_oenb[68]
*493 la_oenb[69]
*494 la_oenb[6]
*495 la_oenb[70]
*496 la_oenb[71]
*497 la_oenb[72]
*498 la_oenb[73]
*499 la_oenb[74]
*500 la_oenb[75]
*501 la_oenb[76]
*502 la_oenb[77]
*503 la_oenb[78]
*504 la_oenb[79]
*505 la_oenb[7]
*506 la_oenb[80]
*507 la_oenb[81]
*508 la_oenb[82]
*509 la_oenb[83]
*510 la_oenb[84]
*511 la_oenb[85]
*512 la_oenb[86]
*513 la_oenb[87]
*514 la_oenb[88]
*515 la_oenb[89]
*516 la_oenb[8]
*517 la_oenb[90]
*518 la_oenb[91]
*519 la_oenb[92]
*520 la_oenb[93]
*521 la_oenb[94]
*522 la_oenb[95]
*523 la_oenb[96]
*524 la_oenb[97]
*525 la_oenb[98]
*526 la_oenb[99]
*527 la_oenb[9]
*528 user_clock2
*529 user_irq[0]
*530 user_irq[1]
*531 user_irq[2]
*540 wb_clk_i
*541 wb_rst_i
*542 wbs_ack_o
*543 wbs_adr_i[0]
*544 wbs_adr_i[10]
*545 wbs_adr_i[11]
*546 wbs_adr_i[12]
*547 wbs_adr_i[13]
*548 wbs_adr_i[14]
*549 wbs_adr_i[15]
*550 wbs_adr_i[16]
*551 wbs_adr_i[17]
*552 wbs_adr_i[18]
*553 wbs_adr_i[19]
*554 wbs_adr_i[1]
*555 wbs_adr_i[20]
*556 wbs_adr_i[21]
*557 wbs_adr_i[22]
*558 wbs_adr_i[23]
*559 wbs_adr_i[24]
*560 wbs_adr_i[25]
*561 wbs_adr_i[26]
*562 wbs_adr_i[27]
*563 wbs_adr_i[28]
*564 wbs_adr_i[29]
*565 wbs_adr_i[2]
*566 wbs_adr_i[30]
*567 wbs_adr_i[31]
*568 wbs_adr_i[3]
*569 wbs_adr_i[4]
*570 wbs_adr_i[5]
*571 wbs_adr_i[6]
*572 wbs_adr_i[7]
*573 wbs_adr_i[8]
*574 wbs_adr_i[9]
*575 wbs_cyc_i
*576 wbs_dat_i[0]
*577 wbs_dat_i[10]
*578 wbs_dat_i[11]
*579 wbs_dat_i[12]
*580 wbs_dat_i[13]
*581 wbs_dat_i[14]
*582 wbs_dat_i[15]
*583 wbs_dat_i[16]
*584 wbs_dat_i[17]
*585 wbs_dat_i[18]
*586 wbs_dat_i[19]
*587 wbs_dat_i[1]
*588 wbs_dat_i[20]
*589 wbs_dat_i[21]
*590 wbs_dat_i[22]
*591 wbs_dat_i[23]
*592 wbs_dat_i[24]
*593 wbs_dat_i[25]
*594 wbs_dat_i[26]
*595 wbs_dat_i[27]
*596 wbs_dat_i[28]
*597 wbs_dat_i[29]
*598 wbs_dat_i[2]
*599 wbs_dat_i[30]
*600 wbs_dat_i[31]
*601 wbs_dat_i[3]
*602 wbs_dat_i[4]
*603 wbs_dat_i[5]
*604 wbs_dat_i[6]
*605 wbs_dat_i[7]
*606 wbs_dat_i[8]
*607 wbs_dat_i[9]
*608 wbs_dat_o[0]
*609 wbs_dat_o[10]
*610 wbs_dat_o[11]
*611 wbs_dat_o[12]
*612 wbs_dat_o[13]
*613 wbs_dat_o[14]
*614 wbs_dat_o[15]
*615 wbs_dat_o[16]
*616 wbs_dat_o[17]
*617 wbs_dat_o[18]
*618 wbs_dat_o[19]
*619 wbs_dat_o[1]
*620 wbs_dat_o[20]
*621 wbs_dat_o[21]
*622 wbs_dat_o[22]
*623 wbs_dat_o[23]
*624 wbs_dat_o[24]
*625 wbs_dat_o[25]
*626 wbs_dat_o[26]
*627 wbs_dat_o[27]
*628 wbs_dat_o[28]
*629 wbs_dat_o[29]
*630 wbs_dat_o[2]
*631 wbs_dat_o[30]
*632 wbs_dat_o[31]
*633 wbs_dat_o[3]
*634 wbs_dat_o[4]
*635 wbs_dat_o[5]
*636 wbs_dat_o[6]
*637 wbs_dat_o[7]
*638 wbs_dat_o[8]
*639 wbs_dat_o[9]
*640 wbs_sel_i[0]
*641 wbs_sel_i[1]
*642 wbs_sel_i[2]
*643 wbs_sel_i[3]
*644 wbs_stb_i
*645 wbs_we_i
*646 ntt\.busy
*647 ntt\.done
*648 ntt\.engine_rst_n
*649 ntt\.ext_rvalid_o
*650 ntt\.mac_init
*651 ntt\.mem_addr\[0\]
*652 ntt\.mem_addr\[1\]
*653 ntt\.mem_addr\[2\]
*654 ntt\.mem_addr\[3\]
*655 ntt\.mem_addr\[4\]
*656 ntt\.mem_addr\[5\]
*657 ntt\.mem_addr\[6\]
*658 ntt\.mem_addr\[7\]
*659 ntt\.mem_addr\[8\]
*660 ntt\.mem_rdata\[0\]
*661 ntt\.mem_rdata\[10\]
*662 ntt\.mem_rdata\[11\]
*663 ntt\.mem_rdata\[12\]
*664 ntt\.mem_rdata\[13\]
*665 ntt\.mem_rdata\[14\]
*666 ntt\.mem_rdata\[15\]
*667 ntt\.mem_rdata\[16\]
*668 ntt\.mem_rdata\[17\]
*669 ntt\.mem_rdata\[18\]
*670 ntt\.mem_rdata\[19\]
*671 ntt\.mem_rdata\[1\]
*672 ntt\.mem_rdata\[20\]
*673 ntt\.mem_rdata\[21\]
*674 ntt\.mem_rdata\[22\]
*675 ntt\.mem_rdata\[23\]
*676 ntt\.mem_rdata\[24\]
*677 ntt\.mem_rdata\[25\]
*678 ntt\.mem_rdata\[26\]
*679 ntt\.mem_rdata\[27\]
*680 ntt\.mem_rdata\[28\]
*681 ntt\.mem_rdata\[29\]
*682 ntt\.mem_rdata\[2\]
*683 ntt\.mem_rdata\[30\]
*684 ntt\.mem_rdata\[31\]
*685 ntt\.mem_rdata\[3\]
*686 ntt\.mem_rdata\[4\]
*687 ntt\.mem_rdata\[5\]
*688 ntt\.mem_rdata\[6\]
*689 ntt\.mem_rdata\[7\]
*690 ntt\.mem_rdata\[8\]
*691 ntt\.mem_rdata\[9\]
*692 ntt\.mem_re
*693 ntt\.mem_slot\[0\]
*694 ntt\.mem_slot\[1\]
*695 ntt\.mem_target
*696 ntt\.mem_wdata\[0\]
*697 ntt\.mem_wdata\[10\]
*698 ntt\.mem_wdata\[11\]
*699 ntt\.mem_wdata\[12\]
*700 ntt\.mem_wdata\[13\]
*701 ntt\.mem_wdata\[14\]
*702 ntt\.mem_wdata\[15\]
*703 ntt\.mem_wdata\[16\]
*704 ntt\.mem_wdata\[17\]
*705 ntt\.mem_wdata\[18\]
*706 ntt\.mem_wdata\[19\]
*707 ntt\.mem_wdata\[1\]
*708 ntt\.mem_wdata\[20\]
*709 ntt\.mem_wdata\[21\]
*710 ntt\.mem_wdata\[22\]
*711 ntt\.mem_wdata\[23\]
*712 ntt\.mem_wdata\[24\]
*713 ntt\.mem_wdata\[25\]
*714 ntt\.mem_wdata\[26\]
*715 ntt\.mem_wdata\[27\]
*716 ntt\.mem_wdata\[28\]
*717 ntt\.mem_wdata\[29\]
*718 ntt\.mem_wdata\[2\]
*719 ntt\.mem_wdata\[30\]
*720 ntt\.mem_wdata\[31\]
*721 ntt\.mem_wdata\[3\]
*722 ntt\.mem_wdata\[4\]
*723 ntt\.mem_wdata\[5\]
*724 ntt\.mem_wdata\[6\]
*725 ntt\.mem_wdata\[7\]
*726 ntt\.mem_wdata\[8\]
*727 ntt\.mem_wdata\[9\]
*728 ntt\.mem_we
*729 ntt\.op\[0\]
*730 ntt\.op\[1\]
*731 ntt\.op\[2\]
*732 ntt\.slot_a\[0\]
*733 ntt\.slot_a\[1\]
*734 ntt\.slot_b\[0\]
*735 ntt\.slot_b\[1\]
*736 ntt\.slot_c\[0\]
*737 ntt\.slot_c\[1\]
*738 ntt\.start
*739 ntt\.u_bridge
*740 ntt\.u_engine

*PORTS
analog_io[0] I
analog_io[10] I
analog_io[11] I
analog_io[12] I
analog_io[13] I
analog_io[14] I
analog_io[15] I
analog_io[16] I
analog_io[17] I
analog_io[18] I
analog_io[19] I
analog_io[1] I
analog_io[20] I
analog_io[21] I
analog_io[22] I
analog_io[23] I
analog_io[24] I
analog_io[25] I
analog_io[26] I
analog_io[27] I
analog_io[28] I
analog_io[2] I
analog_io[3] I
analog_io[4] I
analog_io[5] I
analog_io[6] I
analog_io[7] I
analog_io[8] I
analog_io[9] I
io_in[0] I
io_in[10] I
io_in[11] I
io_in[12] I
io_in[13] I
io_in[14] I
io_in[15] I
io_in[16] I
io_in[17] I
io_in[18] I
io_in[19] I
io_in[1] I
io_in[20] I
io_in[21] I
io_in[22] I
io_in[23] I
io_in[24] I
io_in[25] I
io_in[26] I
io_in[27] I
io_in[28] I
io_in[29] I
io_in[2] I
io_in[30] I
io_in[31] I
io_in[32] I
io_in[33] I
io_in[34] I
io_in[35] I
io_in[36] I
io_in[37] I
io_in[3] I
io_in[4] I
io_in[5] I
io_in[6] I
io_in[7] I
io_in[8] I
io_in[9] I
io_oeb[0] O
io_oeb[10] O
io_oeb[11] O
io_oeb[12] O
io_oeb[13] O
io_oeb[14] O
io_oeb[15] O
io_oeb[16] O
io_oeb[17] O
io_oeb[18] O
io_oeb[19] O
io_oeb[1] O
io_oeb[20] O
io_oeb[21] O
io_oeb[22] O
io_oeb[23] O
io_oeb[24] O
io_oeb[25] O
io_oeb[26] O
io_oeb[27] O
io_oeb[28] O
io_oeb[29] O
io_oeb[2] O
io_oeb[30] O
io_oeb[31] O
io_oeb[32] O
io_oeb[33] O
io_oeb[34] O
io_oeb[35] O
io_oeb[36] O
io_oeb[37] O
io_oeb[3] O
io_oeb[4] O
io_oeb[5] O
io_oeb[6] O
io_oeb[7] O
io_oeb[8] O
io_oeb[9] O
io_out[0] O
io_out[10] O
io_out[11] O
io_out[12] O
io_out[13] O
io_out[14] O
io_out[15] O
io_out[16] O
io_out[17] O
io_out[18] O
io_out[19] O
io_out[1] O
io_out[20] O
io_out[21] O
io_out[22] O
io_out[23] O
io_out[24] O
io_out[25] O
io_out[26] O
io_out[27] O
io_out[28] O
io_out[29] O
io_out[2] O
io_out[30] O
io_out[31] O
io_out[32] O
io_out[33] O
io_out[34] O
io_out[35] O
io_out[36] O
io_out[37] O
io_out[3] O
io_out[4] O
io_out[5] O
io_out[6] O
io_out[7] O
io_out[8] O
io_out[9] O
la_data_in[0] I
la_data_in[100] I
la_data_in[101] I
la_data_in[102] I
la_data_in[103] I
la_data_in[104] I
la_data_in[105] I
la_data_in[106] I
la_data_in[107] I
la_data_in[108] I
la_data_in[109] I
la_data_in[10] I
la_data_in[110] I
la_data_in[111] I
la_data_in[112] I
la_data_in[113] I
la_data_in[114] I
la_data_in[115] I
la_data_in[116] I
la_data_in[117] I
la_data_in[118] I
la_data_in[119] I
la_data_in[11] I
la_data_in[120] I
la_data_in[121] I
la_data_in[122] I
la_data_in[123] I
la_data_in[124] I
la_data_in[125] I
la_data_in[126] I
la_data_in[127] I
la_data_in[12] I
la_data_in[13] I
la_data_in[14] I
la_data_in[15] I
la_data_in[16] I
la_data_in[17] I
la_data_in[18] I
la_data_in[19] I
la_data_in[1] I
la_data_in[20] I
la_data_in[21] I
la_data_in[22] I
la_data_in[23] I
la_data_in[24] I
la_data_in[25] I
la_data_in[26] I
la_data_in[27] I
la_data_in[28] I
la_data_in[29] I
la_data_in[2] I
la_data_in[30] I
la_data_in[31] I
la_data_in[32] I
la_data_in[33] I
la_data_in[34] I
la_data_in[35] I
la_data_in[36] I
la_data_in[37] I
la_data_in[38] I
la_data_in[39] I
la_data_in[3] I
la_data_in[40] I
la_data_in[41] I
la_data_in[42] I
la_data_in[43] I
la_data_in[44] I
la_data_in[45] I
la_data_in[46] I
la_data_in[47] I
la_data_in[48] I
la_data_in[49] I
la_data_in[4] I
la_data_in[50] I
la_data_in[51] I
la_data_in[52] I
la_data_in[53] I
la_data_in[54] I
la_data_in[55] I
la_data_in[56] I
la_data_in[57] I
la_data_in[58] I
la_data_in[59] I
la_data_in[5] I
la_data_in[60] I
la_data_in[61] I
la_data_in[62] I
la_data_in[63] I
la_data_in[64] I
la_data_in[65] I
la_data_in[66] I
la_data_in[67] I
la_data_in[68] I
la_data_in[69] I
la_data_in[6] I
la_data_in[70] I
la_data_in[71] I
la_data_in[72] I
la_data_in[73] I
la_data_in[74] I
la_data_in[75] I
la_data_in[76] I
la_data_in[77] I
la_data_in[78] I
la_data_in[79] I
la_data_in[7] I
la_data_in[80] I
la_data_in[81] I
la_data_in[82] I
la_data_in[83] I
la_data_in[84] I
la_data_in[85] I
la_data_in[86] I
la_data_in[87] I
la_data_in[88] I
la_data_in[89] I
la_data_in[8] I
la_data_in[90] I
la_data_in[91] I
la_data_in[92] I
la_data_in[93] I
la_data_in[94] I
la_data_in[95] I
la_data_in[96] I
la_data_in[97] I
la_data_in[98] I
la_data_in[99] I
la_data_in[9] I
la_data_out[0] O
la_data_out[100] O
la_data_out[101] O
la_data_out[102] O
la_data_out[103] O
la_data_out[104] O
la_data_out[105] O
la_data_out[106] O
la_data_out[107] O
la_data_out[108] O
la_data_out[109] O
la_data_out[10] O
la_data_out[110] O
la_data_out[111] O
la_data_out[112] O
la_data_out[113] O
la_data_out[114] O
la_data_out[115] O
la_data_out[116] O
la_data_out[117] O
la_data_out[118] O
la_data_out[119] O
la_data_out[11] O
la_data_out[120] O
la_data_out[121] O
la_data_out[122] O
la_data_out[123] O
la_data_out[124] O
la_data_out[125] O
la_data_out[126] O
la_data_out[127] O
la_data_out[12] O
la_data_out[13] O
la_data_out[14] O
la_data_out[15] O
la_data_out[16] O
la_data_out[17] O
la_data_out[18] O
la_data_out[19] O
la_data_out[1] O
la_data_out[20] O
la_data_out[21] O
la_data_out[22] O
la_data_out[23] O
la_data_out[24] O
la_data_out[25] O
la_data_out[26] O
la_data_out[27] O
la_data_out[28] O
la_data_out[29] O
la_data_out[2] O
la_data_out[30] O
la_data_out[31] O
la_data_out[32] O
la_data_out[33] O
la_data_out[34] O
la_data_out[35] O
la_data_out[36] O
la_data_out[37] O
la_data_out[38] O
la_data_out[39] O
la_data_out[3] O
la_data_out[40] O
la_data_out[41] O
la_data_out[42] O
la_data_out[43] O
la_data_out[44] O
la_data_out[45] O
la_data_out[46] O
la_data_out[47] O
la_data_out[48] O
la_data_out[49] O
la_data_out[4] O
la_data_out[50] O
la_data_out[51] O
la_data_out[52] O
la_data_out[53] O
la_data_out[54] O
la_data_out[55] O
la_data_out[56] O
la_data_out[57] O
la_data_out[58] O
la_data_out[59] O
la_data_out[5] O
la_data_out[60] O
la_data_out[61] O
la_data_out[62] O
la_data_out[63] O
la_data_out[64] O
la_data_out[65] O
la_data_out[66] O
la_data_out[67] O
la_data_out[68] O
la_data_out[69] O
la_data_out[6] O
la_data_out[70] O
la_data_out[71] O
la_data_out[72] O
la_data_out[73] O
la_data_out[74] O
la_data_out[75] O
la_data_out[76] O
la_data_out[77] O
la_data_out[78] O
la_data_out[79] O
la_data_out[7] O
la_data_out[80] O
la_data_out[81] O
la_data_out[82] O
la_data_out[83] O
la_data_out[84] O
la_data_out[85] O
la_data_out[86] O
la_data_out[87] O
la_data_out[88] O
la_data_out[89] O
la_data_out[8] O
la_data_out[90] O
la_data_out[91] O
la_data_out[92] O
la_data_out[93] O
la_data_out[94] O
la_data_out[95] O
la_data_out[96] O
la_data_out[97] O
la_data_out[98] O
la_data_out[99] O
la_data_out[9] O
la_oenb[0] I
la_oenb[100] I
la_oenb[101] I
la_oenb[102] I
la_oenb[103] I
la_oenb[104] I
la_oenb[105] I
la_oenb[106] I
la_oenb[107] I
la_oenb[108] I
la_oenb[109] I
la_oenb[10] I
la_oenb[110] I
la_oenb[111] I
la_oenb[112] I
la_oenb[113] I
la_oenb[114] I
la_oenb[115] I
la_oenb[116] I
la_oenb[117] I
la_oenb[118] I
la_oenb[119] I
la_oenb[11] I
la_oenb[120] I
la_oenb[121] I
la_oenb[122] I
la_oenb[123] I
la_oenb[124] I
la_oenb[125] I
la_oenb[126] I
la_oenb[127] I
la_oenb[12] I
la_oenb[13] I
la_oenb[14] I
la_oenb[15] I
la_oenb[16] I
la_oenb[17] I
la_oenb[18] I
la_oenb[19] I
la_oenb[1] I
la_oenb[20] I
la_oenb[21] I
la_oenb[22] I
la_oenb[23] I
la_oenb[24] I
la_oenb[25] I
la_oenb[26] I
la_oenb[27] I
la_oenb[28] I
la_oenb[29] I
la_oenb[2] I
la_oenb[30] I
la_oenb[31] I
la_oenb[32] I
la_oenb[33] I
la_oenb[34] I
la_oenb[35] I
la_oenb[36] I
la_oenb[37] I
la_oenb[38] I
la_oenb[39] I
la_oenb[3] I
la_oenb[40] I
la_oenb[41] I
la_oenb[42] I
la_oenb[43] I
la_oenb[44] I
la_oenb[45] I
la_oenb[46] I
la_oenb[47] I
la_oenb[48] I
la_oenb[49] I
la_oenb[4] I
la_oenb[50] I
la_oenb[51] I
la_oenb[52] I
la_oenb[53] I
la_oenb[54] I
la_oenb[55] I
la_oenb[56] I
la_oenb[57] I
la_oenb[58] I
la_oenb[59] I
la_oenb[5] I
la_oenb[60] I
la_oenb[61] I
la_oenb[62] I
la_oenb[63] I
la_oenb[64] I
la_oenb[65] I
la_oenb[66] I
la_oenb[67] I
la_oenb[68] I
la_oenb[69] I
la_oenb[6] I
la_oenb[70] I
la_oenb[71] I
la_oenb[72] I
la_oenb[73] I
la_oenb[74] I
la_oenb[75] I
la_oenb[76] I
la_oenb[77] I
la_oenb[78] I
la_oenb[79] I
la_oenb[7] I
la_oenb[80] I
la_oenb[81] I
la_oenb[82] I
la_oenb[83] I
la_oenb[84] I
la_oenb[85] I
la_oenb[86] I
la_oenb[87] I
la_oenb[88] I
la_oenb[89] I
la_oenb[8] I
la_oenb[90] I
la_oenb[91] I
la_oenb[92] I
la_oenb[93] I
la_oenb[94] I
la_oenb[95] I
la_oenb[96] I
la_oenb[97] I
la_oenb[98] I
la_oenb[99] I
la_oenb[9] I
user_clock2 I
user_irq[0] O
user_irq[1] O
user_irq[2] O
wb_clk_i I
wb_rst_i I
wbs_ack_o O
wbs_adr_i[0] I
wbs_adr_i[10] I
wbs_adr_i[11] I
wbs_adr_i[12] I
wbs_adr_i[13] I
wbs_adr_i[14] I
wbs_adr_i[15] I
wbs_adr_i[16] I
wbs_adr_i[17] I
wbs_adr_i[18] I
wbs_adr_i[19] I
wbs_adr_i[1] I
wbs_adr_i[20] I
wbs_adr_i[21] I
wbs_adr_i[22] I
wbs_adr_i[23] I
wbs_adr_i[24] I
wbs_adr_i[25] I
wbs_adr_i[26] I
wbs_adr_i[27] I
wbs_adr_i[28] I
wbs_adr_i[29] I
wbs_adr_i[2] I
wbs_adr_i[30] I
wbs_adr_i[31] I
wbs_adr_i[3] I
wbs_adr_i[4] I
wbs_adr_i[5] I
wbs_adr_i[6] I
wbs_adr_i[7] I
wbs_adr_i[8] I
wbs_adr_i[9] I
wbs_cyc_i I
wbs_dat_i[0] I
wbs_dat_i[10] I
wbs_dat_i[11] I
wbs_dat_i[12] I
wbs_dat_i[13] I
wbs_dat_i[14] I
wbs_dat_i[15] I
wbs_dat_i[16] I
wbs_dat_i[17] I
wbs_dat_i[18] I
wbs_dat_i[19] I
wbs_dat_i[1] I
wbs_dat_i[20] I
wbs_dat_i[21] I
wbs_dat_i[22] I
wbs_dat_i[23] I
wbs_dat_i[24] I
wbs_dat_i[25] I
wbs_dat_i[26] I
wbs_dat_i[27] I
wbs_dat_i[28] I
wbs_dat_i[29] I
wbs_dat_i[2] I
wbs_dat_i[30] I
wbs_dat_i[31] I
wbs_dat_i[3] I
wbs_dat_i[4] I
wbs_dat_i[5] I
wbs_dat_i[6] I
wbs_dat_i[7] I
wbs_dat_i[8] I
wbs_dat_i[9] I
wbs_dat_o[0] O
wbs_dat_o[10] O
wbs_dat_o[11] O
wbs_dat_o[12] O
wbs_dat_o[13] O
wbs_dat_o[14] O
wbs_dat_o[15] O
wbs_dat_o[16] O
wbs_dat_o[17] O
wbs_dat_o[18] O
wbs_dat_o[19] O
wbs_dat_o[1] O
wbs_dat_o[20] O
wbs_dat_o[21] O
wbs_dat_o[22] O
wbs_dat_o[23] O
wbs_dat_o[24] O
wbs_dat_o[25] O
wbs_dat_o[26] O
wbs_dat_o[27] O
wbs_dat_o[28] O
wbs_dat_o[29] O
wbs_dat_o[2] O
wbs_dat_o[30] O
wbs_dat_o[31] O
wbs_dat_o[3] O
wbs_dat_o[4] O
wbs_dat_o[5] O
wbs_dat_o[6] O
wbs_dat_o[7] O
wbs_dat_o[8] O
wbs_dat_o[9] O
wbs_sel_i[0] I
wbs_sel_i[1] I
wbs_sel_i[2] I
wbs_sel_i[3] I
wbs_stb_i I
wbs_we_i I

*D_NET *68 0.296678
*CONN
*P io_oeb[0] O
*I *739:io_oeb_o[0] O *D ntt_wb_bridge
*CAP
1 io_oeb[0] 0.00600619
2 *739:io_oeb_o[0] 0.000876288
3 *68:27 0.0276276
4 *68:25 0.0222205
5 *68:19 0.0102508
6 *68:17 0.010528
7 io_oeb[0] *90:27 0.00490053
8 io_oeb[0] *100:31 0.00168127
9 io_oeb[0] *101:31 0.0016712
10 *68:17 *108:19 3.46269e-05
11 *68:17 *117:18 0.000149187
12 *68:17 *141:25 0.000143653
13 *68:19 *74:13 0.00593259
14 *68:19 *75:13 0.00521148
15 *68:19 *81:15 0.000504411
16 *68:19 *90:21 0.00108241
17 *68:19 *100:19 0.00430292
18 *68:19 *101:17 0.00128565
19 *68:19 *101:19 3.2589e-05
20 *68:19 *102:17 0.00213614
21 *68:19 *102:19 0.019938
22 *68:19 *104:17 1.29348e-05
23 *68:19 *104:19 0.0371294
24 *68:19 *105:15 0.00451402
25 *68:19 *108:19 0.00332811
26 *68:19 *108:27 0.00719205
27 *68:19 *109:23 0.000448261
28 *68:19 *117:18 0.00117642
29 *68:19 *142:15 0.000396539
30 *68:25 *101:25 0.000887192
31 *68:27 *100:29 0
32 *68:27 *101:27 0.0840497
33 *68:27 *141:33 0.0310276
*RES
1 *739:io_oeb_o[0] *68:17 26.3031 
2 *68:17 *68:19 86.4379 
3 *68:19 *68:25 18.2139 
4 *68:25 *68:27 160.798 
5 *68:27 io_oeb[0] 39.9848 
*END

*D_NET *69 0.540854
*CONN
*P io_oeb[10] O
*I *739:io_oeb_o[10] O *D ntt_wb_bridge
*CAP
1 io_oeb[10] 0.00917179
2 *739:io_oeb_o[10] 0.00198824
3 *69:21 0.138253
4 *69:19 0.129082
5 *69:17 0.0276036
6 *69:15 0.0295918
7 *69:15 *141:25 7.56811e-05
8 *69:17 *70:20 0.000166853
9 *69:17 *138:13 0.0570145
10 *69:17 *281:23 0.016235
11 *69:17 *352:27 0.000352987
12 *69:17 *357:31 0.0373045
13 *69:17 *358:31 0.00102877
14 *69:21 *103:17 0.027038
15 *69:21 *114:145 0.0144198
16 *69:21 *655:131 0.0176513
17 *69:21 *679:39 0.0194565
18 *69:21 *723:133 0.0144198
*RES
1 *739:io_oeb_o[10] *69:15 20.676 
2 *69:15 *69:17 195.832 
3 *69:17 *69:19 8 
4 *69:19 *69:21 446.988 
5 *69:21 io_oeb[10] 39.4552 
*END

*D_NET *70 0.454889
*CONN
*P io_oeb[11] O
*I *739:io_oeb_o[11] O *D ntt_wb_bridge
*CAP
1 io_oeb[11] 0.00118918
2 *739:io_oeb_o[11] 0.00216962
3 *70:30 0.0083418
4 *70:28 0.00715262
5 *70:26 0.118747
6 *70:24 0.118747
7 *70:22 0.0279507
8 *70:20 0.0301204
9 io_oeb[11] *111:35 0.000409619
10 *70:20 *83:13 0.00097729
11 *70:20 *352:27 0.00260143
12 *70:20 *357:31 0.00100483
13 *70:20 *358:31 0.000406026
14 *70:22 io_oeb[37] 0.0094917
15 *70:22 *71:22 0.09856
16 *70:22 *85:13 0.0142846
17 *70:22 *281:23 0.0108737
18 *70:22 *353:27 0.00169465
19 *69:17 *70:20 0.000166853
*RES
1 *739:io_oeb_o[11] *70:20 49.5086 
2 *70:20 *70:22 1054.48 
3 *70:22 *70:24 15 
4 *70:24 *70:26 2746.51 
5 *70:26 *70:28 15 
6 *70:28 *70:30 149.744 
7 *70:30 io_oeb[11] 31.4132 
*END

*D_NET *71 0.516637
*CONN
*P io_oeb[12] O
*I *739:io_oeb_o[12] O *D ntt_wb_bridge
*CAP
1 io_oeb[12] 0.0010921
2 *739:io_oeb_o[12] 0.00142061
3 *71:30 0.00715662
4 *71:28 0.00606452
5 *71:26 0.130735
6 *71:24 0.130735
7 *71:22 0.0137349
8 *71:20 0.0151555
9 io_oeb[12] *111:35 0.000131028
10 *71:20 *79:13 4.93913e-05
11 *71:20 *95:19 4.62763e-05
12 *71:22 io_oeb[37] 0.00549142
13 *71:22 *72:25 0.0998936
14 *71:22 *85:13 0.000748711
15 *71:22 *107:18 0.000481596
16 *71:22 *281:23 0.00416325
17 *71:22 *353:27 0.000978245
18 *70:22 *71:22 0.09856
*RES
1 *739:io_oeb_o[12] *71:20 44.0728 
2 *71:20 *71:22 1083.07 
3 *71:22 *71:24 15 
4 *71:24 *71:26 3025.05 
5 *71:26 *71:28 15 
6 *71:28 *71:30 135.451 
7 *71:30 io_oeb[12] 27.8918 
*END

*D_NET *72 0.541827
*CONN
*P io_oeb[13] O
*I *739:io_oeb_o[13] O *D ntt_wb_bridge
*CAP
1 io_oeb[13] 0.00117956
2 *739:io_oeb_o[13] 0.00176891
3 *72:33 0.00659193
4 *72:31 0.00541238
5 *72:29 0.142413
6 *72:27 0.142413
7 *72:25 0.0138775
8 *72:23 0.0156464
9 io_oeb[13] *111:35 0.000381824
10 *72:23 *79:13 0.000140553
11 *72:23 *95:19 0.000136951
12 *72:23 *141:25 8.01802e-05
13 *72:25 *73:20 0.100554
14 *72:25 *107:18 0.000747283
15 *72:25 *281:23 0.00357372
16 *72:25 *353:27 0.00701766
17 *71:22 *72:25 0.0998936
*RES
1 *739:io_oeb_o[13] *72:23 44.3236 
2 *72:23 *72:25 1090.21 
3 *72:25 *72:27 15 
4 *72:27 *72:29 3296.2 
5 *72:29 *72:31 15 
6 *72:31 *72:33 114.011 
7 *72:33 io_oeb[13] 31.0611 
*END

*D_NET *73 0.56357
*CONN
*P io_oeb[14] O
*I *739:io_oeb_o[14] O *D ntt_wb_bridge
*CAP
1 io_oeb[14] 0.00109186
2 *739:io_oeb_o[14] 0.00142498
3 *73:28 0.00581417
4 *73:26 0.00472231
5 *73:24 0.154433
6 *73:22 0.154433
7 *73:20 0.0137501
8 *73:18 0.0151751
9 *73:18 *79:13 0.000322875
10 *73:18 *95:19 0.000319273
11 *73:20 *107:18 0.101884
12 *73:20 *281:23 0.00357372
13 *73:20 *353:27 0.00607282
14 *72:25 *73:20 0.100554
*RES
1 *739:io_oeb_o[14] *73:18 43.8352 
2 *73:18 *73:20 1090.21 
3 *73:20 *73:22 15 
4 *73:22 *73:24 3574.75 
5 *73:24 *73:26 15 
6 *73:26 *73:28 99.7186 
7 *73:28 io_oeb[14] 27.5396 
*END

*D_NET *74 0.769039
*CONN
*P io_oeb[15] O
*I *739:io_oeb_o[15] O *D ntt_wb_bridge
*CAP
1 io_oeb[15] 0.000727555
2 *739:io_oeb_o[15] 0.00116014
3 *74:21 0.00367653
4 *74:19 0.00294898
5 *74:17 0.0983169
6 *74:15 0.0983169
7 *74:13 0.0121411
8 *74:11 0.0133013
9 *74:11 *141:25 0.00027218
10 *74:13 *75:13 0.0901522
11 *74:13 *104:19 0.0118561
12 *74:13 *105:15 0.000741987
13 *74:13 *108:27 0.0914636
14 *74:17 *77:163 0
15 *74:17 *113:17 0.281643
16 *74:17 *142:19 0
17 *74:17 *659:111 0.0260121
18 *74:17 *679:23 0
19 *74:17 *685:29 0
20 *74:17 *690:11 0
21 *74:17 *705:11 0.0149003
22 *74:17 *705:19 0
23 *74:17 *708:19 0
24 *74:17 *730:11 0.00629528
25 *74:17 *738:19 0
26 *74:21 *113:21 0.00918073
27 *68:19 *74:13 0.00593259
*RES
1 *739:io_oeb_o[15] *74:11 35.1522 
2 *74:11 *74:13 1001.12 
3 *74:13 *74:15 15 
4 *74:15 *74:17 3586.02 
5 *74:17 *74:19 15 
6 *74:19 *74:21 100.195 
7 *74:21 io_oeb[15] 31.4471 
*END

*D_NET *75 0.731832
*CONN
*P io_oeb[16] O
*I *739:io_oeb_o[16] O *D ntt_wb_bridge
*CAP
1 io_oeb[16] 0.000778993
2 *739:io_oeb_o[16] 0.0010273
3 *75:21 0.0153984
4 *75:19 0.0146194
5 *75:17 0.109384
6 *75:15 0.109384
7 *75:13 0.0241028
8 *75:11 0.0251301
9 *75:11 *82:13 0.000132365
10 *75:11 *86:13 0.000132365
11 *75:11 *87:13 0.000107569
12 *75:11 *91:13 0.00011465
13 *75:11 *94:13 0.000121836
14 *75:11 *141:31 0.000244384
15 *75:13 *102:19 0.000404317
16 *75:13 *104:19 0.0100158
17 *75:13 *105:15 0.0297419
18 *75:13 *108:27 0.000368398
19 *75:13 *110:13 0
20 *75:17 *78:129 0
21 *75:17 *115:145 0
22 *75:17 *142:19 0
23 *75:17 *665:21 0.00185548
24 *75:17 *671:17 0
25 *75:17 *680:11 0.0230229
26 *75:17 *720:11 0.226085
27 *75:21 *78:189 0.0120127
28 *75:21 *113:21 0.0322827
29 *68:19 *75:13 0.00521148
30 *74:13 *75:13 0.0901522
*RES
1 *739:io_oeb_o[16] *75:11 35.7955 
2 *75:11 *75:13 993.975 
3 *75:13 *75:15 15 
4 *75:15 *75:17 3585.66 
5 *75:17 *75:19 15 
6 *75:19 *75:21 443.224 
7 *75:21 io_oeb[16] 32.1514 
*END

*D_NET *76 0.680416
*CONN
*P io_oeb[17] O
*I *739:io_oeb_o[17] O *D ntt_wb_bridge
*CAP
1 io_oeb[17] 0.000757888
2 *739:io_oeb_o[17] 0.00042392
3 *76:167 0.00195348
4 *76:161 0.00247538
5 *76:157 0.0020954
6 *76:151 0.00473185
7 *76:149 0.00391623
8 *76:147 0.00139541
9 *76:143 0.00361674
10 *76:141 0.00222133
11 *76:139 0.00298889
12 *76:137 0.00298889
13 *76:135 0.00291854
14 *76:133 0.00409221
15 *76:129 0.00183406
16 *76:125 0.00139809
17 *76:119 0.0034543
18 *76:117 0.00271661
19 *76:115 0.00143413
20 *76:109 0.00228067
21 *76:103 0.00282398
22 *76:101 0.00262539
23 *76:95 0.0192347
24 *76:93 0.0185867
25 *76:91 0.0716617
26 *76:89 0.0716617
27 *76:87 0.00264701
28 *76:85 0.00329775
29 *76:79 0.00481038
30 *76:77 0.00415964
31 *76:75 0.00512835
32 *76:73 0.00512835
33 *76:71 0.00469172
34 *76:69 0.00469172
35 *76:67 0.00125941
36 *76:63 0.0055665
37 *76:61 0.00542887
38 *76:57 0.00199574
39 *76:53 0.00138408
40 *76:47 0.00389685
41 *76:45 0.00338673
42 *76:43 0.00191093
43 *76:41 0.00191093
44 *76:39 0.00398707
45 *76:37 0.00398707
46 *76:35 0.003015
47 *76:33 0.003015
48 *76:31 0.00298788
49 *76:29 0.00298788
50 *76:27 0.00298457
51 *76:25 0.00298457
52 *76:23 0.00607075
53 *76:21 0.00607075
54 *76:19 0.0118336
55 *76:17 0.0118336
56 *76:15 0.00445622
57 *76:13 0.00488014
58 *76:13 *141:31 0.000218621
59 *76:15 *80:23 0.00188854
60 *76:15 *92:13 0.00778943
61 *76:15 *100:23 0.00566536
62 *76:15 *112:29 0.00295822
63 *76:15 *114:13 0.000170302
64 *76:15 *115:13 0.0254636
65 *76:19 *78:23 0
66 *76:19 *79:17 0.00582101
67 *76:19 *79:23 0.000220315
68 *76:19 *115:17 0
69 *76:19 *363:71 0.0328346
70 *76:19 *658:13 0.000120707
71 *76:19 *693:11 0
72 *76:19 *696:11 0
73 *76:19 *697:11 0
74 *76:19 *701:8 0.000111066
75 *76:19 *702:9 0.000150895
76 *76:19 *722:9 0.000120707
77 *76:19 *727:9 0.000150895
78 *76:19 *729:9 0.00030179
79 *76:19 *731:9 0.00030179
80 *76:19 *736:9 0.000241414
81 *76:23 *708:7 0.000962728
82 *76:27 *651:11 0.00845812
83 *76:31 *671:21 0.0024036
84 *76:35 la_data_out[90] 0.00409546
85 *76:47 *669:65 0.00209931
86 *76:67 la_data_out[104] 0
87 *76:75 *78:121 0.00256725
88 *76:79 *296:15 0.00262823
89 *76:79 *300:15 2.73468e-05
90 *76:87 *102:27 0.00106157
91 *76:91 *103:17 0
92 *76:91 *114:145 0.186119
93 *76:91 *115:137 0
94 *76:91 *665:11 0
95 *76:95 *115:149 0.0141065
96 *76:95 *646:33 0.00106777
97 *76:103 *646:19 0
98 *76:103 *648:23 0.000225619
99 *76:103 *715:95 0.000806814
100 *76:151 *114:181 0
101 *76:167 *78:189 0.000580889
*RES
1 *739:io_oeb_o[17] *76:13 26.4767 
2 *76:13 *76:15 281.714 
3 *76:15 *76:17 15 
4 *76:17 *76:19 419.547 
5 *76:19 *76:21 15 
6 *76:21 *76:23 114.964 
7 *76:23 *76:25 15 
8 *76:25 *76:27 107.549 
9 *76:27 *76:29 15 
10 *76:29 *76:31 63.9864 
11 *76:31 *76:33 15 
12 *76:33 *76:35 100.154 
13 *76:35 *76:37 15 
14 *76:37 *76:39 85.9021 
15 *76:39 *76:41 15 
16 *76:41 *76:43 43.1064 
17 *76:43 *76:45 15 
18 *76:45 *76:47 68.2743 
19 *76:47 *76:53 41.0614 
20 *76:53 *76:57 32.7729 
21 *76:57 *76:61 39.795 
22 *76:61 *76:63 89.7136 
23 *76:63 *76:67 43.6686 
24 *76:67 *76:69 15 
25 *76:69 *76:71 103.53 
26 *76:71 *76:73 15 
27 *76:73 *76:75 114.591 
28 *76:75 *76:77 15 
29 *76:77 *76:79 117.823 
30 *76:79 *76:85 44.5829 
31 *76:85 *76:87 50.6464 
32 *76:87 *76:89 15 
33 *76:89 *76:91 2503.88 
34 *76:91 *76:93 15 
35 *76:93 *76:95 414.638 
36 *76:95 *76:101 41.7657 
37 *76:101 *76:103 44.9293 
38 *76:103 *76:109 48.1043 
39 *76:109 *76:115 45.3879 
40 *76:115 *76:117 15 
41 *76:117 *76:119 57.3164 
42 *76:119 *76:125 46.3436 
43 *76:125 *76:129 29.4379 
44 *76:129 *76:133 41.9079 
45 *76:133 *76:135 61.1279 
46 *76:135 *76:137 15 
47 *76:137 *76:139 68.4607 
48 *76:139 *76:141 15 
49 *76:141 *76:143 46.3586 
50 *76:143 *76:147 46.8379 
51 *76:147 *76:149 15 
52 *76:149 *76:151 86.3786 
53 *76:151 *76:157 48.1043 
54 *76:157 *76:161 43.2543 
55 *76:161 *76:167 40.4993 
56 *76:167 io_oeb[17] 31.7993 
*END

*D_NET *77 0.851709
*CONN
*P io_oeb[18] O
*I *739:io_oeb_o[18] O *D ntt_wb_bridge
*CAP
1 io_oeb[18] 0.00072666
2 *739:io_oeb_o[18] 0.00103802
3 *77:241 0.0329233
4 *77:239 0.0331249
5 *77:229 0.00306495
6 *77:227 0.00377988
7 *77:217 0.00447409
8 *77:211 0.00318936
9 *77:203 0.00256532
10 *77:197 0.00553668
11 *77:191 0.00504585
12 *77:179 0.003229
13 *77:171 0.0238008
14 *77:169 0.0230269
15 *77:163 0.00974519
16 *77:161 0.00964616
17 *77:155 0.00800072
18 *77:153 0.00768589
19 *77:147 0.00401497
20 *77:145 0.0044308
21 *77:139 0.00289758
22 *77:137 0.00215663
23 *77:135 0.00246461
24 *77:129 0.00353679
25 *77:123 0.00794632
26 *77:121 0.00846512
27 *77:115 0.0028813
28 *77:113 0.00200792
29 *77:107 0.00488058
30 *77:105 0.00484887
31 *77:99 0.00585363
32 *77:97 0.00681682
33 *77:89 0.00460207
34 *77:81 0.00945796
35 *77:75 0.00933257
36 *77:73 0.00810494
37 *77:69 0.00740901
38 *77:59 0.00540145
39 *77:53 0.00738028
40 *77:43 0.00644062
41 *77:41 0.00456425
42 *77:33 0.00697541
43 *77:29 0.00525068
44 *77:25 0.00190806
45 *77:15 0.00378789
46 *77:13 0.00342724
47 *77:13 *141:31 0.000240368
48 *77:15 *81:15 0.0032005
49 *77:15 *101:19 0.00230762
50 *77:15 *105:15 0.00467028
51 *77:15 *110:13 0.00488561
52 *77:25 *104:19 0.00852478
53 *77:25 *117:18 0.00852478
54 *77:29 *96:13 0
55 *77:33 *99:27 0.0103392
56 *77:33 *113:13 0.00269648
57 *77:33 *141:33 0.019414
58 *77:41 *648:7 0
59 *77:41 *738:7 0.000366314
60 *77:53 la_data_out[93] 0.000435214
61 *77:69 la_data_out[96] 0.000491412
62 *77:81 *652:25 5.64117e-05
63 *77:81 *655:7 0
64 *77:115 la_data_out[113] 0.00367034
65 *77:121 *720:7 0
66 *77:135 *665:39 0
67 *77:135 *686:33 0.000865456
68 *77:139 *686:33 0.0013513
69 *77:145 *665:39 6.52177e-06
70 *77:145 *686:33 0.000713806
71 *77:147 *112:33 0
72 *77:147 *672:23 0.00118993
73 *77:147 *721:129 0.00036123
74 *77:153 *298:31 0.000689052
75 *77:153 *655:115 0.000203991
76 *77:153 *669:33 0
77 *77:155 *667:19 0
78 *77:155 *673:23 0.0150765
79 *77:155 *674:11 0
80 *77:155 *686:19 0.00368835
81 *77:155 *714:123 0.000190812
82 *77:155 *721:135 0
83 *77:155 *723:127 0
84 *77:161 *740:mem_wdata[6] 0.00068062
85 *77:163 *700:19 0.00359658
86 *77:163 *705:19 0.0260758
87 *77:171 *646:35 0.144902
88 *77:171 *658:123 0.00470318
89 *77:171 *714:139 0.153941
90 *77:179 *78:135 0.000999738
91 *77:179 *78:141 0
92 *77:179 *115:149 0.00096718
93 *77:179 *646:29 0.000292127
94 *77:191 *78:141 0
95 *77:191 *78:151 0
96 *77:197 *78:151 0
97 *77:239 *78:189 0.000341525
98 *77:241 *78:189 0.0932003
99 *74:17 *77:163 0
*RES
1 *739:io_oeb_o[18] *77:13 35.3139 
2 *77:13 *77:15 129.257 
3 *77:15 *77:25 49.7361 
4 *77:25 *77:29 15.8921 
5 *77:29 *77:33 44.12 
6 *77:33 *77:41 48.2538 
7 *77:41 *77:43 52.9664 
8 *77:43 *77:53 47.6626 
9 *77:53 *77:59 49.2716 
10 *77:59 *77:69 46.2559 
11 *77:69 *77:73 26.7749 
12 *77:73 *77:75 64.235 
13 *77:75 *77:81 37.2651 
14 *77:81 *77:89 38.8049 
15 *77:89 *77:97 36.9852 
16 *77:97 *77:99 118.465 
17 *77:99 *77:105 18.632 
18 *77:105 *77:107 95.9279 
19 *77:107 *77:113 18.7179 
20 *77:113 *77:115 46.6279 
21 *77:115 *77:121 21.1221 
22 *77:121 *77:123 157.905 
23 *77:123 *77:129 19.3189 
24 *77:129 *77:135 43.7752 
25 *77:135 *77:137 8 
26 *77:137 *77:139 49.445 
27 *77:139 *77:145 18.632 
28 *77:145 *77:147 86.7721 
29 *77:147 *77:153 17.344 
30 *77:153 *77:155 251.575 
31 *77:155 *77:161 17.6016 
32 *77:161 *77:163 331.159 
33 *77:163 *77:169 17.5157 
34 *77:169 *77:171 1954.54 
35 *77:171 *77:179 46.1756 
36 *77:179 *77:191 43.0772 
37 *77:191 *77:197 26.9611 
38 *77:197 *77:203 49.4442 
39 *77:203 *77:211 16.4307 
40 *77:211 *77:217 48.7564 
41 *77:217 *77:227 49.1424 
42 *77:227 *77:229 49.445 
43 *77:229 *77:239 31.6038 
44 *77:239 *77:241 171.446 
45 *77:241 io_oeb[18] 24.2711 
*END

*D_NET *78 0.895353
*CONN
*P io_oeb[19] O
*I *739:io_oeb_o[19] O *D ntt_wb_bridge
*CAP
1 io_oeb[19] 0.000750419
2 *739:io_oeb_o[19] 0.000428775
3 *78:189 0.0531195
4 *78:187 0.0534167
5 *78:181 0.00367622
6 *78:179 0.00378354
7 *78:173 0.00288887
8 *78:169 0.00410801
9 *78:153 0.00436788
10 *78:151 0.00281445
11 *78:141 0.00316679
12 *78:135 0.00340772
13 *78:129 0.0320007
14 *78:127 0.036767
15 *78:121 0.0149736
16 *78:113 0.0126134
17 *78:111 0.00706839
18 *78:107 0.0053847
19 *78:97 0.00363839
20 *78:95 0.00185433
21 *78:93 0.00618789
22 *78:83 0.0070582
23 *78:79 0.00176469
24 *78:73 0.00309194
25 *78:71 0.0035317
26 *78:65 0.00502882
27 *78:57 0.0131697
28 *78:55 0.0106496
29 *78:49 0.00354673
30 *78:47 0.00237215
31 *78:45 0.00246883
32 *78:39 0.00375489
33 *78:33 0.00297352
34 *78:31 0.00438072
35 *78:27 0.00380807
36 *78:23 0.00466374
37 *78:13 0.0115597
38 *78:11 0.00843949
39 *78:11 *141:31 0.000162562
40 *78:13 *91:13 0.0118182
41 *78:13 *94:13 0.00118148
42 *78:13 *113:13 0.00258093
43 *78:13 *141:31 0.000763721
44 *78:13 *141:33 0.00337878
45 *78:13 *143:43 0
46 *78:23 *101:27 0.000508682
47 *78:23 *115:17 0.000399256
48 *78:23 *282:23 0.000780286
49 *78:27 *354:27 0.00310379
50 *78:31 *730:7 0
51 *78:33 *279:19 0.00476891
52 *78:45 *114:39 0.00024288
53 *78:45 *115:33 0
54 *78:45 *692:9 0
55 *78:55 *654:7 0.00270644
56 *78:57 la_data_out[90] 0.0129376
57 *78:57 *114:51 0
58 *78:65 *658:47 0.000540803
59 *78:65 *715:23 0.000280407
60 *78:65 *720:7 0.00161159
61 *78:71 *671:21 0
62 *78:83 *274:19 0.00250419
63 *78:93 la_data_out[100] 0.000464459
64 *78:97 *114:91 0
65 *78:107 *669:65 0
66 *78:111 *672:27 0.00130788
67 *78:113 la_data_out[107] 0
68 *78:113 *115:107 0
69 *78:121 *681:25 0.00559127
70 *78:127 *658:121 0.0013158
71 *78:127 *673:27 0.0140683
72 *78:127 *680:25 0
73 *78:129 *104:23 0.0052808
74 *78:129 *115:145 0.0544665
75 *78:129 *142:19 0.0746374
76 *78:129 *659:111 0.00700079
77 *78:129 *671:17 0.195149
78 *78:129 *679:31 0.0146047
79 *78:129 *681:13 0.00895224
80 *78:129 *723:149 0.00170319
81 *78:135 *115:149 0.000650148
82 *78:135 *648:21 0
83 *78:135 *679:21 4.80842e-05
84 *78:135 *715:91 0.000516416
85 *78:141 *646:29 0.000369411
86 *78:189 *115:199 0.000574303
87 *75:17 *78:129 0
88 *75:21 *78:189 0.0120127
89 *76:19 *78:23 0
90 *76:75 *78:121 0.00256725
91 *76:167 *78:189 0.000580889
92 *77:179 *78:135 0.000999738
93 *77:179 *78:141 0
94 *77:191 *78:141 0
95 *77:191 *78:151 0
96 *77:197 *78:151 0
97 *77:239 *78:189 0.000341525
98 *77:241 *78:189 0.0932003
*RES
1 *739:io_oeb_o[19] *78:11 24.8168 
2 *78:11 *78:13 251.223 
3 *78:13 *78:23 46.6111 
4 *78:23 *78:27 47.585 
5 *78:27 *78:31 17.6731 
6 *78:31 *78:33 60.7136 
7 *78:33 *78:39 20.7787 
8 *78:39 *78:45 47.039 
9 *78:45 *78:47 8 
10 *78:47 *78:49 53.6707 
11 *78:49 *78:55 21.208 
12 *78:55 *78:57 314.961 
13 *78:57 *78:65 45.5034 
14 *78:65 *78:71 20.5211 
15 *78:71 *78:73 50.1493 
16 *78:73 *78:79 18.7179 
17 *78:79 *78:83 39.8379 
18 *78:83 *78:93 48.0477 
19 *78:93 *78:95 8 
20 *78:95 *78:97 42.4021 
21 *78:97 *78:107 44.9852 
22 *78:107 *78:111 21.6229 
23 *78:111 *78:113 79.025 
24 *78:113 *78:121 49.6019 
25 *78:121 *78:127 44.3491 
26 *78:127 *78:129 2477.12 
27 *78:129 *78:135 20.6069 
28 *78:135 *78:141 44.7718 
29 *78:141 *78:151 36.5 
30 *78:151 *78:153 45.9236 
31 *78:153 *78:169 44.8796 
32 *78:169 *78:173 47.585 
33 *78:173 *78:179 19.92 
34 *78:179 *78:181 60.7136 
35 *78:181 *78:187 11.9667 
36 *78:187 *78:189 240.955 
37 *78:189 io_oeb[19] 24.9754 
*END

*D_NET *79 0.273354
*CONN
*P io_oeb[1] O
*I *739:io_oeb_o[1] O *D ntt_wb_bridge
*CAP
1 io_oeb[1] 0.0483989
2 *739:io_oeb_o[1] 0.00140194
3 *79:23 0.0512395
4 *79:17 0.0137794
5 *79:15 0.0109389
6 *79:13 0.0125641
7 *79:11 0.013966
8 io_oeb[1] *652:39 0
9 io_oeb[1] *721:19 0.00146765
10 io_oeb[1] *727:9 0.000260297
11 *79:11 *141:25 6.21839e-05
12 *79:13 io_oeb[37] 0.00348808
13 *79:13 *95:17 9.78658e-05
14 *79:13 *95:19 0.0186281
15 *79:13 *101:19 0
16 *79:13 *102:19 0
17 *79:13 *107:18 0.0101326
18 *79:13 *140:21 0.00877658
19 *79:13 *353:27 0.0389072
20 *79:17 *117:22 0.0200524
21 *79:17 *363:71 0.0033412
22 *79:17 *650:9 0.000287215
23 *79:17 *656:9 0.000210019
24 *79:17 *658:13 0.000364411
25 *79:17 *693:11 0.000847532
26 *79:17 *695:13 0.000287215
27 *79:17 *696:11 0.000336262
28 *79:17 *722:9 0.000364411
29 *79:17 *729:9 0.000441607
30 *79:17 *731:9 0.000441607
31 *79:17 *736:9 0.000364411
32 *79:17 *737:6 0.00510984
33 *79:23 *363:71 0.000242562
34 *79:23 *737:6 0
35 *71:20 *79:13 4.93913e-05
36 *72:23 *79:13 0.000140553
37 *73:18 *79:13 0.000322875
38 *76:19 *79:17 0.00582101
39 *76:19 *79:23 0.000220315
*RES
1 *739:io_oeb_o[1] *79:11 19.4589 
2 *79:11 *79:13 87.4683 
3 *79:13 *79:15 8 
4 *79:15 *79:17 54.3088 
5 *79:17 *79:23 16.0192 
6 *79:23 io_oeb[1] 159.912 
*END

*D_NET *80 0.934888
*CONN
*P io_oeb[20] O
*I *739:io_oeb_o[20] O *D ntt_wb_bridge
*CAP
1 io_oeb[20] 0.000719569
2 *739:io_oeb_o[20] 0.000710447
3 *80:267 0.0140478
4 *80:265 0.0160632
5 *80:247 0.00425949
6 *80:239 0.00388749
7 *80:237 0.0030727
8 *80:231 0.00304013
9 *80:229 0.00437189
10 *80:211 0.00410182
11 *80:203 0.00488755
12 *80:187 0.0174396
13 *80:185 0.014903
14 *80:179 0.0291127
15 *80:177 0.0312839
16 *80:171 0.00454545
17 *80:163 0.00423687
18 *80:155 0.00586758
19 *80:147 0.00549024
20 *80:139 0.0053049
21 *80:131 0.0059145
22 *80:129 0.00238554
23 *80:127 0.00273015
24 *80:115 0.0110754
25 *80:113 0.00834526
26 *80:111 0.00371742
27 *80:101 0.00513684
28 *80:95 0.00464209
29 *80:83 0.00515666
30 *80:81 0.00268051
31 *80:75 0.00449269
32 *80:73 0.00681719
33 *80:67 0.00857109
34 *80:65 0.00550007
35 *80:63 0.00339039
36 *80:51 0.00613139
37 *80:49 0.00523532
38 *80:43 0.00479105
39 *80:41 0.00714705
40 *80:37 0.00583914
41 *80:23 0.0114384
42 *80:21 0.01116
43 *80:21 *100:23 0.000790151
44 *80:21 *103:13 0.000308757
45 *80:21 *113:13 0.000156752
46 *80:21 *114:13 0.000267436
47 *80:21 *141:31 0.00152783
48 *80:23 *89:13 0.00301335
49 *80:23 *90:23 0.00306236
50 *80:23 *92:13 0.0646777
51 *80:23 *106:21 0.00393673
52 *80:23 *115:13 0.0232888
53 *80:23 *118:13 0.0268595
54 *80:23 *120:13 9.8971e-06
55 *80:23 *133:27 0.0052599
56 *80:37 *91:49 0.000608252
57 *80:37 *118:21 0.000869838
58 *80:37 *135:18 0.000151995
59 *80:41 *86:29 0.000935359
60 *80:41 *317:25 0.000107247
61 *80:49 *575:17 0.00608182
62 *80:49 *644:9 0
63 *80:51 *118:47 0
64 *80:63 *305:25 0
65 *80:63 *554:9 0
66 *80:63 *565:9 0.000405384
67 *80:63 *568:9 0.00359961
68 *80:63 *569:9 0
69 *80:73 io_out[36] 0.0125846
70 *80:73 *556:9 0.00348558
71 *80:75 la_data_out[5] 0
72 *80:81 *576:9 0.00092453
73 *80:81 *587:9 0
74 *80:83 la_data_out[4] 0
75 *80:95 la_data_out[2] 0.000320683
76 *80:95 *604:9 0.000974813
77 *80:95 *605:9 0
78 *80:95 *606:9 0.00104912
79 *80:95 *607:9 0
80 *80:101 *118:97 0
81 *80:101 *610:11 0
82 *80:111 *579:9 0
83 *80:111 *580:9 0.00273183
84 *80:111 *581:9 0
85 *80:111 *582:9 0.00148405
86 *80:115 *596:5 0
87 *80:127 *609:7 0
88 *80:127 *637:7 0
89 *80:127 *638:7 0.000483624
90 *80:127 *639:7 0.00164065
91 *80:131 wbs_dat_o[25] 0
92 *80:131 *540:93 0.00248155
93 *80:139 *118:129 0
94 *80:139 *617:7 0.00206899
95 *80:139 *618:7 0
96 *80:147 *621:7 0.000985527
97 *80:177 *118:149 0
98 *80:179 *740:mem_wdata[14] 0.000403959
99 *80:179 *116:137 0.155908
100 *80:179 *118:169 0
101 *80:179 *701:22 0.00646526
102 *80:179 *706:27 0.0177632
103 *80:179 *729:27 0
104 *80:179 *734:43 0.135991
105 *80:179 *737:46 0.00167691
106 *80:179 *737:54 0.0074129
107 *80:187 *116:137 0
108 *80:187 *116:145 0.0162626
109 *80:187 *118:177 6.00732e-05
110 *80:187 *691:11 0.000971698
111 *80:187 *704:35 0
112 *80:187 *734:51 0.01225
113 *80:203 *118:193 0.00071429
114 *80:203 *120:23 0.00308431
115 *80:203 *662:11 0.000460196
116 *80:203 *675:13 0.000292409
117 *80:203 *704:39 0
118 *80:203 *734:67 0.000109698
119 *80:211 *118:205 0.000841124
120 *80:247 io_out[22] 0.0011417
121 *80:267 *118:249 0.0545496
122 *80:267 *119:29 0.0298616
123 *76:15 *80:23 0.00188854
*RES
1 *739:io_oeb_o[20] *80:21 46.0638 
2 *80:21 *80:23 765.289 
3 *80:23 *80:37 46.1284 
4 *80:37 *80:41 22.9539 
5 *80:41 *80:43 50.8536 
6 *80:43 *80:49 27.648 
7 *80:49 *80:51 60.7136 
8 *80:51 *80:63 48.9893 
9 *80:63 *80:65 8 
10 *80:65 *80:67 121.986 
11 *80:67 *80:73 39.24 
12 *80:73 *80:75 82.5464 
13 *80:75 *80:81 19.2331 
14 *80:81 *80:83 43.1064 
15 *80:83 *80:95 49.9347 
16 *80:95 *80:101 47.8379 
17 *80:101 *80:111 45.1976 
18 *80:111 *80:113 8 
19 *80:113 *80:115 182.555 
20 *80:115 *80:127 43.7514 
21 *80:127 *80:129 8 
22 *80:129 *80:131 64.235 
23 *80:131 *80:139 46.7402 
24 *80:139 *80:147 48.2885 
25 *80:147 *80:155 45.8468 
26 *80:155 *80:163 47.8071 
27 *80:163 *80:171 44.4748 
28 *80:171 *80:177 23.9557 
29 *80:177 *80:179 2043.98 
30 *80:179 *80:185 16.8288 
31 *80:185 *80:187 507.935 
32 *80:187 *80:203 45.4501 
33 *80:203 *80:211 44.5259 
34 *80:211 *80:229 47.2786 
35 *80:229 *80:231 53.6707 
36 *80:231 *80:237 18.632 
37 *80:237 *80:239 54.375 
38 *80:239 *80:247 46.2441 
39 *80:247 *80:265 49.2709 
40 *80:265 *80:267 100.434 
41 *80:267 io_oeb[20] 24.2711 
*END

*D_NET *81 0.844
*CONN
*P io_oeb[21] O
*I *739:io_oeb_o[21] O *D ntt_wb_bridge
*CAP
1 io_oeb[21] 0.000664329
2 *739:io_oeb_o[21] 0.00102339
3 *81:27 0.0136009
4 *81:25 0.0129366
5 *81:23 0.0803824
6 *81:21 0.080603
7 *81:15 0.042673
8 *81:13 0.0434759
9 *81:13 *141:31 7.36673e-05
10 *81:15 *93:19 0.000208163
11 *81:15 *99:19 0.000395975
12 *81:15 *101:19 0.00389232
13 *81:15 *105:15 0.00314814
14 *81:15 *106:19 0.00569563
15 *81:15 *108:19 0.00457198
16 *81:15 *108:27 0
17 *81:15 *109:23 0
18 *81:15 *110:13 0.0528886
19 *81:15 *122:13 0.102382
20 *81:15 *123:15 0.000915392
21 *81:15 *124:15 0.000445064
22 *81:15 *124:23 0.0298249
23 *81:15 *125:13 0.000345002
24 *81:15 *125:21 0.00201267
25 *81:15 *126:13 0
26 *81:15 *130:15 0
27 *81:15 *141:13 0.000418954
28 *81:21 *119:25 0.000113066
29 *81:21 *581:5 0
30 *81:23 *119:25 0
31 *81:23 *581:5 0.0178874
32 *81:23 *676:21 0.00158434
33 *81:23 *689:19 0
34 *81:23 *691:11 0.00799665
35 *81:23 *710:35 0.0691888
36 *81:23 *717:35 0.0247681
37 *81:23 *733:35 0.198471
38 *81:27 io_oeb[22] 6.65687e-05
39 *81:27 *119:29 0.0376408
40 *68:19 *81:15 0.000504411
41 *77:15 *81:15 0.0032005
*RES
1 *739:io_oeb_o[21] *81:13 36.0567 
2 *81:13 *81:15 1569.98 
3 *81:15 *81:21 19.5882 
4 *81:21 *81:23 3586.37 
5 *81:23 *81:25 8 
6 *81:25 *81:27 69.5221 
7 *81:27 io_oeb[21] 22.8625 
*END

*D_NET *82 0.799366
*CONN
*P io_oeb[22] O
*I *739:io_oeb_o[22] O *D ntt_wb_bridge
*CAP
1 io_oeb[22] 0.00370664
2 *739:io_oeb_o[22] 0.00055999
3 *82:25 0.103783
4 *82:23 0.100077
5 *82:21 0.021857
6 *82:19 0.0219424
7 *82:13 0.0118799
8 *82:11 0.0123545
9 io_oeb[22] *119:29 0.00246346
10 *82:11 *141:31 0.0001296
11 *82:13 *86:13 0.0732917
12 *82:13 *87:31 0.000317859
13 *82:13 *87:43 0.000198031
14 *82:13 *91:13 0.0587569
15 *82:13 *91:33 0.000340356
16 *82:13 *91:47 0.000115782
17 *82:13 *94:33 0.000328146
18 *82:13 *94:53 0.000410395
19 *82:13 *94:65 0.00100583
20 *82:13 *95:37 0.00020086
21 *82:13 *95:49 2.98955e-05
22 *82:13 *95:51 0.00135238
23 *82:13 *95:77 0.000189726
24 *82:13 *103:11 0.000157187
25 *82:13 *116:29 0.000232727
26 *82:13 *118:11 0.000101032
27 *82:13 *120:13 0
28 *82:13 *122:11 0.000115403
29 *82:13 *126:11 0.000129774
30 *82:13 *136:17 0.000111633
31 *82:13 *141:23 0.000127117
32 *82:13 *141:25 0.00481709
33 *82:13 *141:31 0.00032708
34 *82:13 *143:13 0.000757682
35 *82:13 *143:29 0.000112764
36 *82:19 *325:19 0.000229733
37 *82:19 *327:35 0.000227511
38 *82:21 *86:29 0.0363741
39 *82:21 *87:53 0.0200096
40 *82:21 *610:15 0.0333754
41 *82:25 wbs_dat_o[13] 0.0249847
42 *82:25 *118:153 0
43 *82:25 *118:169 0
44 *82:25 *120:17 0.261567
45 *82:25 *662:15 0
46 *82:25 *675:15 0.000118593
47 *82:25 *695:35 0
48 *82:25 *718:19 0
49 *82:25 *725:35 0
50 *75:11 *82:13 0.000132365
51 *81:27 io_oeb[22] 6.65687e-05
*RES
1 *739:io_oeb_o[22] *82:11 24.2021 
2 *82:11 *82:13 807.691 
3 *82:13 *82:19 26.1382 
4 *82:19 *82:21 141.822 
5 *82:21 *82:23 8 
6 *82:23 *82:25 3571.58 
7 *82:25 io_oeb[22] 44.5375 
*END

*D_NET *83 0.673572
*CONN
*P io_oeb[23] O
*I *739:io_oeb_o[23] O *D ntt_wb_bridge
*CAP
1 io_oeb[23] 0.000750419
2 *739:io_oeb_o[23] 0.00161093
3 *83:29 0.0126309
4 *83:25 0.1675
5 *83:23 0.15562
6 *83:21 0.0203134
7 *83:19 0.0204094
8 *83:13 0.0150477
9 *83:11 0.0165626
10 *83:11 *141:31 0.000117871
11 *83:13 io_oeb[37] 0.00320565
12 *83:13 *84:13 0.0770306
13 *83:13 *85:13 0.000216423
14 *83:13 *343:35 0.00829235
15 *83:13 *347:41 0.000475268
16 *83:13 *348:43 0.0510778
17 *83:13 *349:43 0.00124
18 *83:13 *352:27 0.00796619
19 *83:19 *332:11 0.000222971
20 *83:19 *336:23 0.000225253
21 *83:21 io_oeb[37] 0.00036466
22 *83:21 *85:21 0.0753419
23 *83:21 *93:19 0.0358991
24 *83:21 *124:23 0.000472881
25 *83:25 *545:5 0
26 *70:20 *83:13 0.00097729
*RES
1 *739:io_oeb_o[23] *83:11 43.6309 
2 *83:11 *83:13 843.424 
3 *83:13 *83:19 26.1382 
4 *83:19 *83:21 146.287 
5 *83:21 *83:23 8 
6 *83:23 *83:25 3591.3 
7 *83:25 *83:29 48.7568 
8 *83:29 io_oeb[23] 24.9754 
*END

*D_NET *84 0.875032
*CONN
*P io_oeb[24] O
*I *739:io_oeb_o[24] O *D ntt_wb_bridge
*CAP
1 io_oeb[24] 0.0160357
2 *739:io_oeb_o[24] 0.00147442
3 *84:39 0.0160357
4 *84:37 0.0806368
5 *84:35 0.0810914
6 *84:29 0.0459664
7 *84:27 0.0456332
8 *84:21 0.0160489
9 *84:19 0.0159972
10 *84:13 0.0101396
11 *84:11 0.0115443
12 *84:11 *141:33 8.66022e-05
13 *84:13 io_oeb[37] 0.00296697
14 *84:13 *85:13 0.0783623
15 *84:13 *342:51 0.00919472
16 *84:13 *352:27 0.00512813
17 *84:19 *320:31 9.02578e-05
18 *84:19 *325:29 8.81675e-05
19 *84:21 io_oeb[37] 0.0748811
20 *84:21 *85:21 0.074462
21 *84:21 *93:19 3.18044e-05
22 *84:21 *135:14 0.000215964
23 *84:27 *547:5 0
24 *84:29 *86:33 0.0938391
25 *84:29 *92:25 0.00686249
26 *84:29 *93:23 0.00755648
27 *84:29 *121:27 0.000182878
28 *84:29 *547:5 0
29 *84:29 *580:5 0
30 *84:29 *662:15 0
31 *84:35 io_oeb[31] 0.000100942
32 *84:37 *86:41 0.103348
33 *83:13 *84:13 0.0770306
*RES
1 *739:io_oeb_o[24] *84:11 42.9876 
2 *84:11 *84:13 836.754 
3 *84:13 *84:19 24.3775 
4 *84:19 *84:21 143.11 
5 *84:21 *84:27 10.3407 
6 *84:27 *84:29 1479.68 
7 *84:29 *84:35 17.2152 
8 *84:35 *84:37 341.253 
9 *84:37 *84:39 8 
10 *84:39 io_oeb[24] 53.9523 
*END

*D_NET *85 0.747162
*CONN
*P io_oeb[25] O
*I *739:io_oeb_o[25] O *D ntt_wb_bridge
*CAP
1 io_oeb[25] 0.0150317
2 *739:io_oeb_o[25] 0.00148161
3 *85:27 0.0150317
4 *85:25 0.171776
5 *85:23 0.171776
6 *85:21 0.0164585
7 *85:19 0.0165743
8 *85:13 0.0128388
9 *85:11 0.0142046
10 *85:11 *141:33 0.000110828
11 *85:13 io_oeb[37] 0.0034289
12 *85:13 *107:18 0.00143421
13 *85:13 *342:51 0.00797137
14 *85:13 *347:41 0.0484453
15 *85:13 *352:27 0.00476997
16 *85:19 *342:47 0.000111272
17 *85:21 io_oeb[37] 0.00115546
18 *85:21 *93:19 0.000398235
19 *85:25 *546:5 0.0007482
20 *70:22 *85:13 0.0142846
21 *71:22 *85:13 0.000748711
22 *83:13 *85:13 0.000216423
23 *83:21 *85:21 0.0753419
24 *84:13 *85:13 0.0783623
25 *84:21 *85:21 0.074462
*RES
1 *739:io_oeb_o[25] *85:11 42.7288 
2 *85:11 *85:13 857.716 
3 *85:13 *85:19 24.7296 
4 *85:19 *85:21 146.759 
5 *85:21 *85:23 8 
6 *85:23 *85:25 559.451 
7 *85:25 *85:27 8 
8 *85:27 io_oeb[25] 50.5176 
*END

*D_NET *86 0.751232
*CONN
*P io_oeb[26] O
*I *739:io_oeb_o[26] O *D ntt_wb_bridge
*CAP
1 io_oeb[26] 0.0158719
2 *739:io_oeb_o[26] 0.000296541
3 *86:43 0.0158719
4 *86:41 0.0415762
5 *86:39 0.0419214
6 *86:33 0.033365
7 *86:31 0.0330198
8 *86:29 0.033131
9 *86:27 0.0331526
10 *86:21 0.000556946
11 *86:13 0.0111739
12 *86:11 0.0109352
13 *86:11 *94:13 0.000101467
14 *86:11 *141:33 0.000302563
15 *86:13 *87:51 0.00140271
16 *86:13 *91:13 0.00258403
17 *86:13 *91:33 0.000300503
18 *86:13 *94:13 0.0659692
19 *86:13 *95:37 0.00017734
20 *86:13 *95:77 0.000167512
21 *86:13 *103:11 0.000157187
22 *86:13 *116:29 0.000741365
23 *86:13 *118:11 0.000101032
24 *86:13 *122:11 0.000115403
25 *86:13 *126:11 0.000129774
26 *86:13 *141:23 0.000112232
27 *86:13 *141:25 0.00378451
28 *86:13 *141:31 0.000427194
29 *86:13 *141:33 0.000159189
30 *86:13 *143:13 0.000575343
31 *86:13 *351:39 0.00361734
32 *86:21 *351:39 0
33 *86:27 *325:19 7.80302e-05
34 *86:27 *327:35 7.57482e-05
35 *86:29 *610:15 0.000201825
36 *86:33 *93:23 0.0345538
37 *86:33 *547:5 0
38 *86:39 io_oeb[32] 0.000132124
39 *86:41 *87:57 0.0564719
40 *86:41 *661:11 0
41 *75:11 *86:13 0.000132365
42 *80:41 *86:29 0.000935359
43 *82:13 *86:13 0.0732917
44 *82:21 *86:29 0.0363741
45 *84:29 *86:33 0.0938391
46 *84:37 *86:41 0.103348
*RES
1 *739:io_oeb_o[26] *86:11 24.3253 
2 *86:11 *86:13 851.046 
3 *86:13 *86:21 40.1293 
4 *86:21 *86:27 24.0254 
5 *86:27 *86:29 143.196 
6 *86:29 *86:31 8 
7 *86:31 *86:33 1193.91 
8 *86:33 *86:39 16.9576 
9 *86:39 *86:41 291.622 
10 *86:41 *86:43 8 
11 *86:43 io_oeb[26] 54.124 
*END

*D_NET *87 0.745995
*CONN
*P io_oeb[27] O
*I *739:io_oeb_o[27] O *D ntt_wb_bridge
*CAP
1 io_oeb[27] 0.0163878
2 *739:io_oeb_o[27] 0.000230538
3 *87:59 0.0163878
4 *87:57 0.0861864
5 *87:55 0.0861864
6 *87:53 0.0192698
7 *87:51 0.0195666
8 *87:43 0.000950141
9 *87:31 0.00313842
10 *87:13 0.0118213
11 *87:11 0.00956681
12 *87:11 *141:33 0.000146459
13 *87:13 *91:33 0.000240391
14 *87:13 *94:13 0.0686245
15 *87:13 *95:37 0.00013851
16 *87:13 *103:11 0.000126552
17 *87:13 *126:11 0.000105571
18 *87:13 *141:25 0.00259628
19 *87:13 *141:33 0.000126825
20 *87:13 *143:13 0.000368351
21 *87:13 *143:43 0.0149959
22 *87:13 *351:39 0.0417947
23 *87:31 *91:33 0.00530364
24 *87:31 *94:33 0.00190959
25 *87:31 *94:53 0.002227
26 *87:31 *94:65 0.00133472
27 *87:31 *94:79 0.000969758
28 *87:31 *95:65 0.0021792
29 *87:31 *106:11 0.000453345
30 *87:31 *128:13 1.84032e-05
31 *87:31 *137:11 2.9555e-05
32 *87:31 *138:11 4.10529e-05
33 *87:31 *139:15 3.14935e-05
34 *87:31 *140:19 3.58243e-05
35 *87:31 *141:13 0
36 *87:43 *94:79 0.00108443
37 *87:51 *95:77 0.000136694
38 *87:51 *351:39 0.000801837
39 *87:53 *91:47 0.00057393
40 *87:53 *91:49 0.0760672
41 *87:53 *95:79 1.82674e-05
42 *87:53 *116:29 0.0075086
43 *87:53 *610:15 0.0343697
44 *87:57 *91:53 0.13209
45 *87:57 *547:5 0.00134726
46 *87:57 *661:11 0
47 *75:11 *87:13 0.000107569
48 *82:13 *87:31 0.000317859
49 *82:13 *87:43 0.000198031
50 *82:21 *87:53 0.0200096
51 *86:13 *87:51 0.00140271
52 *86:41 *87:57 0.0564719
*RES
1 *739:io_oeb_o[27] *87:11 24.0341 
2 *87:11 *87:13 732.416 
3 *87:13 *87:31 48.9771 
4 *87:31 *87:43 35.9827 
5 *87:43 *87:51 39.4161 
6 *87:51 *87:53 148.219 
7 *87:53 *87:55 8 
8 *87:55 *87:57 458.666 
9 *87:57 *87:59 8 
10 *87:59 io_oeb[27] 54.4675 
*END

*D_NET *88 0.766106
*CONN
*P io_oeb[28] O
*I *739:io_oeb_o[28] O *D ntt_wb_bridge
*CAP
1 io_oeb[28] 0.00141788
2 *739:io_oeb_o[28] 0.000610944
3 *88:29 0.0456226
4 *88:27 0.0442047
5 *88:25 0.00716821
6 *88:23 0.00736904
7 *88:17 0.0496032
8 *88:15 0.0500133
9 *88:15 *141:33 0.00012372
10 *88:17 *89:13 0.017193
11 *88:17 *111:31 0.0568004
12 *88:17 *112:29 0.0529583
13 *88:17 *120:13 0
14 *88:17 *121:21 0
15 *88:17 *128:21 0.0128739
16 *88:17 *130:23 0
17 *88:17 *130:31 0.0164118
18 *88:25 *95:79 0.0377738
19 *88:25 *131:25 0.0377835
20 *88:29 *89:25 0.153425
21 *88:29 *123:27 0.174006
22 *88:29 *575:13 0.000746225
*RES
1 *739:io_oeb_o[28] *88:15 30.1437 
2 *88:15 *88:17 1571.88 
3 *88:17 *88:23 26.1382 
4 *88:23 *88:25 70.252 
5 *88:25 *88:27 8 
6 *88:27 *88:29 410.685 
7 *88:29 io_oeb[28] 12.3213 
*END

*D_NET *89 0.709825
*CONN
*P io_oeb[29] O
*I *739:io_oeb_o[29] O *D ntt_wb_bridge
*CAP
1 io_oeb[29] 0.00152181
2 *739:io_oeb_o[29] 0.000431166
3 *89:25 0.0782891
4 *89:23 0.0767673
5 *89:21 0.0216968
6 *89:19 0.0217921
7 *89:13 0.0133767
8 *89:11 0.0137126
9 *89:11 *141:33 5.17254e-05
10 *89:13 *92:13 0.0766206
11 *89:13 *106:21 0.0125963
12 *89:13 *112:29 0.0544374
13 *89:13 *120:13 0
14 *89:13 *130:31 0.00172488
15 *89:13 *133:27 0.00197485
16 *89:21 *92:21 0.0399692
17 *89:21 *121:31 0.017575
18 *89:21 *122:21 0.00168202
19 *89:21 *130:31 0.101843
20 *89:25 *123:27 0.000131352
21 *80:23 *89:13 0.00301335
22 *88:17 *89:13 0.017193
23 *88:29 *89:25 0.153425
*RES
1 *739:io_oeb_o[29] *89:11 28.434 
2 *89:11 *89:13 930.61 
3 *89:13 *89:19 24.3775 
4 *89:19 *89:21 188.576 
5 *89:21 *89:23 8 
6 *89:23 *89:25 362.705 
7 *89:25 io_oeb[29] 12.4931 
*END

*D_NET *90 0.419824
*CONN
*P io_oeb[2] O
*I *739:io_oeb_o[2] O *D ntt_wb_bridge
*CAP
1 io_oeb[2] 0.00103467
2 *739:io_oeb_o[2] 0.00217734
3 *90:27 0.0179988
4 *90:25 0.0169641
5 *90:23 0.02201
6 *90:21 0.0241874
7 *90:21 *91:13 0.00010101
8 *90:21 *100:19 0.00137552
9 *90:21 *109:23 0.000371505
10 *90:21 *117:18 0.00339972
11 *90:21 *141:25 0.000529173
12 *90:21 *142:15 0.000428906
13 *90:21 *143:41 0.000112265
14 *90:23 *92:13 0.00664038
15 *90:23 *100:23 0.12452
16 *90:23 *106:21 0.127276
17 *90:23 *113:13 0.000146201
18 *90:23 *114:13 0.000356991
19 *90:23 *115:13 0.000404332
20 *90:23 *128:21 0.000103479
21 *90:23 *141:25 0.000494925
22 *90:27 io_out[0] 4.96777e-05
23 *90:27 *99:31 0.0409508
24 *90:27 *101:31 0.00504472
25 *90:27 *128:25 0.00656497
26 *90:27 *141:37 0.00753552
27 io_oeb[0] *90:27 0.00490053
28 *68:19 *90:21 0.00108241
29 *80:23 *90:23 0.00306236
*RES
1 *739:io_oeb_o[2] *90:21 49.7026 
2 *90:21 *90:23 235.502 
3 *90:23 *90:25 8 
4 *90:25 *90:27 96.7792 
5 *90:27 io_oeb[2] 10.9475 
*END

*D_NET *91 0.665004
*CONN
*P io_oeb[30] O
*I *739:io_oeb_o[30] O *D ntt_wb_bridge
*CAP
1 io_oeb[30] 0.0166505
2 *739:io_oeb_o[30] 0.000285253
3 *91:55 0.0166505
4 *91:53 0.0358772
5 *91:51 0.0358772
6 *91:49 0.0198309
7 *91:47 0.0204044
8 *91:33 0.00385735
9 *91:13 0.0229391
10 *91:11 0.0199405
11 *91:11 *94:13 0.000113915
12 *91:11 *141:33 0.00033968
13 *91:13 *94:13 0.00182541
14 *91:13 *95:37 0.00022362
15 *91:13 *103:11 0.000136151
16 *91:13 *113:13 0
17 *91:13 *120:13 0
18 *91:13 *126:11 0.000112406
19 *91:13 *132:17 0.00010101
20 *91:13 *136:17 0.000120607
21 *91:13 *141:23 0.00013476
22 *91:13 *141:25 0.00552883
23 *91:13 *141:31 0.000652193
24 *91:13 *141:33 0.000776281
25 *91:13 *143:13 0.000853844
26 *91:13 *143:15 0.00379256
27 *91:13 *143:29 0.000130187
28 *91:33 *94:13 0.000260582
29 *91:33 *94:79 0.00144552
30 *91:33 *95:43 0.0020995
31 *91:33 *95:51 0.00091509
32 *91:33 *95:65 0.00439088
33 *91:33 *131:25 0.00864472
34 *91:33 *141:13 9.10923e-05
35 *91:33 *142:13 0.000124584
36 *91:47 *94:79 1.49526e-05
37 *91:47 *94:81 6.45182e-05
38 *91:47 *95:77 0.00122595
39 *91:47 *116:27 0
40 *91:49 *94:81 0.0235316
41 *91:49 *95:79 0.000492851
42 *91:49 *116:29 0.0085834
43 *91:49 *118:21 0.00545212
44 *91:53 *92:25 0.111497
45 *91:53 *661:11 0
46 *75:11 *91:13 0.00011465
47 *78:13 *91:13 0.0118182
48 *80:37 *91:49 0.000608252
49 *82:13 *91:13 0.0587569
50 *82:13 *91:33 0.000340356
51 *82:13 *91:47 0.000115782
52 *86:13 *91:13 0.00258403
53 *86:13 *91:33 0.000300503
54 *87:13 *91:33 0.000240391
55 *87:31 *91:33 0.00530364
56 *87:53 *91:47 0.00057393
57 *87:53 *91:49 0.0760672
58 *87:57 *91:53 0.13209
59 *90:21 *91:13 0.00010101
*RES
1 *739:io_oeb_o[30] *91:11 24.8007 
2 *91:11 *91:13 742.897 
3 *91:13 *91:33 49.2528 
4 *91:33 *91:47 21.3547 
5 *91:47 *91:49 145.514 
6 *91:49 *91:51 8 
7 *91:51 *91:53 312.82 
8 *91:53 *91:55 8 
9 *91:55 io_oeb[30] 54.6392 
*END

*D_NET *92 0.658464
*CONN
*P io_oeb[31] O
*I *739:io_oeb_o[31] O *D ntt_wb_bridge
*CAP
1 io_oeb[31] 0.0167245
2 *739:io_oeb_o[31] 0.000554372
3 *92:27 0.0167245
4 *92:25 0.0309424
5 *92:23 0.0309424
6 *92:21 0.0181229
7 *92:19 0.0183253
8 *92:13 0.0107984
9 *92:11 0.0111504
10 *92:11 *141:33 0.000248569
11 *92:13 *106:21 0.00285192
12 *92:13 *112:29 0.00103967
13 *92:13 *133:27 0.0071912
14 *92:21 *96:23 0.0728379
15 *92:21 *97:15 0.0086925
16 *92:21 *121:31 0.000131991
17 *92:21 *122:21 0.000540159
18 *92:21 *130:31 0.000103135
19 *92:21 *132:19 0.00257399
20 *92:25 *93:23 0.0914803
21 *92:25 *661:11 0.00232982
22 *76:15 *92:13 0.00778943
23 *80:23 *92:13 0.0646777
24 *84:29 *92:25 0.00686249
25 *84:35 io_oeb[31] 0.000100942
26 *89:13 *92:13 0.0766206
27 *89:21 *92:21 0.0399692
28 *90:23 *92:13 0.00664038
29 *91:53 *92:25 0.111497
*RES
1 *739:io_oeb_o[31] *92:11 28.7352 
2 *92:11 *92:13 857.716 
3 *92:13 *92:19 26.1382 
4 *92:19 *92:21 155.002 
5 *92:21 *92:23 8 
6 *92:23 *92:25 265.601 
7 *92:25 *92:27 8 
8 *92:27 io_oeb[31] 54.8109 
*END

*D_NET *93 0.557855
*CONN
*P io_oeb[32] O
*I *739:io_oeb_o[32] O *D ntt_wb_bridge
*CAP
1 io_oeb[32] 0.0164012
2 *739:io_oeb_o[32] 0.00116437
3 *93:25 0.0164012
4 *93:23 0.0442382
5 *93:21 0.0442382
6 *93:19 0.0465732
7 *93:17 0.0477376
8 *93:17 *95:19 4.61568e-05
9 *93:17 *101:19 0.000189259
10 *93:17 *141:33 0.000170413
11 *93:19 *95:19 0.0561905
12 *93:19 *99:17 0.00036656
13 *93:19 *99:19 0.0143696
14 *93:19 *101:19 0.00117829
15 *93:19 *107:16 0.000176805
16 *93:19 *108:19 0.0011852
17 *93:19 *119:21 0.0342616
18 *93:19 *124:23 0.000645493
19 *93:19 *129:15 0.0436569
20 *93:19 *135:14 0.00920772
21 *93:19 *136:17 0.00216867
22 *93:19 *136:25 0.000327876
23 *93:19 *140:19 0.000230505
24 *93:23 *580:5 0.0016899
25 *93:23 *661:11 0.0027284
26 *93:23 *664:11 0.0020513
27 *93:23 *688:11 0
28 *81:15 *93:19 0.000208163
29 *83:21 *93:19 0.0358991
30 *84:21 *93:19 3.18044e-05
31 *84:29 *93:23 0.00755648
32 *85:21 *93:19 0.000398235
33 *86:33 *93:23 0.0345538
34 *86:39 io_oeb[32] 0.000132124
35 *92:25 *93:23 0.0914803
*RES
1 *739:io_oeb_o[32] *93:17 30.6632 
2 *93:17 *93:19 311.924 
3 *93:19 *93:21 8 
4 *93:21 *93:23 218.381 
5 *93:23 *93:25 8 
6 *93:25 io_oeb[32] 54.9827 
*END

*D_NET *94 0.486446
*CONN
*P io_oeb[33] O
*I *739:io_oeb_o[33] O *D ntt_wb_bridge
*CAP
1 io_oeb[33] 0.0183813
2 *739:io_oeb_o[33] 9.03057e-05
3 *94:87 0.0183813
4 *94:85 0.0504831
5 *94:83 0.0504831
6 *94:81 0.0174142
7 *94:79 0.0184144
8 *94:65 0.00200582
9 *94:53 0.00206853
10 *94:33 0.00194017
11 *94:13 0.0112806
12 *94:11 0.0104937
13 *94:11 *141:33 5.21424e-05
14 *94:13 *95:37 0.000156878
15 *94:13 *103:11 0.000143336
16 *94:13 *122:11 0.000107125
17 *94:13 *126:11 0.000119573
18 *94:13 *141:25 0.00265928
19 *94:13 *141:31 0.000428448
20 *94:13 *141:33 0.000592296
21 *94:13 *143:13 0.000377289
22 *94:13 *143:43 0.00266028
23 *94:13 *351:39 0.000145356
24 *94:33 *139:15 9.59299e-05
25 *94:33 *140:19 0.000358332
26 *94:53 *137:11 4.93791e-05
27 *94:53 *138:11 6.52177e-06
28 *94:65 *120:13 0
29 *94:65 *128:13 5.70803e-05
30 *94:79 *95:65 0.00216801
31 *94:79 *95:77 0.00262205
32 *94:79 *106:11 3.26183e-05
33 *94:79 *131:25 0.000737286
34 *94:81 *95:79 0.07666
35 *94:81 *118:21 0.0109884
36 *94:81 *131:25 1.49526e-05
37 *94:85 *581:5 0.00337981
38 *94:85 *701:22 0.000396746
39 *94:85 *716:27 0.00579159
40 *94:85 *717:27 0.000541747
41 *94:85 *726:27 4.53751e-05
42 *94:85 *729:27 0.000636023
43 *94:85 *729:35 0.000460576
44 *75:11 *94:13 0.000121836
45 *78:13 *94:13 0.00118148
46 *82:13 *94:33 0.000328146
47 *82:13 *94:53 0.000410395
48 *82:13 *94:65 0.00100583
49 *86:11 *94:13 0.000101467
50 *86:13 *94:13 0.0659692
51 *87:13 *94:13 0.0686245
52 *87:31 *94:33 0.00190959
53 *87:31 *94:53 0.002227
54 *87:31 *94:65 0.00133472
55 *87:31 *94:79 0.000969758
56 *87:43 *94:79 0.00108443
57 *91:11 *94:13 0.000113915
58 *91:13 *94:13 0.00182541
59 *91:33 *94:13 0.000260582
60 *91:33 *94:79 0.00144552
61 *91:47 *94:79 1.49526e-05
62 *91:47 *94:81 6.45182e-05
63 *91:49 *94:81 0.0235316
*RES
1 *739:io_oeb_o[33] *94:11 23.5749 
2 *94:11 *94:13 813.885 
3 *94:13 *94:33 45.5095 
4 *94:33 *94:53 49.7376 
5 *94:53 *94:65 49.2191 
6 *94:65 *94:79 33.21 
7 *94:79 *94:81 142.079 
8 *94:81 *94:83 8 
9 *94:83 *94:85 167.1 
10 *94:85 *94:87 8 
11 *94:87 io_oeb[33] 58.2456 
*END

*D_NET *95 0.506662
*CONN
*P io_oeb[34] O
*I *739:io_oeb_o[34] O *D ntt_wb_bridge
*CAP
1 io_oeb[34] 0.00115773
2 *739:io_oeb_o[34] 0.0016751
3 *95:83 0.0241416
4 *95:81 0.0229839
5 *95:79 0.0273118
6 *95:77 0.0280268
7 *95:65 0.00169455
8 *95:51 0.00220635
9 *95:49 0.00135045
10 *95:43 0.00411833
11 *95:37 0.0059464
12 *95:19 0.016298
13 *95:17 0.0160213
14 *95:17 *101:19 0.000736226
15 *95:17 *110:13 0.000132945
16 *95:17 *141:33 0.000656614
17 *95:19 io_oeb[37] 0.000799564
18 *95:19 *101:19 0.00026538
19 *95:19 *107:18 0.000551207
20 *95:19 *135:14 0.0077395
21 *95:19 *140:21 0.000623103
22 *95:37 *120:11 0
23 *95:37 *141:25 0.0010506
24 *95:43 *113:13 0.000422069
25 *95:43 *116:19 0.00152281
26 *95:43 *120:13 0.00172103
27 *95:43 *131:25 0.0027664
28 *95:43 *133:27 6.02207e-05
29 *95:43 *136:27 0.00247664
30 *95:43 *141:23 4.78027e-05
31 *95:43 *141:25 0.00892819
32 *95:43 *143:13 0.00722763
33 *95:43 *143:35 0.00390136
34 *95:49 *120:13 0.000120136
35 *95:51 *120:13 0.0013488
36 *95:79 *131:25 0.0365697
37 *95:79 *610:15 0
38 *95:83 *122:25 0.0139272
39 *95:83 *123:27 0
40 *95:83 *130:35 0.00110895
41 *95:83 *131:29 0.0502415
42 *71:20 *95:19 4.62763e-05
43 *72:23 *95:19 0.000136951
44 *73:18 *95:19 0.000319273
45 *79:13 *95:17 9.78658e-05
46 *79:13 *95:19 0.0186281
47 *82:13 *95:37 0.00020086
48 *82:13 *95:49 2.98955e-05
49 *82:13 *95:51 0.00135238
50 *82:13 *95:77 0.000189726
51 *86:13 *95:37 0.00017734
52 *86:13 *95:77 0.000167512
53 *87:13 *95:37 0.00013851
54 *87:31 *95:65 0.0021792
55 *87:51 *95:77 0.000136694
56 *87:53 *95:79 1.82674e-05
57 *88:25 *95:79 0.0377738
58 *91:13 *95:37 0.00022362
59 *91:33 *95:43 0.0020995
60 *91:33 *95:51 0.00091509
61 *91:33 *95:65 0.00439088
62 *91:47 *95:77 0.00122595
63 *91:49 *95:79 0.000492851
64 *93:17 *95:19 4.61568e-05
65 *93:19 *95:19 0.0561905
66 *94:13 *95:37 0.000156878
67 *94:79 *95:65 0.00216801
68 *94:79 *95:77 0.00262205
69 *94:81 *95:79 0.07666
*RES
1 *739:io_oeb_o[34] *95:17 32.7838 
2 *95:17 *95:19 109.45 
3 *95:19 *95:37 38.6738 
4 *95:37 *95:43 43.1531 
5 *95:43 *95:49 18.7389 
6 *95:49 *95:51 50.8846 
7 *95:51 *95:65 42.2243 
8 *95:65 *95:77 31.2022 
9 *95:77 *95:79 196.905 
10 *95:79 *95:81 8 
11 *95:81 *95:83 118.612 
12 *95:83 io_oeb[34] 11.2909 
*END

*D_NET *96 0.409857
*CONN
*P io_oeb[35] O
*I *739:io_oeb_o[35] O *D ntt_wb_bridge
*CAP
1 io_oeb[35] 0.0210721
2 *739:io_oeb_o[35] 0.000459451
3 *96:29 0.0210721
4 *96:27 0.0242285
5 *96:25 0.0242285
6 *96:23 0.0337893
7 *96:21 0.0339611
8 *96:15 0.0011262
9 *96:13 0.0014138
10 io_oeb[35] *605:9 0
11 io_oeb[35] *606:9 0.005278
12 *96:13 *141:33 0.000114854
13 *96:15 *111:31 0.0076249
14 *96:15 *112:29 0.0076232
15 *96:15 *128:21 0.00149215
16 *96:23 *97:15 0.0431841
17 *96:23 *117:18 0.0807963
18 *96:23 *132:19 0.0260541
19 *96:27 *586:5 0.00350009
20 *77:29 *96:13 0
21 *92:21 *96:23 0.0728379
*RES
1 *739:io_oeb_o[35] *96:13 28.6207 
2 *96:13 *96:15 83.52 
3 *96:15 *96:21 25.7861 
4 *96:21 *96:23 284.06 
5 *96:23 *96:25 8 
6 *96:25 *96:27 71.1387 
7 *96:27 *96:29 8 
8 *96:29 io_oeb[35] 75.0755 
*END

*D_NET *97 0.364264
*CONN
*P io_oeb[36] O
*I *739:io_oeb_o[36] O *D ntt_wb_bridge
*CAP
1 io_oeb[36] 0.0467133
2 *739:io_oeb_o[36] 0.000646605
3 *97:21 0.0467133
4 *97:19 0.0157573
5 *97:15 0.0369651
6 *97:13 0.0218544
7 io_oeb[36] *544:9 0
8 io_oeb[36] *545:9 0.0421429
9 *97:13 *141:33 0.000259531
10 *97:15 *117:18 0.00338527
11 *97:15 *128:21 0.0807344
12 *97:15 *130:31 0.00956758
13 *97:19 *129:19 0
14 *97:19 *134:21 0
15 *97:19 *304:25 0.0049259
16 *97:19 *336:23 0.000322499
17 *97:19 *337:41 0.000605042
18 *97:19 *338:39 0.000322499
19 *97:19 *339:39 0.000433179
20 *97:19 *345:35 0.000322499
21 *97:19 *347:37 0.00039345
22 *97:19 *349:39 0.000322499
23 *92:21 *97:15 0.0086925
24 *96:23 *97:15 0.0431841
*RES
1 *739:io_oeb_o[36] *97:13 17.8349 
2 *97:13 *97:15 182.609 
3 *97:15 *97:19 42.328 
4 *97:19 *97:21 8 
5 *97:21 io_oeb[36] 193.571 
*END

*D_NET *98 0.410881
*CONN
*P io_oeb[37] O
*I *739:io_oeb_o[37] O *D ntt_wb_bridge
*CAP
1 io_oeb[37] 0.0692639
2 *739:io_oeb_o[37] 0.00150033
3 *98:12 0.0707642
4 io_oeb[37] *123:23 0
5 io_oeb[37] *124:23 0
6 io_oeb[37] *134:17 0.000733033
7 io_oeb[37] *135:14 0.023817
8 io_oeb[37] *138:13 0
9 io_oeb[37] *339:43 0.00014675
10 io_oeb[37] *340:39 8.12867e-05
11 io_oeb[37] *342:51 0.0420389
12 io_oeb[37] *343:35 0.0013329
13 io_oeb[37] *346:41 0.00896186
14 io_oeb[37] *347:41 0.0107171
15 io_oeb[37] *348:43 0.00102311
16 io_oeb[37] *349:43 0.00130022
17 io_oeb[37] *352:27 0.0378221
18 io_oeb[37] *353:27 0.0361048
19 *70:22 io_oeb[37] 0.0094917
20 *71:22 io_oeb[37] 0.00549142
21 *79:13 io_oeb[37] 0.00348808
22 *83:13 io_oeb[37] 0.00320565
23 *83:21 io_oeb[37] 0.00036466
24 *84:13 io_oeb[37] 0.00296697
25 *84:21 io_oeb[37] 0.0748811
26 *85:13 io_oeb[37] 0.0034289
27 *85:21 io_oeb[37] 0.00115546
28 *95:19 io_oeb[37] 0.000799564
*RES
1 *739:io_oeb_o[37] *98:12 19.6325 
2 *98:12 io_oeb[37] 378.872 
*END

*D_NET *99 0.417734
*CONN
*P io_oeb[3] O
*I *739:io_oeb_o[3] O *D ntt_wb_bridge
*CAP
1 io_oeb[3] 0.00110396
2 *739:io_oeb_o[3] 0.00138563
3 *99:31 0.0294191
4 *99:29 0.0283152
5 *99:27 0.0225793
6 *99:25 0.023433
7 *99:19 0.00827321
8 *99:17 0.0088052
9 *99:17 *108:19 0.00133977
10 *99:17 *110:13 0.000278687
11 *99:17 *141:25 0.000104556
12 *99:19 *101:17 5.07438e-05
13 *99:19 *101:19 0.0265493
14 *99:19 *108:19 0.00116702
15 *99:19 *110:13 0.00554968
16 *99:27 *100:23 0.0986587
17 *99:27 *103:13 0.0139872
18 *99:27 *113:13 0.00987673
19 *99:27 *114:13 0.00274754
20 *99:27 *141:33 0.0284597
21 *99:31 io_out[0] 0.00402685
22 *99:31 *101:31 0.000625656
23 *99:31 *111:35 0.0240775
24 *99:31 *143:47 0.0104979
25 *77:33 *99:27 0.0103392
26 *81:15 *99:19 0.000395975
27 *90:27 *99:31 0.0409508
28 *93:19 *99:17 0.00036656
29 *93:19 *99:19 0.0143696
*RES
1 *739:io_oeb_o[3] *99:17 31.8592 
2 *99:17 *99:19 55.44 
3 *99:19 *99:25 17.96 
4 *99:25 *99:27 182.265 
5 *99:27 *99:29 8 
6 *99:29 *99:31 133.717 
7 *99:31 io_oeb[3] 11.1192 
*END

*D_NET *100 0.402894
*CONN
*P io_oeb[4] O
*I *739:io_oeb_o[4] O *D ntt_wb_bridge
*CAP
1 io_oeb[4] 0.000838569
2 *739:io_oeb_o[4] 0.00205901
3 *100:31 0.0305631
4 *100:29 0.0299193
5 *100:23 0.0231837
6 *100:21 0.0229889
7 *100:19 0.00205901
8 *100:19 la_data_out[56] 0.000718623
9 *100:19 *109:23 0.000894654
10 *100:19 *117:18 0.00153112
11 *100:19 *141:25 0.000123076
12 *100:19 *142:15 0.000774922
13 *100:23 *103:13 0.00328057
14 *100:23 *113:13 0.00166519
15 *100:23 *114:13 0.0038132
16 *100:23 *115:13 0.0070818
17 *100:23 *141:25 0.00293259
18 *100:23 *141:31 0.0029259
19 *100:23 *141:33 0.00156481
20 *100:29 *128:21 1.74409e-05
21 *100:29 *141:33 1.40476e-05
22 *100:31 user_irq[0] 0.000934623
23 *100:31 *101:31 0.0260157
24 *100:31 *128:25 0
25 io_oeb[0] *100:31 0.00168127
26 *68:19 *100:19 0.00430292
27 *68:27 *100:29 0
28 *76:15 *100:23 0.00566536
29 *80:21 *100:23 0.000790151
30 *90:21 *100:19 0.00137552
31 *90:23 *100:23 0.12452
32 *99:27 *100:23 0.0986587
*RES
1 *739:io_oeb_o[4] *100:19 43.5866 
2 *100:19 *100:21 8 
3 *100:21 *100:23 230.007 
4 *100:23 *100:29 8.7112 
5 *100:29 *100:31 948.114 
6 *100:31 io_oeb[4] 10.4752 
*END

*D_NET *101 0.47046
*CONN
*P io_oeb[5] O
*I *739:io_oeb_o[5] O *D ntt_wb_bridge
*CAP
1 io_oeb[5] 0.000905694
2 *739:io_oeb_o[5] 0.00144292
3 *101:31 0.0220966
4 *101:29 0.0211909
5 *101:27 0.0249817
6 *101:25 0.0259846
7 *101:19 0.00937332
8 *101:17 0.00981331
9 *101:17 *108:19 0.00107649
10 *101:17 *141:25 0.000323118
11 *101:19 *102:17 0.00112438
12 *101:19 *102:19 0.0372445
13 *101:19 *110:13 0.00115207
14 *101:27 *143:43 0.0331644
15 *101:27 *282:23 0.0474907
16 *101:31 *102:31 0.00266209
17 *101:31 *105:27 0.0219081
18 *101:31 *128:25 0.0363389
19 *101:31 *141:37 0.016896
20 io_oeb[0] *101:31 0.0016712
21 *68:19 *101:17 0.00128565
22 *68:19 *101:19 3.2589e-05
23 *68:25 *101:25 0.000887192
24 *68:27 *101:27 0.0840497
25 *77:15 *101:19 0.00230762
26 *78:23 *101:27 0.000508682
27 *79:13 *101:19 0
28 *81:15 *101:19 0.00389232
29 *90:27 *101:31 0.00504472
30 *93:17 *101:19 0.000189259
31 *93:19 *101:19 0.00117829
32 *95:17 *101:19 0.000736226
33 *95:19 *101:19 0.00026538
34 *99:19 *101:17 5.07438e-05
35 *99:19 *101:19 0.0265493
36 *99:31 *101:31 0.000625656
37 *100:31 *101:31 0.0260157
*RES
1 *739:io_oeb_o[5] *101:17 30.9024 
2 *101:17 *101:19 72.6992 
3 *101:19 *101:25 18.7216 
4 *101:25 *101:27 160.498 
5 *101:27 *101:29 8 
6 *101:29 *101:31 1149.54 
7 *101:31 io_oeb[5] 10.7328 
*END

*D_NET *102 0.470606
*CONN
*P io_oeb[6] O
*I *739:io_oeb_o[6] O *D ntt_wb_bridge
*CAP
1 io_oeb[6] 0.00107507
2 *739:io_oeb_o[6] 0.00166335
3 *102:31 0.027103
4 *102:29 0.0260279
5 *102:27 0.0331047
6 *102:25 0.0331047
7 *102:23 0.0513146
8 *102:21 0.0513146
9 *102:19 0.00968982
10 *102:17 0.0113532
11 *102:17 *141:25 0.000491414
12 *102:19 *104:19 0.00146563
13 *102:19 *105:15 0.000457053
14 *102:19 *110:13 0.000176157
15 *102:19 *353:27 0
16 *102:23 la_data_out[82] 0.005476
17 *102:23 *739:mem_rdata_i[30] 0.00672469
18 *102:23 *365:23 0.0119719
19 *102:23 *371:27 0.00678353
20 *102:23 *381:29 0.012917
21 *102:23 *699:11 0
22 *102:23 *733:19 0.00945723
23 *102:27 *352:19 0.00160777
24 *102:27 *353:19 9.81333e-06
25 *102:27 *358:25 0.000645832
26 *102:27 *663:43 0.000721136
27 *102:27 *673:45 0
28 *102:27 *674:15 0.0637904
29 *102:27 *679:61 0.000413814
30 *102:27 *685:73 0.00250393
31 *102:31 *105:27 0.0053396
32 *102:31 *111:35 0.0163061
33 *102:31 *141:37 0.00590871
34 *102:31 *143:47 0.00711681
35 *68:19 *102:17 0.00213614
36 *68:19 *102:19 0.019938
37 *75:13 *102:19 0.000404317
38 *76:87 *102:27 0.00106157
39 *79:13 *102:19 0
40 *101:19 *102:17 0.00112438
41 *101:19 *102:19 0.0372445
42 *101:31 *102:31 0.00266209
*RES
1 *739:io_oeb_o[6] *102:17 32.6122 
2 *102:17 *102:19 76.6491 
3 *102:19 *102:21 8 
4 *102:21 *102:23 157.073 
5 *102:23 *102:25 8 
6 *102:25 *102:27 152.04 
7 *102:27 *102:29 8 
8 *102:29 *102:31 89.9248 
9 *102:31 io_oeb[6] 11.1192 
*END

*D_NET *103 0.399637
*CONN
*P io_oeb[7] O
*I *739:io_oeb_o[7] O *D ntt_wb_bridge
*CAP
1 io_oeb[7] 0.0012085
2 *739:io_oeb_o[7] 0.000485977
3 *103:21 0.00874396
4 *103:19 0.00753545
5 *103:17 0.0616034
6 *103:15 0.0616034
7 *103:13 0.0268276
8 *103:11 0.0273136
9 io_oeb[7] *111:35 0.000381824
10 *103:11 *141:25 0.000415098
11 *103:13 *111:31 0
12 *103:13 *112:29 0
13 *103:13 *113:13 0.100486
14 *103:13 *114:13 0.0369043
15 *103:17 la_data_out[119] 0
16 *103:17 *114:145 0
17 *103:17 *679:39 0.0207929
18 *69:21 *103:17 0.027038
19 *76:91 *103:17 0
20 *80:21 *103:13 0.000308757
21 *82:13 *103:11 0.000157187
22 *86:13 *103:11 0.000157187
23 *87:13 *103:11 0.000126552
24 *91:13 *103:11 0.000136151
25 *94:13 *103:11 0.000143336
26 *99:27 *103:13 0.0139872
27 *100:23 *103:13 0.00328057
*RES
1 *739:io_oeb_o[7] *103:11 27.5569 
2 *103:11 *103:13 1117.37 
3 *103:13 *103:15 15 
4 *103:15 *103:17 1630.21 
5 *103:17 *103:19 15 
6 *103:19 *103:21 156.89 
7 *103:21 io_oeb[7] 31.0611 
*END

*D_NET *104 0.555
*CONN
*P io_oeb[8] O
*I *739:io_oeb_o[8] O *D ntt_wb_bridge
*CAP
1 io_oeb[8] 0.00480955
2 *739:io_oeb_o[8] 0.000789462
3 *104:29 0.0141285
4 *104:23 0.0766695
5 *104:21 0.0673506
6 *104:19 0.0465357
7 *104:17 0.0473252
8 io_oeb[8] *105:27 0.000763304
9 io_oeb[8] *111:35 0.00224351
10 io_oeb[8] *143:47 0.000978184
11 *104:17 *117:18 5.45304e-05
12 *104:17 *141:25 0.000102498
13 *104:19 *105:15 0.00133722
14 *104:19 *108:27 0.013688
15 *104:19 *109:23 0.0215471
16 *104:19 *117:18 0.016215
17 *104:19 *128:21 0
18 *104:19 *142:15 0.0186635
19 *104:23 *113:17 0.0032978
20 *104:23 *115:145 0.00162715
21 *104:23 *142:19 0.0297367
22 *104:23 *648:11 0.00299465
23 *104:23 *652:123 0.00908037
24 *104:23 *653:11 0.00410658
25 *104:23 *659:111 0.00328377
26 *104:23 *665:21 0
27 *104:23 *669:21 0.0289657
28 *104:23 *671:17 0.00463606
29 *104:23 *681:13 0.0481418
30 *104:23 *705:11 0.00412215
31 *104:23 *730:11 0
32 *104:23 *732:11 0.00747565
33 *104:23 *738:11 0
34 *104:29 io_out[8] 4.51815e-05
35 *68:19 *104:17 1.29348e-05
36 *68:19 *104:19 0.0371294
37 *74:13 *104:19 0.0118561
38 *75:13 *104:19 0.0100158
39 *77:25 *104:19 0.00852478
40 *78:129 *104:23 0.0052808
41 *102:19 *104:19 0.00146563
*RES
1 *739:io_oeb_o[8] *104:17 25.9298 
2 *104:17 *104:19 197.721 
3 *104:19 *104:21 8 
4 *104:21 *104:23 333.129 
5 *104:23 *104:29 46.968 
6 *104:29 io_oeb[8] 23.7416 
*END

*D_NET *105 0.440792
*CONN
*P io_oeb[9] O
*I *739:io_oeb_o[9] O *D ntt_wb_bridge
*CAP
1 io_oeb[9] 0.000928068
2 *739:io_oeb_o[9] 0.000873532
3 *105:27 0.0336801
4 *105:25 0.0327521
5 *105:23 0.0402765
6 *105:21 0.0402765
7 *105:19 0.0371358
8 *105:17 0.0371358
9 *105:15 0.00914013
10 *105:13 0.0100137
11 *105:13 *141:25 0.000121018
12 *105:15 *108:27 0.00294515
13 *105:15 *110:13 0.00177744
14 *105:19 *373:21 0
15 *105:19 *379:27 0
16 *105:19 *531:21 0.00315203
17 *105:19 *668:19 0
18 *105:19 *675:31 0.000388902
19 *105:19 *677:29 0.00531188
20 *105:19 *699:11 0.00682405
21 *105:23 *699:15 0.0262049
22 *105:23 *715:59 0
23 *105:27 *111:35 0.00193809
24 *105:27 *140:33 0.000188759
25 *105:27 *141:37 0.0544182
26 *105:27 *143:47 0.0226877
27 io_oeb[8] *105:27 0.000763304
28 *68:19 *105:15 0.00451402
29 *74:13 *105:15 0.000741987
30 *75:13 *105:15 0.0297419
31 *77:15 *105:15 0.00467028
32 *81:15 *105:15 0.00314814
33 *101:31 *105:27 0.0219081
34 *102:19 *105:15 0.000457053
35 *102:31 *105:27 0.0053396
36 *104:19 *105:15 0.00133722
*RES
1 *739:io_oeb_o[9] *105:13 34.6183 
2 *105:13 *105:15 419.879 
3 *105:15 *105:17 15 
4 *105:17 *105:19 884.728 
5 *105:19 *105:21 15 
6 *105:21 *105:23 837.706 
7 *105:23 *105:25 15 
8 *105:25 *105:27 1309.94 
9 *105:27 io_oeb[9] 10.8187 
*END

*D_NET *106 0.479365
*CONN
*P io_out[0] O
*I *739:io_out_o[0] O *D ntt_wb_bridge
*CAP
1 io_out[0] 0.00351537
2 *739:io_out_o[0] 0.00108791
3 *106:21 0.0342753
4 *106:19 0.0345901
5 *106:11 0.00491811
6 *106:19 *108:17 4.86866e-05
7 *106:19 *122:13 0.00246669
8 *106:19 *123:15 0.000504377
9 *106:19 *124:15 0.000649444
10 *106:19 *125:21 0.00146229
11 *106:19 *126:23 0.000345304
12 *106:19 *127:15 0.00104158
13 *106:19 *128:13 0.00803885
14 *106:19 *129:15 0.00397924
15 *106:19 *141:13 0.00480242
16 *106:21 *112:29 0.0276896
17 *106:21 *115:13 0.00166147
18 *106:21 *128:21 0.166927
19 *106:21 *133:27 0.0217739
20 *106:21 *141:25 0
21 *106:21 *143:35 0.00266826
22 *80:23 *106:21 0.00393673
23 *81:15 *106:19 0.00569563
24 *87:31 *106:11 0.000453345
25 *89:13 *106:21 0.0125963
26 *90:23 *106:21 0.127276
27 *90:27 io_out[0] 4.96777e-05
28 *92:13 *106:21 0.00285192
29 *94:79 *106:11 3.26183e-05
30 *99:31 io_out[0] 0.00402685
*RES
1 *739:io_out_o[0] *106:11 30.4635 
2 *106:11 *106:19 42.0232 
3 *106:19 *106:21 308.317 
4 *106:21 io_out[0] 29.3747 
*END

*D_NET *107 0.640216
*CONN
*P io_out[10] O
*I *739:io_out_o[10] O *D ntt_wb_bridge
*CAP
1 io_out[10] 0.00108341
2 *739:io_out_o[10] 0.00139755
3 *107:30 0.00178144
4 *107:22 0.0876383
5 *107:20 0.0869403
6 *107:18 0.0248925
7 *107:16 0.0262901
8 *107:16 *135:14 0.000369335
9 *107:18 *135:14 0.00685427
10 *107:18 *140:21 0.159763
11 *107:18 *341:59 0.0223337
12 *107:18 *345:39 0.00289666
13 *107:18 *346:41 0.000625475
14 *107:18 *347:41 0.000412634
15 *107:18 *353:27 0.000176157
16 *107:22 *140:25 0.101355
17 *107:30 *111:35 0
18 *71:22 *107:18 0.000481596
19 *72:25 *107:18 0.000747283
20 *73:20 *107:18 0.101884
21 *79:13 *107:18 0.0101326
22 *85:13 *107:18 0.00143421
23 *93:19 *107:16 0.000176805
24 *95:19 *107:18 0.000551207
*RES
1 *739:io_out_o[10] *107:16 43.4756 
2 *107:16 *107:18 1708.14 
3 *107:18 *107:20 15 
4 *107:20 *107:22 2404.22 
5 *107:22 *107:30 44.9661 
6 *107:30 io_out[10] 11.4197 
*END

*D_NET *108 0.588926
*CONN
*P io_out[11] O
*I *739:io_out_o[11] O *D ntt_wb_bridge
*CAP
1 io_out[11] 0.00105253
2 *739:io_out_o[11] 0.00115743
3 *108:35 0.00546719
4 *108:33 0.00441466
5 *108:31 0.115554
6 *108:29 0.115554
7 *108:27 0.0168717
8 *108:25 0.0170031
9 *108:19 0.0101439
10 *108:17 0.0111699
11 io_out[11] *111:35 2.11157e-05
12 *108:17 *119:13 0.000254422
13 *108:17 *123:15 0.00025346
14 *108:17 *124:15 0.000292622
15 *108:17 *125:13 0.000284348
16 *108:17 *127:15 0.00141465
17 *108:17 *131:23 0.000396813
18 *108:17 *141:13 0.000360654
19 *108:17 *143:13 0.000116903
20 *108:19 *109:19 0.0140374
21 *108:19 *117:18 0.000967136
22 *108:19 *122:13 0.00300783
23 *108:19 *123:15 0.00336839
24 *108:19 *124:15 0.00313447
25 *108:19 *127:15 0.00335696
26 *108:19 *129:15 0.000729909
27 *108:19 *132:19 3.2589e-05
28 *108:19 *133:23 0.00309797
29 *108:19 *136:17 0.00780113
30 *108:19 *136:25 0.00816996
31 *108:19 *141:13 0.00132359
32 *108:27 *109:23 0.109705
33 *108:27 *110:13 0
34 *108:31 la_data_out[123] 0
35 *68:17 *108:19 3.46269e-05
36 *68:19 *108:19 0.00332811
37 *68:19 *108:27 0.00719205
38 *74:13 *108:27 0.0914636
39 *75:13 *108:27 0.000368398
40 *81:15 *108:19 0.00457198
41 *81:15 *108:27 0
42 *93:19 *108:19 0.0011852
43 *99:17 *108:19 0.00133977
44 *99:19 *108:19 0.00116702
45 *101:17 *108:19 0.00107649
46 *104:19 *108:27 0.013688
47 *105:15 *108:27 0.00294515
48 *106:19 *108:17 4.86866e-05
*RES
1 *739:io_out_o[11] *108:17 30.5589 
2 *108:17 *108:19 72.9997 
3 *108:19 *108:25 25.0818 
4 *108:25 *108:27 1200.74 
5 *108:27 *108:29 15 
6 *108:29 *108:31 2674.32 
7 *108:31 *108:33 15 
8 *108:33 *108:35 92.5721 
9 *108:35 io_out[11] 26.4832 
*END

*D_NET *109 0.620712
*CONN
*P io_out[12] O
*I *739:io_out_o[12] O *D ntt_wb_bridge
*CAP
1 io_out[12] 0.00116032
2 *739:io_out_o[12] 0.00104583
3 *109:31 0.00488491
4 *109:29 0.00372459
5 *109:27 0.12724
6 *109:25 0.12724
7 *109:23 0.0227453
8 *109:21 0.0227453
9 *109:19 0.00227436
10 *109:13 0.00332019
11 io_out[12] *111:35 0.000326233
12 *109:13 *143:13 0.000324736
13 *109:19 *119:13 0.0019433
14 *109:19 *122:11 0.000116559
15 *109:19 *125:13 0.00298475
16 *109:19 *127:15 0.0140305
17 *109:23 *110:13 0
18 *109:23 *117:18 0.000781574
19 *109:23 *126:13 0.000759498
20 *109:23 *130:15 0.00723744
21 *109:23 *132:17 0.000513352
22 *109:23 *132:19 0.00165599
23 *109:23 *133:23 0.000244803
24 *109:23 *142:15 0.126408
25 *68:19 *109:23 0.000448261
26 *81:15 *109:23 0
27 *90:21 *109:23 0.000371505
28 *100:19 *109:23 0.000894654
29 *104:19 *109:23 0.0215471
30 *108:19 *109:19 0.0140374
31 *108:27 *109:23 0.109705
*RES
1 *739:io_out_o[12] *109:13 28.164 
2 *109:13 *109:19 35.5456 
3 *109:19 *109:21 15 
4 *109:21 *109:23 1476.12 
5 *109:23 *109:25 15 
6 *109:25 *109:27 2945.47 
7 *109:27 *109:29 15 
8 *109:29 *109:31 78.2793 
9 *109:31 io_out[12] 30.3568 
*END

*D_NET *110 0.487248
*CONN
*P io_out[13] O
*I *739:io_out_o[13] O *D ntt_wb_bridge
*CAP
1 io_out[13] 0.00105978
2 *739:io_out_o[13] 0.00133249
3 *110:21 0.00391799
4 *110:19 0.00285821
5 *110:17 0.139372
6 *110:15 0.139372
7 *110:13 0.0626957
8 *110:11 0.0640282
9 io_out[13] *111:35 7.57482e-05
10 *110:11 *143:13 0.000255309
11 *110:13 *129:15 0.000375033
12 *110:13 *136:17 0.0016544
13 *110:13 *136:25 0.00318109
14 *110:13 *140:21 0
15 *110:13 *141:13 0.000228395
16 *75:13 *110:13 0
17 *77:15 *110:13 0.00488561
18 *81:15 *110:13 0.0528886
19 *95:17 *110:13 0.000132945
20 *99:17 *110:13 0.000278687
21 *99:19 *110:13 0.00554968
22 *101:19 *110:13 0.00115207
23 *102:19 *110:13 0.000176157
24 *105:15 *110:13 0.00177744
25 *108:27 *110:13 0
26 *109:23 *110:13 0
*RES
1 *739:io_out_o[13] *110:11 37.5612 
2 *110:11 *110:13 1619.05 
3 *110:13 *110:15 15 
4 *110:15 *110:17 3227.18 
5 *110:17 *110:19 15 
6 *110:19 *110:21 63.9864 
7 *110:21 io_out[13] 27.1875 
*END

*D_NET *111 0.7308
*CONN
*P io_out[14] O
*I *739:io_out_o[14] O *D ntt_wb_bridge
*CAP
1 io_out[14] 0.000995193
2 *739:io_out_o[14] 0.00108863
3 *111:35 0.116957
4 *111:33 0.115962
5 *111:31 0.0551162
6 *111:29 0.0553482
7 *111:23 0.000521774
8 *111:19 0.00137841
9 *111:19 *112:17 3.87221e-06
10 *111:19 *117:18 0.00101583
11 *111:19 *121:21 0.000180679
12 *111:19 *132:19 0.00101583
13 *111:19 *143:13 0.000361775
14 *111:23 *112:17 0.000410638
15 *111:23 *121:21 0.00200637
16 *111:23 *131:17 2.02872e-05
17 *111:23 *142:15 0.00205324
18 *111:29 *121:19 3.33082e-05
19 *111:31 *112:29 0.0380755
20 *111:31 *128:21 0.0606576
21 *111:31 *130:23 0
22 *111:31 *131:13 0
23 *111:31 *131:17 0
24 *111:35 io_out[8] 0.00029406
25 *111:35 *128:25 0.000109954
26 *111:35 *141:37 0.000110182
27 *111:35 *143:47 0.166365
28 io_oeb[11] *111:35 0.000409619
29 io_oeb[12] *111:35 0.000131028
30 io_oeb[13] *111:35 0.000381824
31 io_oeb[7] *111:35 0.000381824
32 io_oeb[8] *111:35 0.00224351
33 io_out[11] *111:35 2.11157e-05
34 io_out[12] *111:35 0.000326233
35 io_out[13] *111:35 7.57482e-05
36 *88:17 *111:31 0.0568004
37 *96:15 *111:31 0.0076249
38 *99:31 *111:35 0.0240775
39 *102:31 *111:35 0.0163061
40 *103:13 *111:31 0
41 *105:27 *111:35 0.00193809
42 *107:30 *111:35 0
*RES
1 *739:io_out_o[14] *111:19 36.2986 
2 *111:19 *111:23 37.5371 
3 *111:23 *111:29 33.6664 
4 *111:29 *111:31 1639.54 
5 *111:31 *111:33 15 
6 *111:33 *111:35 3495.34 
7 *111:35 io_out[14] 11.0763 
*END

*D_NET *112 0.669432
*CONN
*P io_out[15] O
*I *739:io_out_o[15] O *D ntt_wb_bridge
*CAP
1 io_out[15] 0.000961694
2 *739:io_out_o[15] 0.00119742
3 *112:69 0.119111
4 *112:67 0.119663
5 *112:59 0.00523546
6 *112:33 0.0420113
7 *112:31 0.0382895
8 *112:29 0.0320352
9 *112:27 0.0324089
10 *112:21 0.000868091
11 *112:19 0.000494413
12 *112:17 0.00119742
13 *112:17 *117:18 0.00200625
14 *112:17 *121:19 4.51797e-05
15 *112:17 *121:21 0.000362867
16 *112:17 *132:19 0.00200625
17 *112:17 *141:25 0.000120336
18 *112:21 *121:13 0.00389801
19 *112:21 *126:13 0.00394318
20 *112:21 *127:15 0.000769094
21 *112:21 *142:15 2.18506e-05
22 *112:29 *114:13 0
23 *112:33 la_data_out[117] 0
24 *112:33 *291:19 0
25 *112:33 *672:23 0.00112229
26 *112:33 *694:157 0
27 *112:33 *694:161 0.00114666
28 *112:33 *721:129 0
29 *112:59 *658:121 0.000583945
30 *112:59 *659:107 0.000534722
31 *112:59 *672:21 0.000645193
32 *112:59 *672:23 0.00143766
33 *112:59 *680:25 0.000416742
34 *112:59 *690:17 0.000275288
35 *112:59 *700:11 0.000945631
36 *112:67 *672:21 0.00165649
37 *112:67 *700:11 0.000300102
38 *112:69 *654:11 0.0484524
39 *112:69 *663:31 0.0178216
40 *112:69 *700:11 0.00225023
41 *76:15 *112:29 0.00295822
42 *77:147 *112:33 0
43 *88:17 *112:29 0.0529583
44 *89:13 *112:29 0.0544374
45 *92:13 *112:29 0.00103967
46 *96:15 *112:29 0.0076232
47 *103:13 *112:29 0
48 *106:21 *112:29 0.0276896
49 *111:19 *112:17 3.87221e-06
50 *111:23 *112:17 0.000410638
51 *111:31 *112:29 0.0380755
*RES
1 *739:io_out_o[15] *112:17 39.1034 
2 *112:17 *112:19 15 
3 *112:19 *112:21 43.0236 
4 *112:21 *112:27 35.4271 
5 *112:27 *112:29 1401.32 
6 *112:29 *112:31 15 
7 *112:31 *112:33 882.439 
8 *112:33 *112:59 48.3837 
9 *112:59 *112:67 7.00747 
10 *112:67 *112:69 466.431 
11 *112:69 io_out[15] 35.8914 
*END

*D_NET *113 0.961988
*CONN
*P io_out[16] O
*I *739:io_out_o[16] O *D ntt_wb_bridge
*CAP
1 io_out[16] 0.000757888
2 *739:io_out_o[16] 0.000384711
3 *113:21 0.00929296
4 *113:19 0.00853507
5 *113:17 0.0443358
6 *113:15 0.0443358
7 *113:13 0.0440805
8 *113:11 0.0444653
9 *113:11 *141:25 0.000130459
10 *113:13 *114:13 0.0155408
11 *113:13 *120:13 0.00658903
12 *113:13 *133:27 0.000812487
13 *113:13 *141:31 0.000667985
14 *113:13 *141:33 0.000697892
15 *113:13 *143:15 0.000245442
16 *113:17 *142:19 0
17 *113:17 *648:11 0.262882
18 *113:17 *653:11 3.38806e-05
19 *113:17 *659:111 0.0280674
20 *113:17 *705:11 0.00565496
21 *113:17 *732:11 4.30119e-05
22 *74:17 *113:17 0.281643
23 *74:21 *113:21 0.00918073
24 *75:21 *113:21 0.0322827
25 *77:33 *113:13 0.00269648
26 *78:13 *113:13 0.00258093
27 *80:21 *113:13 0.000156752
28 *90:23 *113:13 0.000146201
29 *91:13 *113:13 0
30 *95:43 *113:13 0.000422069
31 *99:27 *113:13 0.00987673
32 *100:23 *113:13 0.00166519
33 *103:13 *113:13 0.100486
34 *104:23 *113:17 0.0032978
*RES
1 *739:io_out_o[16] *113:11 26.2303 
2 *113:11 *113:13 1473.26 
3 *113:13 *113:15 15 
4 *113:15 *113:17 3577.21 
5 *113:17 *113:19 15 
6 *113:19 *113:21 352.702 
7 *113:21 io_out[16] 31.7993 
*END

*D_NET *114 0.856597
*CONN
*P io_out[17] O
*I *739:io_out_o[17] O *D ntt_wb_bridge
*CAP
1 io_out[17] 0.000919936
2 *739:io_out_o[17] 0.000566506
3 *114:191 0.00164351
4 *114:185 0.00201689
5 *114:181 0.00323928
6 *114:179 0.00194597
7 *114:177 0.00194779
8 *114:175 0.00280639
9 *114:169 0.00212864
10 *114:165 0.00250406
11 *114:161 0.00583811
12 *114:159 0.00460409
13 *114:157 0.0287258
14 *114:155 0.0287258
15 *114:153 0.00604258
16 *114:151 0.00628136
17 *114:145 0.0269683
18 *114:143 0.0267295
19 *114:141 0.00320667
20 *114:139 0.00320667
21 *114:137 0.0028497
22 *114:135 0.00371366
23 *114:131 0.00135069
24 *114:125 0.00234479
25 *114:123 0.00291346
26 *114:119 0.00261203
27 *114:115 0.00240248
28 *114:109 0.00356701
29 *114:107 0.00272116
30 *114:105 0.00386563
31 *114:103 0.00386563
32 *114:101 0.0033008
33 *114:99 0.0033008
34 *114:97 0.00157645
35 *114:95 0.00302738
36 *114:91 0.00222808
37 *114:85 0.00234546
38 *114:81 0.00373972
39 *114:79 0.00217141
40 *114:77 0.00209657
41 *114:75 0.00209657
42 *114:73 0.00173149
43 *114:71 0.00173149
44 *114:69 0.00106895
45 *114:65 0.011352
46 *114:63 0.010283
47 *114:61 0.00399617
48 *114:59 0.0048077
49 *114:53 0.00247969
50 *114:51 0.00261812
51 *114:47 0.0018356
52 *114:41 0.0052773
53 *114:39 0.00553979
54 *114:35 0.00149693
55 *114:31 0.00189775
56 *114:27 0.00204417
57 *114:21 0.00632973
58 *114:19 0.00583452
59 *114:17 0.00344284
60 *114:15 0.00344284
61 *114:13 0.0100057
62 *114:11 0.0105722
63 *114:11 *141:25 0.000218191
64 *114:13 *115:13 0.0682784
65 *114:13 *116:19 0.000360536
66 *114:13 *118:13 0.00059359
67 *114:13 *120:13 0.00528741
68 *114:13 *141:25 0.00025714
69 *114:13 *143:35 0.00368077
70 *114:17 *117:22 0.00155752
71 *114:17 *356:31 0
72 *114:17 *356:35 0
73 *114:17 *363:71 0.00928131
74 *114:27 *279:19 0
75 *114:35 la_data_out[88] 0.0011401
76 *114:35 *692:11 0.00019005
77 *114:51 *529:19 0
78 *114:59 la_data_out[92] 0
79 *114:59 *276:19 0
80 *114:73 la_data_out[98] 0
81 *114:81 la_data_out[100] 0
82 *114:101 *115:103 0
83 *114:131 la_data_out[115] 0
84 *114:131 *721:109 0.000239833
85 *114:137 la_data_out[116] 0
86 *114:137 *694:135 0.00166371
87 *114:141 *651:15 0.000741147
88 *114:145 *655:131 0.000217847
89 *114:145 *679:39 6.12548e-05
90 *114:145 *723:133 0.184274
91 *114:153 *694:167 0
92 *114:153 *721:143 0
93 *114:153 *723:145 0.000181248
94 *114:157 *685:27 0
95 *114:157 *714:145 0
96 *114:157 *715:91 0.0018652
97 *69:21 *114:145 0.0144198
98 *76:15 *114:13 0.000170302
99 *76:91 *114:145 0.186119
100 *76:151 *114:181 0
101 *78:45 *114:39 0.00024288
102 *78:57 *114:51 0
103 *78:97 *114:91 0
104 *80:21 *114:13 0.000267436
105 *90:23 *114:13 0.000356991
106 *99:27 *114:13 0.00274754
107 *100:23 *114:13 0.0038132
108 *103:13 *114:13 0.0369043
109 *103:17 *114:145 0
110 *112:29 *114:13 0
111 *113:13 *114:13 0.0155408
*RES
1 *739:io_out_o[17] *114:11 27.2258 
2 *114:11 *114:13 762.431 
3 *114:13 *114:15 15 
4 *114:15 *114:17 118.817 
5 *114:17 *114:19 15 
6 *114:19 *114:21 109.724 
7 *114:21 *114:27 41.0614 
8 *114:27 *114:31 46.1129 
9 *114:31 *114:35 29.5829 
10 *114:35 *114:39 38.0136 
11 *114:39 *114:41 99.8014 
12 *114:41 *114:47 47.7729 
13 *114:47 *114:51 36.6257 
14 *114:51 *114:53 35.8771 
15 *114:53 *114:59 48.1043 
16 *114:59 *114:61 82.5671 
17 *114:61 *114:63 15 
18 *114:63 *114:65 236.081 
19 *114:65 *114:69 36.5843 
20 *114:69 *114:71 15 
21 *114:71 *114:73 39.2329 
22 *114:73 *114:75 15 
23 *114:75 *114:77 43.0236 
24 *114:77 *114:79 15 
25 *114:79 *114:81 50.5014 
26 *114:81 *114:85 47.5421 
27 *114:85 *114:91 47.7521 
28 *114:91 *114:95 47.0657 
29 *114:95 *114:97 35.7114 
30 *114:97 *114:99 15 
31 *114:99 *114:101 71.6093 
32 *114:101 *114:103 15 
33 *114:103 *114:105 86.0679 
34 *114:105 *114:107 15 
35 *114:107 *114:109 60.6514 
36 *114:109 *114:115 48.8086 
37 *114:115 *114:119 47.5421 
38 *114:119 *114:123 39.4429 
39 *114:123 *114:125 40.165 
40 *114:125 *114:131 41.4136 
41 *114:131 *114:135 32.2964 
42 *114:135 *114:137 67.4043 
43 *114:137 *114:139 15 
44 *114:139 *114:141 61.6043 
45 *114:141 *114:143 15 
46 *114:143 *114:145 2362.32 
47 *114:145 *114:151 34.4329 
48 *114:151 *114:153 139.241 
49 *114:153 *114:155 15 
50 *114:155 *114:157 600.445 
51 *114:157 *114:159 15 
52 *114:159 *114:161 103.675 
53 *114:161 *114:165 40.3957 
54 *114:165 *114:169 43.6686 
55 *114:169 *114:175 47.7729 
56 *114:175 *114:177 43.4586 
57 *114:177 *114:179 15 
58 *114:179 *114:181 40.6414 
59 *114:181 *114:185 43.6686 
60 *114:185 *114:191 44.9143 
61 *114:191 io_out[17] 20.3207 
*END

*D_NET *115 0.77241
*CONN
*P io_out[18] O
*I *739:io_out_o[18] O *D ntt_wb_bridge
*CAP
1 io_out[18] 0.000842809
2 *739:io_out_o[18] 0.000464891
3 *115:199 0.00197186
4 *115:195 0.00168782
5 *115:189 0.00190549
6 *115:185 0.0029192
7 *115:179 0.00249248
8 *115:175 0.00173282
9 *115:169 0.00439367
10 *115:167 0.00358086
11 *115:165 0.00457993
12 *115:163 0.00457993
13 *115:161 0.00186819
14 *115:159 0.00186819
15 *115:157 0.00288435
16 *115:155 0.00288435
17 *115:153 0.00183238
18 *115:149 0.0376983
19 *115:147 0.0358659
20 *115:145 0.0477602
21 *115:143 0.0481682
22 *115:137 0.019268
23 *115:135 0.01886
24 *115:133 0.00188976
25 *115:131 0.00188976
26 *115:129 0.00204299
27 *115:127 0.00204299
28 *115:125 0.00413418
29 *115:123 0.00413418
30 *115:121 0.000942288
31 *115:117 0.00434014
32 *115:115 0.00339785
33 *115:113 0.00171565
34 *115:111 0.00313425
35 *115:107 0.00276062
36 *115:103 0.00219817
37 *115:97 0.00611592
38 *115:95 0.00597294
39 *115:89 0.00846373
40 *115:87 0.00775057
41 *115:85 0.0018052
42 *115:83 0.0024765
43 *115:77 0.00212223
44 *115:73 0.00539958
45 *115:71 0.00394865
46 *115:69 0.0031242
47 *115:67 0.0031242
48 *115:65 0.000955736
49 *115:61 0.00359326
50 *115:59 0.00343624
51 *115:53 0.00182734
52 *115:49 0.00213453
53 *115:45 0.0030376
54 *115:43 0.00193169
55 *115:41 0.00287077
56 *115:39 0.00287077
57 *115:37 0.00312975
58 *115:35 0.00312975
59 *115:33 0.00186594
60 *115:31 0.00186594
61 *115:29 0.00168318
62 *115:27 0.00168318
63 *115:25 0.00254971
64 *115:23 0.00254971
65 *115:21 0.00525482
66 *115:19 0.00525482
67 *115:17 0.00115893
68 *115:13 0.0112844
69 *115:11 0.0105904
70 *115:11 *141:25 3.37431e-05
71 *115:11 *143:29 0.000213237
72 *115:13 *116:19 0.000138483
73 *115:13 *118:13 0.00162967
74 *115:13 *133:27 0.00154599
75 *115:21 *738:7 0.00122037
76 *115:25 la_data_out[86] 0
77 *115:41 la_data_out[91] 0
78 *115:45 *653:7 0.000495653
79 *115:85 *700:7 0.000790832
80 *115:89 la_data_out[105] 0
81 *115:111 *672:27 0.000728677
82 *115:129 la_data_out[117] 0
83 *115:129 *291:19 0.00017366
84 *115:137 la_data_out[119] 0
85 *115:137 *646:43 0.0500535
86 *115:137 *665:11 0.0659004
87 *115:137 *686:11 0.000105387
88 *115:137 *720:11 0
89 *115:145 *142:19 0.00875392
90 *115:145 *679:31 0.0146021
91 *115:145 *723:149 0.00170096
92 *115:149 *740:mem_wdata[3] 0.00180111
93 *115:149 *646:33 0.000180268
94 *115:149 *715:91 0.0011811
95 *115:149 *721:147 0.0124973
96 *75:17 *115:145 0
97 *76:15 *115:13 0.0254636
98 *76:19 *115:17 0
99 *76:91 *115:137 0
100 *76:95 *115:149 0.0141065
101 *77:179 *115:149 0.00096718
102 *78:23 *115:17 0.000399256
103 *78:45 *115:33 0
104 *78:113 *115:107 0
105 *78:129 *115:145 0.0544665
106 *78:135 *115:149 0.000650148
107 *78:189 *115:199 0.000574303
108 *80:23 *115:13 0.0232888
109 *90:23 *115:13 0.000404332
110 *100:23 *115:13 0.0070818
111 *104:23 *115:145 0.00162715
112 *106:21 *115:13 0.00166147
113 *114:13 *115:13 0.0682784
114 *114:101 *115:103 0
*RES
1 *739:io_out_o[18] *115:11 27.354 
2 *115:11 *115:13 746.709 
3 *115:13 *115:17 41.2036 
4 *115:17 *115:19 15 
5 *115:19 *115:21 103.53 
6 *115:21 *115:23 15 
7 *115:23 *115:25 57.5443 
8 *115:25 *115:27 15 
9 *115:27 *115:29 35.8771 
10 *115:29 *115:31 15 
11 *115:31 *115:33 42.7543 
12 *115:33 *115:35 15 
13 *115:35 *115:37 64.4629 
14 *115:37 *115:39 15 
15 *115:39 *115:41 64.5871 
16 *115:41 *115:43 15 
17 *115:43 *115:45 39.6886 
18 *115:45 *115:49 40.1471 
19 *115:49 *115:53 36.1079 
20 *115:53 *115:59 48.1043 
21 *115:59 *115:61 53.9814 
22 *115:61 *115:65 36.6257 
23 *115:65 *115:67 15 
24 *115:67 *115:69 64.4629 
25 *115:69 *115:71 15 
26 *115:71 *115:73 89.5893 
27 *115:73 *115:77 47.0657 
28 *115:77 *115:83 44.935 
29 *115:83 *115:85 39.6886 
30 *115:85 *115:87 15 
31 *115:87 *115:89 178.329 
32 *115:89 *115:95 44.4379 
33 *115:95 *115:97 121.282 
34 *115:97 *115:103 47.7729 
35 *115:103 *115:107 44.0207 
36 *115:107 *115:111 43.7307 
37 *115:111 *115:113 39.2329 
38 *115:113 *115:115 15 
39 *115:115 *115:117 71.6093 
40 *115:117 *115:121 36.6257 
41 *115:121 *115:123 15 
42 *115:123 *115:125 89.7136 
43 *115:125 *115:127 15 
44 *115:127 *115:129 46.98 
45 *115:129 *115:131 15 
46 *115:131 *115:133 35.4007 
47 *115:133 *115:135 15 
48 *115:135 *115:137 932.619 
49 *115:137 *115:143 36.3386 
50 *115:143 *115:145 1639.55 
51 *115:145 *115:147 8 
52 *115:147 *115:149 140.534 
53 *115:149 *115:153 47.7611 
54 *115:153 *115:155 15 
55 *115:155 *115:157 60.6514 
56 *115:157 *115:159 15 
57 *115:159 *115:161 43.1064 
58 *115:161 *115:163 15 
59 *115:163 *115:165 96.86 
60 *115:165 *115:167 15 
61 *115:167 *115:169 82.5464 
62 *115:169 *115:175 47.7729 
63 *115:175 *115:179 35.9214 
64 *115:179 *115:185 48.4743 
65 *115:185 *115:189 43.2543 
66 *115:189 *115:195 42.8221 
67 *115:195 *115:199 38.49 
68 *115:199 io_out[18] 18.56 
*END

*D_NET *116 0.74932
*CONN
*P io_out[19] O
*I *739:io_out_o[19] O *D ntt_wb_bridge
*CAP
1 io_out[19] 0.00322579
2 *739:io_out_o[19] 0.00114374
3 *116:167 0.00322579
4 *116:165 0.00412985
5 *116:163 0.00412985
6 *116:161 0.00511949
7 *116:159 0.00511949
8 *116:157 0.00220597
9 *116:155 0.00220597
10 *116:153 0.00164585
11 *116:151 0.00164585
12 *116:149 0.0449498
13 *116:147 0.0449498
14 *116:145 0.00233226
15 *116:143 0.00257533
16 *116:137 0.0670642
17 *116:135 0.0668211
18 *116:133 0.00259287
19 *116:131 0.00259287
20 *116:129 0.00189082
21 *116:127 0.00272487
22 *116:121 0.0041276
23 *116:119 0.00329355
24 *116:117 0.00256087
25 *116:115 0.00256087
26 *116:113 0.00330838
27 *116:111 0.00400986
28 *116:105 0.00227804
29 *116:103 0.00211228
30 *116:97 0.00215687
31 *116:95 0.00162116
32 *116:93 0.00120825
33 *116:89 0.00785649
34 *116:87 0.00664825
35 *116:85 0.00108063
36 *116:81 0.00278121
37 *116:79 0.00170058
38 *116:77 0.00178833
39 *116:75 0.00178833
40 *116:73 0.00416026
41 *116:71 0.00416026
42 *116:69 0.00175988
43 *116:67 0.00175988
44 *116:65 0.0043001
45 *116:63 0.00594359
46 *116:59 0.00212301
47 *116:55 0.00140593
48 *116:49 0.00237447
49 *116:47 0.00220199
50 *116:43 0.001556
51 *116:39 0.00131597
52 *116:33 0.00166504
53 *116:29 0.021664
54 *116:27 0.0207852
55 *116:21 0.00374972
56 *116:19 0.00462107
57 *116:19 *118:13 0.000125608
58 *116:19 *120:13 0.000501621
59 *116:19 *133:27 0.00151942
60 *116:19 *136:27 6.52177e-06
61 *116:19 *141:25 4.20368e-05
62 *116:19 *143:29 0.000260565
63 *116:21 *118:13 0.0124093
64 *116:21 *120:13 0.0219243
65 *116:21 *131:25 0.00354559
66 *116:21 *136:27 0.00105696
67 *116:29 *351:39 0.00233627
68 *116:33 *578:13 0
69 *116:33 *610:11 0
70 *116:43 *540:15 0
71 *116:43 *540:21 0
72 *116:43 *548:13 0.00222132
73 *116:49 *600:5 0.00391875
74 *116:59 *599:5 0.00061071
75 *116:65 wbs_dat_o[28] 0.0054721
76 *116:69 *556:9 0.000624532
77 *116:73 wbs_dat_o[26] 0.0114914
78 *116:77 *577:9 0.000574277
79 *116:81 wbs_dat_o[24] 0.00215417
80 *116:85 io_out[35] 0.000244076
81 *116:89 wbs_dat_o[23] 0
82 *116:89 *591:5 0
83 *116:105 wbs_dat_o[21] 0.00204346
84 *116:111 *617:7 0.000444231
85 *116:113 wbs_dat_o[20] 0
86 *116:129 *540:167 0.000793191
87 *116:133 *691:23 0.00162256
88 *116:137 *740:mem_wdata[14] 0.00046325
89 *116:137 *650:19 0.00234026
90 *116:137 *656:35 0.00624592
91 *116:137 *689:19 0
92 *116:137 *701:22 0.00138366
93 *116:137 *709:19 0
94 *116:137 *717:27 0
95 *116:137 *718:27 0.00369541
96 *116:137 *725:43 0.00169676
97 *116:137 *729:27 0
98 *116:137 *734:51 0
99 *116:137 *737:54 0.00270262
100 *116:145 *734:51 0.0162603
101 *116:149 *540:193 0.0366111
102 *80:179 *116:137 0.155908
103 *80:187 *116:137 0
104 *80:187 *116:145 0.0162626
105 *82:13 *116:29 0.000232727
106 *86:13 *116:29 0.000741365
107 *87:53 *116:29 0.0075086
108 *91:47 *116:27 0
109 *91:49 *116:29 0.0085834
110 *95:43 *116:19 0.00152281
111 *114:13 *116:19 0.000360536
112 *115:13 *116:19 0.000138483
*RES
1 *739:io_out_o[19] *116:19 48.8227 
2 *116:19 *116:21 239.789 
3 *116:21 *116:27 34.3707 
4 *116:27 *116:29 457.04 
5 *116:29 *116:33 40.4993 
6 *116:33 *116:39 40.15 
7 *116:39 *116:43 43.3164 
8 *116:43 *116:47 29.9143 
9 *116:47 *116:49 50.1493 
10 *116:49 *116:55 48.2493 
11 *116:55 *116:59 29.935 
12 *116:59 *116:63 47.5421 
13 *116:63 *116:65 135.72 
14 *116:65 *116:67 15 
15 *116:67 *116:69 35.4007 
16 *116:69 *116:71 15 
17 *116:71 *116:73 146.636 
18 *116:73 *116:75 15 
19 *116:75 *116:77 36.3536 
20 *116:77 *116:79 15 
21 *116:79 *116:81 53.6707 
22 *116:81 *116:85 36.5843 
23 *116:85 *116:87 15 
24 *116:87 *116:89 150.158 
25 *116:89 *116:93 39.9193 
26 *116:93 *116:95 15 
27 *116:95 *116:97 36.0636 
28 *116:97 *116:103 41.1029 
29 *116:103 *116:105 50.1493 
30 *116:105 *116:111 44.4379 
31 *116:111 *116:113 75.1514 
32 *116:113 *116:115 15 
33 *116:115 *116:117 57.3164 
34 *116:117 *116:119 15 
35 *116:119 *116:121 75.5036 
36 *116:121 *116:127 47.2964 
37 *116:127 *116:129 39.2329 
38 *116:129 *116:131 15 
39 *116:131 *116:133 51.1229 
40 *116:133 *116:135 15 
41 *116:135 *116:137 2276.04 
42 *116:137 *116:143 34.4329 
43 *116:143 *116:145 206.501 
44 *116:145 *116:147 15 
45 *116:147 *116:149 1011.13 
46 *116:149 *116:151 15 
47 *116:151 *116:153 36.7679 
48 *116:153 *116:155 15 
49 *116:155 *116:157 46.3586 
50 *116:157 *116:159 15 
51 *116:159 *116:161 118.113 
52 *116:161 *116:163 15 
53 *116:163 *116:165 87.3314 
54 *116:165 *116:167 15 
55 *116:167 io_out[19] 74.1986 
*END

*D_NET *117 0.338304
*CONN
*P io_out[1] O
*I *739:io_out_o[1] O *D ntt_wb_bridge
*CAP
1 io_out[1] 0.04881
2 *739:io_out_o[1] 0.000914815
3 *117:24 0.04881
4 *117:22 0.0103714
5 *117:20 0.0103714
6 *117:18 0.0202868
7 *117:16 0.0212016
8 io_out[1] *707:9 0
9 io_out[1] *718:9 0
10 *117:18 *121:21 0.00347521
11 *117:18 *128:21 0.00119055
12 *117:18 *130:23 0.00360885
13 *117:18 *131:13 0.00061893
14 *117:18 *131:17 0.00416295
15 *117:18 *132:17 0.00289003
16 *117:18 *132:19 0.0177007
17 *117:18 *133:23 0.00139468
18 *117:18 *142:15 0.000883517
19 *68:17 *117:18 0.000149187
20 *68:19 *117:18 0.00117642
21 *77:25 *117:18 0.00852478
22 *79:17 *117:22 0.0200524
23 *90:21 *117:18 0.00339972
24 *96:23 *117:18 0.0807963
25 *97:15 *117:18 0.00338527
26 *100:19 *117:18 0.00153112
27 *104:17 *117:18 5.45304e-05
28 *104:19 *117:18 0.016215
29 *108:19 *117:18 0.000967136
30 *109:23 *117:18 0.000781574
31 *111:19 *117:18 0.00101583
32 *112:17 *117:18 0.00200625
33 *114:17 *117:22 0.00155752
*RES
1 *739:io_out_o[1] *117:16 18.3184 
2 *117:16 *117:18 174.709 
3 *117:18 *117:20 8 
4 *117:20 *117:22 47.9099 
5 *117:22 *117:24 8 
6 *117:24 io_out[1] 160.083 
*END

*D_NET *118 0.74979
*CONN
*P io_out[20] O
*I *739:io_out_o[20] O *D ntt_wb_bridge
*CAP
1 io_out[20] 0.000750419
2 *739:io_out_o[20] 0.000601056
3 *118:249 0.0258115
4 *118:247 0.0258926
5 *118:237 0.00268858
6 *118:225 0.00372463
7 *118:223 0.002376
8 *118:217 0.00285937
9 *118:205 0.00575005
10 *118:203 0.00463958
11 *118:193 0.00380081
12 *118:177 0.00335458
13 *118:175 0.00129296
14 *118:169 0.0313489
15 *118:167 0.0314067
16 *118:161 0.023436
17 *118:159 0.023467
18 *118:153 0.00372104
19 *118:151 0.00313357
20 *118:149 0.00452471
21 *118:139 0.0062176
22 *118:135 0.0040779
23 *118:129 0.00549802
24 *118:127 0.00839482
25 *118:123 0.00706905
26 *118:119 0.00254732
27 *118:113 0.00682599
28 *118:111 0.00715058
29 *118:105 0.00274951
30 *118:103 0.00242512
31 *118:97 0.00404795
32 *118:95 0.00373578
33 *118:89 0.00193437
34 *118:87 0.0036539
35 *118:81 0.00378496
36 *118:79 0.00299612
37 *118:71 0.00369713
38 *118:63 0.00700739
39 *118:57 0.0100355
40 *118:55 0.00534646
41 *118:53 0.00201506
42 *118:47 0.00425386
43 *118:37 0.00409207
44 *118:29 0.0039881
45 *118:21 0.00524116
46 *118:13 0.00733005
47 *118:11 0.00482479
48 *118:11 *141:25 0.000278938
49 *118:13 *120:13 0.000908572
50 *118:13 *133:27 0.00452307
51 *118:37 *540:215 0
52 *118:37 *541:9 0.00172964
53 *118:47 *644:9 0.00397038
54 *118:47 *645:9 0
55 *118:53 *642:9 0
56 *118:53 *643:9 0.000288887
57 *118:63 *549:9 0.00326087
58 *118:63 *550:9 0
59 *118:71 la_data_out[7] 0.00166218
60 *118:71 *552:9 0.000968132
61 *118:71 *553:9 0
62 *118:79 la_data_out[5] 0.00187425
63 *118:79 *556:9 0
64 *118:79 *557:9 0.00174535
65 *118:81 la_data_out[4] 0.00179453
66 *118:87 *563:13 0.00101569
67 *118:87 *564:9 0.00101331
68 *118:89 la_data_out[1] 0.00188651
69 *118:95 *601:9 0.00134459
70 *118:97 *578:13 0.00436319
71 *118:103 *583:9 0.00079787
72 *118:103 *584:9 0
73 *118:105 *600:5 0.00446706
74 *118:111 *592:9 0.000838499
75 *118:111 *593:9 0
76 *118:113 wbs_dat_o[29] 0
77 *118:119 *609:7 0
78 *118:127 *615:7 0.00422194
79 *118:127 *616:7 0
80 *118:129 wbs_dat_o[22] 0
81 *118:129 *540:121 0.00132663
82 *118:135 *540:121 0.00103286
83 *118:149 *126:29 0.00781547
84 *118:149 *129:23 0.000487664
85 *118:153 *725:35 0.00277609
86 *118:161 *661:19 0.0163758
87 *118:161 *662:15 0.0625141
88 *118:161 *677:11 0.0168714
89 *118:161 *695:35 0.135795
90 *118:177 *704:35 0.00224595
91 *118:177 *734:51 0.00416328
92 *118:193 *120:23 0.000816487
93 *118:193 *662:11 0
94 *118:193 *675:13 0.000442155
95 *118:193 *734:65 0.000734295
96 *118:249 *119:29 0.00262382
97 *80:23 *118:13 0.0268595
98 *80:37 *118:21 0.000869838
99 *80:51 *118:47 0
100 *80:101 *118:97 0
101 *80:139 *118:129 0
102 *80:177 *118:149 0
103 *80:179 *118:169 0
104 *80:187 *118:177 6.00732e-05
105 *80:203 *118:193 0.00071429
106 *80:211 *118:205 0.000841124
107 *80:267 *118:249 0.0545496
108 *82:13 *118:11 0.000101032
109 *82:25 *118:153 0
110 *82:25 *118:169 0
111 *86:13 *118:11 0.000101032
112 *91:49 *118:21 0.00545212
113 *94:81 *118:21 0.0109884
114 *114:13 *118:13 0.00059359
115 *115:13 *118:13 0.00162967
116 *116:19 *118:13 0.000125608
117 *116:21 *118:13 0.0124093
*RES
1 *739:io_out_o[20] *118:11 28.1317 
2 *118:11 *118:13 293.625 
3 *118:13 *118:21 47.1544 
4 *118:21 *118:29 43.3238 
5 *118:29 *118:37 45.4366 
6 *118:37 *118:47 47.6982 
7 *118:47 *118:53 42.2981 
8 *118:53 *118:55 8 
9 *118:55 *118:57 118.465 
10 *118:57 *118:63 37.1792 
11 *118:63 *118:71 43.9413 
12 *118:71 *118:79 43.3238 
13 *118:79 *118:81 47.3321 
14 *118:81 *118:87 26.36 
15 *118:87 *118:89 46.6279 
16 *118:89 *118:95 18.5461 
17 *118:95 *118:97 93.1107 
18 *118:97 *118:103 19.92 
19 *118:103 *118:105 57.1921 
20 *118:105 *118:111 21.2939 
21 *118:111 *118:113 136.072 
22 *118:113 *118:119 18.2885 
23 *118:119 *118:123 47.585 
24 *118:123 *118:127 30.1237 
25 *118:127 *118:129 79.7293 
26 *118:129 *118:135 25.2437 
27 *118:135 *118:139 46.8807 
28 *118:139 *118:149 46.9314 
29 *118:149 *118:151 8 
30 *118:151 *118:153 81.1379 
31 *118:153 *118:159 17.0864 
32 *118:159 *118:161 1723.53 
33 *118:161 *118:167 17.1723 
34 *118:167 *118:169 696.684 
35 *118:169 *118:175 17.6016 
36 *118:175 *118:177 55.0793 
37 *118:177 *118:193 47.1806 
38 *118:193 *118:203 38.7672 
39 *118:203 *118:205 82.5464 
40 *118:205 *118:217 46.5589 
41 *118:217 *118:223 17.8592 
42 *118:223 *118:225 43.1064 
43 *118:225 *118:237 42.8078 
44 *118:237 *118:247 35.2229 
45 *118:247 *118:249 124.563 
46 *118:249 io_out[20] 24.9754 
*END

*D_NET *119 0.870313
*CONN
*P io_out[21] O
*I *739:io_out_o[21] O *D ntt_wb_bridge
*CAP
1 io_out[21] 0.000688718
2 *739:io_out_o[21] 0.0012372
3 *119:29 0.0109882
4 *119:27 0.0102995
5 *119:25 0.0766911
6 *119:23 0.0766911
7 *119:21 0.0199775
8 *119:19 0.020179
9 *119:13 0.0049932
10 *119:11 0.00602893
11 *119:11 *141:25 0.000151685
12 *119:13 *121:21 0
13 *119:13 *124:15 0.00110438
14 *119:13 *125:13 0.0222496
15 *119:13 *126:13 0.0157519
16 *119:13 *127:15 0.00293463
17 *119:21 *124:23 0.0715745
18 *119:21 *125:21 0.00285768
19 *119:21 *129:15 0.00779282
20 *119:25 wbs_dat_o[14] 0
21 *119:25 *740:mem_wdata[24] 0
22 *119:25 *540:189 0.194883
23 *119:25 *581:5 0
24 *119:25 *710:35 0.197834
25 *119:25 *717:35 0.00788705
26 *119:25 *736:27 0.00835567
27 io_oeb[22] *119:29 0.00246346
28 *80:267 *119:29 0.0298616
29 *81:21 *119:25 0.000113066
30 *81:23 *119:25 0
31 *81:27 *119:29 0.0376408
32 *93:19 *119:21 0.0342616
33 *108:17 *119:13 0.000254422
34 *109:19 *119:13 0.0019433
35 *118:249 *119:29 0.00262382
*RES
1 *739:io_out_o[21] *119:11 35.2355 
2 *119:11 *119:13 264.563 
3 *119:13 *119:19 25.7861 
4 *119:19 *119:21 147.918 
5 *119:21 *119:23 8 
6 *119:23 *119:25 3589.89 
7 *119:25 *119:27 8 
8 *119:27 *119:29 84.3771 
9 *119:29 io_out[21] 23.5668 
*END

*D_NET *120 0.67026
*CONN
*P io_out[22] O
*I *739:io_out_o[22] O *D ntt_wb_bridge
*CAP
1 io_out[22] 0.00943719
2 *739:io_out_o[22] 0.000369713
3 *120:23 0.0157426
4 *120:17 0.0695242
5 *120:15 0.0632188
6 *120:13 0.0468962
7 *120:11 0.0472659
8 *120:11 *141:25 0.000103474
9 *120:13 *131:25 0.00136185
10 *120:13 *133:27 0.00533822
11 *120:13 *143:15 0
12 *120:13 *143:35 0.000759415
13 *120:17 wbs_dat_o[13] 0.000118771
14 *120:17 *580:5 0
15 *120:17 *675:15 0.103417
16 *120:23 *540:193 0.00147544
17 *120:23 *675:13 0
18 *120:23 *734:65 0.000210678
19 *120:23 *734:67 0
20 *80:23 *120:13 9.8971e-06
21 *80:203 *120:23 0.00308431
22 *80:247 io_out[22] 0.0011417
23 *82:13 *120:13 0
24 *82:25 *120:17 0.261567
25 *88:17 *120:13 0
26 *89:13 *120:13 0
27 *91:13 *120:13 0
28 *94:65 *120:13 0
29 *95:37 *120:11 0
30 *95:43 *120:13 0.00172103
31 *95:49 *120:13 0.000120136
32 *95:51 *120:13 0.0013488
33 *113:13 *120:13 0.00658903
34 *114:13 *120:13 0.00528741
35 *116:19 *120:13 0.000501621
36 *116:21 *120:13 0.0219243
37 *118:13 *120:13 0.000908572
38 *118:193 *120:23 0.000816487
*RES
1 *739:io_out_o[22] *120:11 26.4929 
2 *120:11 *120:13 1115.94 
3 *120:13 *120:15 15 
4 *120:15 *120:17 3369.62 
5 *120:17 *120:23 42.7605 
6 *120:23 io_out[22] 224.74 
*END

*D_NET *121 0.520332
*CONN
*P io_out[23] O
*I *739:io_out_o[23] O *D ntt_wb_bridge
*CAP
1 io_out[23] 0.150734
2 *739:io_out_o[23] 0.000791194
3 *121:31 0.155273
4 *121:27 0.00462065
5 *121:21 0.0482498
6 *121:19 0.0482418
7 *121:13 0.0011087
8 *121:11 0.00182578
9 io_out[23] wbs_dat_o[3] 0.0460554
10 *121:11 *141:25 4.0384e-05
11 *121:13 *126:13 0.00192515
12 *121:13 *132:19 0.00164257
13 *121:13 *142:15 0.00730032
14 *121:21 *122:13 0
15 *121:21 *122:21 0.000219889
16 *121:21 *123:15 0
17 *121:21 *124:15 0
18 *121:21 *126:13 0.000112255
19 *121:21 *130:23 0.00165261
20 *121:21 *131:17 0.00657118
21 *121:21 *132:19 0.0066876
22 *121:21 *142:15 0.0045862
23 *121:27 *547:5 0
24 *121:31 *122:21 0.00480129
25 *84:29 *121:27 0.000182878
26 *88:17 *121:21 0
27 *89:21 *121:31 0.017575
28 *92:21 *121:31 0.000131991
29 *111:19 *121:21 0.000180679
30 *111:23 *121:21 0.00200637
31 *111:29 *121:19 3.33082e-05
32 *112:17 *121:19 4.51797e-05
33 *112:17 *121:21 0.000362867
34 *112:21 *121:13 0.00389801
35 *117:18 *121:21 0.00347521
36 *119:13 *121:21 0
*RES
1 *739:io_out_o[23] *121:11 33.6975 
2 *121:11 *121:13 79.7086 
3 *121:13 *121:19 31.2014 
4 *121:19 *121:21 1058.77 
5 *121:21 *121:27 25.4339 
6 *121:27 *121:31 40.5995 
7 *121:31 io_out[23] 3598.27 
*END

*D_NET *122 0.659
*CONN
*P io_out[24] O
*I *739:io_out_o[24] O *D ntt_wb_bridge
*CAP
1 io_out[24] 0.000839537
2 *739:io_out_o[24] 0.00130365
3 *122:33 0.107153
4 *122:31 0.106726
5 *122:25 0.0545267
6 *122:23 0.0541143
7 *122:21 0.00872285
8 *122:19 0.00891759
9 *122:13 0.0278297
10 *122:11 0.0289386
11 *122:11 *141:25 0.00027641
12 *122:13 *123:15 0.0352267
13 *122:13 *123:23 0.00647223
14 *122:13 *124:23 0.00012144
15 *122:13 *125:21 0.00116182
16 *122:13 *141:13 0.000183377
17 *122:21 *123:23 0.00192466
18 *122:21 *130:31 0
19 *122:21 *132:19 0.0233401
20 *122:25 *129:27 0.0100883
21 *122:25 *130:35 0.00469616
22 *122:25 *131:29 0.00266105
23 *122:25 *542:11 0
24 *122:31 io_out[32] 0.000379761
25 *122:33 *123:27 0
26 *122:33 *126:33 0.0233517
27 *122:33 *130:43 0.0205627
28 *81:15 *122:13 0.102382
29 *82:13 *122:11 0.000115403
30 *86:13 *122:11 0.000115403
31 *89:21 *122:21 0.00168202
32 *92:21 *122:21 0.000540159
33 *94:13 *122:11 0.000107125
34 *95:83 *122:25 0.0139272
35 *106:19 *122:13 0.00246669
36 *108:19 *122:13 0.00300783
37 *109:19 *122:11 0.000116559
38 *121:21 *122:13 0
39 *121:21 *122:21 0.000219889
40 *121:31 *122:21 0.00480129
*RES
1 *739:io_out_o[24] *122:11 37.0585 
2 *122:11 *122:13 1129.28 
3 *122:13 *122:19 26.1382 
4 *122:19 *122:21 54.2379 
5 *122:21 *122:23 8 
6 *122:23 *122:25 1272.79 
7 *122:25 *122:31 17.2152 
8 *122:31 *122:33 389.487 
9 *122:33 io_out[24] 10.4323 
*END

*D_NET *123 0.755387
*CONN
*P io_out[25] O
*I *739:io_out_o[25] O *D ntt_wb_bridge
*CAP
1 io_out[25] 0.00129911
2 *739:io_out_o[25] 0.00093639
3 *123:27 0.126732
4 *123:25 0.125433
5 *123:23 0.0250754
6 *123:21 0.0251191
7 *123:15 0.00562865
8 *123:13 0.00652136
9 *123:13 *130:21 0
10 *123:13 *141:25 0.000104565
11 *123:15 *124:15 0.0347534
12 *123:15 *125:21 0.00146228
13 *123:15 *126:23 0.000112764
14 *123:15 *128:13 0.001716
15 *123:23 *125:21 0.0797916
16 *123:23 *127:15 0.0833121
17 *123:23 *132:19 0.00672006
18 *123:27 *126:33 0
19 *123:27 *129:27 0
20 *123:27 *131:29 0
21 *123:27 *133:31 0
22 *123:27 *542:11 0.00786584
23 io_oeb[37] *123:23 0
24 *81:15 *123:15 0.000915392
25 *88:29 *123:27 0.174006
26 *89:25 *123:27 0.000131352
27 *95:83 *123:27 0
28 *106:19 *123:15 0.000504377
29 *108:17 *123:15 0.00025346
30 *108:19 *123:15 0.00336839
31 *121:21 *123:15 0
32 *122:13 *123:15 0.0352267
33 *122:13 *123:23 0.00647223
34 *122:21 *123:23 0.00192466
35 *122:33 *123:27 0
*RES
1 *739:io_out_o[25] *123:13 35.2927 
2 *123:13 *123:15 403.68 
3 *123:15 *123:21 23.6732 
4 *123:21 *123:23 187.632 
5 *123:23 *123:25 8 
6 *123:25 *123:27 570.621 
7 *123:27 io_out[25] 12.1496 
*END

*D_NET *124 0.647162
*CONN
*P io_out[26] O
*I *739:io_out_o[26] O *D ntt_wb_bridge
*CAP
1 io_out[26] 0.0133841
2 *739:io_out_o[26] 0.000927313
3 *124:29 0.0133841
4 *124:27 0.155949
5 *124:25 0.155949
6 *124:23 0.0166874
7 *124:21 0.0167746
8 *124:15 0.00611794
9 *124:13 0.00695802
10 *124:13 *141:25 0.000133374
11 *124:15 *125:13 0.0282819
12 *124:15 *126:23 0.000130187
13 *124:15 *127:15 0.000788936
14 *124:15 *128:13 0.00148634
15 *124:21 *341:55 9.02184e-05
16 *124:21 *350:31 0
17 *124:23 *125:21 0.0813729
18 *124:27 *125:25 0
19 *124:27 *577:5 0.00572789
20 io_oeb[37] *124:23 0
21 *81:15 *124:15 0.000445064
22 *81:15 *124:23 0.0298249
23 *83:21 *124:23 0.000472881
24 *93:19 *124:23 0.000645493
25 *106:19 *124:15 0.000649444
26 *108:17 *124:15 0.000292622
27 *108:19 *124:15 0.00313447
28 *119:13 *124:15 0.00110438
29 *119:21 *124:23 0.0715745
30 *121:21 *124:15 0
31 *122:13 *124:23 0.00012144
32 *123:15 *124:15 0.0347534
*RES
1 *739:io_out_o[26] *124:13 34.9928 
2 *124:13 *124:15 392.722 
3 *124:15 *124:21 24.3775 
4 *124:21 *124:23 150.623 
5 *124:23 *124:25 8 
6 *124:25 *124:27 522.133 
7 *124:27 *124:29 8 
8 *124:29 io_out[26] 45.3656 
*END

*D_NET *125 0.588869
*CONN
*P io_out[27] O
*I *739:io_out_o[27] O *D ntt_wb_bridge
*CAP
1 io_out[27] 0.0127739
2 *739:io_out_o[27] 0.000933716
3 *125:27 0.0127739
4 *125:25 0.139008
5 *125:23 0.139008
6 *125:21 0.016645
7 *125:19 0.0167343
8 *125:13 0.00411486
9 *125:11 0.00495927
10 *125:11 *141:25 4.15252e-05
11 *125:13 *126:13 0.00406123
12 *125:13 *126:23 0.00146231
13 *125:13 *127:15 0.00164829
14 *125:21 *126:23 0.00805028
15 *125:21 *127:15 0.00120592
16 *125:21 *129:15 0.000173875
17 *125:25 *544:5 0.00100724
18 *81:15 *125:13 0.000345002
19 *81:15 *125:21 0.00201267
20 *106:19 *125:21 0.00146229
21 *108:17 *125:13 0.000284348
22 *109:19 *125:13 0.00298475
23 *119:13 *125:13 0.0222496
24 *119:21 *125:21 0.00285768
25 *122:13 *125:21 0.00116182
26 *123:15 *125:21 0.00146228
27 *123:23 *125:21 0.0797916
28 *124:15 *125:13 0.0282819
29 *124:23 *125:21 0.0813729
30 *124:27 *125:25 0
*RES
1 *739:io_out_o[27] *125:11 35.1285 
2 *125:11 *125:13 321.734 
3 *125:13 *125:19 24.0254 
4 *125:19 *125:21 166.938 
5 *125:21 *125:23 8 
6 *125:23 *125:25 473.39 
7 *125:25 *125:27 8 
8 *125:27 io_out[27] 44.1635 
*END

*D_NET *126 0.605768
*CONN
*P io_out[28] O
*I *739:io_out_o[28] O *D ntt_wb_bridge
*CAP
1 io_out[28] 0.00101008
2 *739:io_out_o[28] 0.00101019
3 *126:33 0.0455655
4 *126:31 0.0445554
5 *126:29 0.0503825
6 *126:27 0.0503825
7 *126:25 0.0548074
8 *126:23 0.0574976
9 *126:19 0.00275873
10 *126:13 0.00427667
11 *126:11 0.00521836
12 *126:11 *141:25 0.000353172
13 *126:13 *127:15 0.00525174
14 *126:13 *130:15 0.0032806
15 *126:13 *142:15 0.0042143
16 *126:19 *141:13 6.77278e-05
17 *126:23 *127:15 0.0149682
18 *126:23 *128:13 0.00629633
19 *126:25 *134:21 0
20 *126:25 *272:25 0
21 *126:25 *283:17 0.000403351
22 *126:25 *283:25 0.0406399
23 *126:25 *306:17 0.0112623
24 *126:25 *326:19 0.00110494
25 *126:25 *329:17 0.011249
26 *126:25 *335:23 0.000322499
27 *126:25 *341:55 0.000705872
28 *126:25 *388:25 0.00166673
29 *126:25 *399:25 0.000141419
30 *126:29 *129:23 0
31 *126:29 *366:27 0.0303763
32 *126:29 *399:27 0
33 *126:33 *129:27 0.0225497
34 *126:33 *130:43 0.0302425
35 *126:33 *131:29 0.0347878
36 *81:15 *126:13 0
37 *82:13 *126:11 0.000129774
38 *86:13 *126:11 0.000129774
39 *87:13 *126:11 0.000105571
40 *91:13 *126:11 0.000112406
41 *94:13 *126:11 0.000119573
42 *106:19 *126:23 0.000345304
43 *109:23 *126:13 0.000759498
44 *112:21 *126:13 0.00394318
45 *118:149 *126:29 0.00781547
46 *119:13 *126:13 0.0157519
47 *121:13 *126:13 0.00192515
48 *121:21 *126:13 0.000112255
49 *122:33 *126:33 0.0233517
50 *123:15 *126:23 0.000112764
51 *123:27 *126:33 0
52 *124:15 *126:23 0.000130187
53 *125:13 *126:13 0.00406123
54 *125:13 *126:23 0.00146231
55 *125:21 *126:23 0.00805028
*RES
1 *739:io_out_o[28] *126:11 35.421 
2 *126:11 *126:13 257.893 
3 *126:13 *126:19 24.0254 
4 *126:19 *126:23 35.748 
5 *126:23 *126:25 147.933 
6 *126:25 *126:27 8 
7 *126:27 *126:29 193.256 
8 *126:29 *126:31 8 
9 *126:31 *126:33 276.644 
10 *126:33 io_out[28] 10.9475 
*END

*D_NET *127 0.556913
*CONN
*P io_out[29] O
*I *739:io_out_o[29] O *D ntt_wb_bridge
*CAP
1 io_out[29] 0.0110129
2 *739:io_out_o[29] 0.00113423
3 *127:19 0.12181
4 *127:17 0.110797
5 *127:15 0.0233052
6 *127:13 0.0244395
7 *127:13 *141:25 0.000503769
8 *127:15 *128:13 0.00092097
9 *127:15 *130:15 0.000815433
10 *127:15 *132:19 0.127074
11 *127:15 *142:15 0.00288435
12 *127:19 *573:5 0.00149245
13 *106:19 *127:15 0.00104158
14 *108:17 *127:15 0.00141465
15 *108:19 *127:15 0.00335696
16 *109:19 *127:15 0.0140305
17 *112:21 *127:15 0.000769094
18 *119:13 *127:15 0.00293463
19 *123:23 *127:15 0.0833121
20 *124:15 *127:15 0.000788936
21 *125:13 *127:15 0.00164829
22 *125:21 *127:15 0.00120592
23 *126:13 *127:15 0.00525174
24 *126:23 *127:15 0.0149682
*RES
1 *739:io_out_o[29] *127:13 27.7845 
2 *127:13 *127:15 235.288 
3 *127:15 *127:17 8 
4 *127:17 *127:19 375.779 
5 *127:19 io_out[29] 45.6376 
*END

*D_NET *128 0.535897
*CONN
*P io_out[2] O
*I *739:io_out_o[2] O *D ntt_wb_bridge
*CAP
1 io_out[2] 0.000971475
2 *739:io_out_o[2] 0.00243987
3 *128:25 0.00648264
4 *128:23 0.00551117
5 *128:21 0.0466751
6 *128:19 0.0471523
7 *128:13 0.00291702
8 *128:21 *130:31 4.62763e-05
9 *128:21 *133:27 0.00160157
10 *128:25 user_irq[0] 0
11 *128:25 *141:37 0.0365552
12 *87:31 *128:13 1.84032e-05
13 *88:17 *128:21 0.0128739
14 *90:23 *128:21 0.000103479
15 *90:27 *128:25 0.00656497
16 *94:65 *128:13 5.70803e-05
17 *96:15 *128:21 0.00149215
18 *97:15 *128:21 0.0807344
19 *100:29 *128:21 1.74409e-05
20 *100:31 *128:25 0
21 *101:31 *128:25 0.0363389
22 *104:19 *128:21 0
23 *106:19 *128:13 0.00803885
24 *106:21 *128:21 0.166927
25 *111:31 *128:21 0.0606576
26 *111:35 *128:25 0.000109954
27 *117:18 *128:21 0.00119055
28 *123:15 *128:13 0.001716
29 *124:15 *128:13 0.00148634
30 *126:23 *128:13 0.00629633
31 *127:15 *128:13 0.00092097
*RES
1 *739:io_out_o[2] *128:13 44.6259 
2 *128:13 *128:19 17.1984 
3 *128:19 *128:21 314.629 
4 *128:21 *128:23 8 
5 *128:23 *128:25 469.199 
6 *128:25 io_out[2] 10.8187 
*END

*D_NET *129 0.485933
*CONN
*P io_out[30] O
*I *739:io_out_o[30] O *D ntt_wb_bridge
*CAP
1 io_out[30] 0.00113588
2 *739:io_out_o[30] 0.00121304
3 *129:27 0.0378394
4 *129:25 0.0367036
5 *129:23 0.0514104
6 *129:21 0.0514104
7 *129:19 0.0547363
8 *129:17 0.0547363
9 *129:15 0.00970911
10 *129:13 0.0109222
11 *129:13 *141:25 0.000343264
12 *129:15 *136:25 0.0159465
13 *129:15 *141:13 0.00872235
14 *129:19 *307:25 0.00203132
15 *129:23 *399:27 0.023946
16 *129:27 *131:29 0.0352941
17 *93:19 *129:15 0.0436569
18 *97:19 *129:19 0
19 *106:19 *129:15 0.00397924
20 *108:19 *129:15 0.000729909
21 *110:13 *129:15 0.000375033
22 *118:149 *129:23 0.000487664
23 *119:21 *129:15 0.00779282
24 *122:25 *129:27 0.0100883
25 *123:27 *129:27 0
26 *125:21 *129:15 0.000173875
27 *126:29 *129:23 0
28 *126:33 *129:27 0.0225497
*RES
1 *739:io_out_o[30] *129:13 31.0147 
2 *129:13 *129:15 83.3037 
3 *129:15 *129:17 8 
4 *129:17 *129:19 147.172 
5 *129:19 *129:21 8 
6 *129:21 *129:23 188.963 
7 *129:23 *129:25 8 
8 *129:25 *129:27 180.682 
9 *129:27 io_out[30] 11.2909 
*END

*D_NET *130 0.54513
*CONN
*P io_out[31] O
*I *739:io_out_o[31] O *D ntt_wb_bridge
*CAP
1 io_out[31] 0.00090886
2 *739:io_out_o[31] 0.000816495
3 *130:43 0.0535744
4 *130:41 0.0530481
5 *130:35 0.0020884
6 *130:33 0.0017059
7 *130:31 0.0225736
8 *130:29 0.0227664
9 *130:23 0.00639299
10 *130:21 0.00636677
11 *130:15 0.00191301
12 *130:13 0.00256294
13 *130:13 *141:25 0.000135431
14 *130:15 *133:23 0.000485967
15 *130:23 *131:17 0.0157286
16 *130:31 *133:27 0.120676
17 *130:41 *541:9 0
18 *130:43 *131:29 0.00234565
19 *130:43 *133:31 0.0281387
20 *81:15 *130:15 0
21 *88:17 *130:23 0
22 *88:17 *130:31 0.0164118
23 *89:13 *130:31 0.00172488
24 *89:21 *130:31 0.101843
25 *92:21 *130:31 0.000103135
26 *95:83 *130:35 0.00110895
27 *97:15 *130:31 0.00956758
28 *109:23 *130:15 0.00723744
29 *111:31 *130:23 0
30 *117:18 *130:23 0.00360885
31 *121:21 *130:23 0.00165261
32 *122:21 *130:31 0
33 *122:25 *130:35 0.00469616
34 *122:33 *130:43 0.0205627
35 *123:13 *130:21 0
36 *126:13 *130:15 0.0032806
37 *126:33 *130:43 0.0302425
38 *127:15 *130:15 0.000815433
39 *128:21 *130:31 4.62763e-05
*RES
1 *739:io_out_o[31] *130:13 33.588 
2 *130:13 *130:15 79.2321 
3 *130:15 *130:21 32.2579 
4 *130:21 *130:23 204.056 
5 *130:23 *130:29 26.1382 
6 *130:29 *130:31 223.653 
7 *130:31 *130:33 8 
8 *130:33 *130:35 60.0093 
9 *130:35 *130:41 16.9576 
10 *130:41 *130:43 266.616 
11 *130:43 io_out[31] 10.604 
*END

*D_NET *131 0.550647
*CONN
*P io_out[32] O
*I *739:io_out_o[32] O *D ntt_wb_bridge
*CAP
1 io_out[32] 0.00104195
2 *739:io_out_o[32] 0.000721763
3 *131:29 0.0260207
4 *131:27 0.0249787
5 *131:25 0.0254324
6 *131:23 0.0257196
7 *131:17 0.00406512
8 *131:15 0.00382024
9 *131:13 0.00175607
10 *131:11 0.00243553
11 *131:11 *141:25 5.39839e-05
12 *131:13 *132:17 0.0004141
13 *131:13 *142:15 0.00518646
14 *131:17 *142:15 0.00483925
15 *131:25 *136:27 0.123957
16 *131:29 *133:31 0.0555716
17 *88:25 *131:25 0.0377835
18 *91:33 *131:25 0.00864472
19 *94:79 *131:25 0.000737286
20 *94:81 *131:25 1.49526e-05
21 *95:43 *131:25 0.0027664
22 *95:79 *131:25 0.0365697
23 *95:83 *131:29 0.0502415
24 *108:17 *131:23 0.000396813
25 *111:23 *131:17 2.02872e-05
26 *111:31 *131:13 0
27 *111:31 *131:17 0
28 *116:21 *131:25 0.00354559
29 *117:18 *131:13 0.00061893
30 *117:18 *131:17 0.00416295
31 *120:13 *131:25 0.00136185
32 *121:21 *131:17 0.00657118
33 *122:25 *131:29 0.00266105
34 *122:31 io_out[32] 0.000379761
35 *123:27 *131:29 0
36 *126:33 *131:29 0.0347878
37 *129:27 *131:29 0.0352941
38 *130:23 *131:17 0.0157286
39 *130:43 *131:29 0.00234565
*RES
1 *739:io_out_o[32] *131:11 33.0193 
2 *131:11 *131:13 56.84 
3 *131:13 *131:15 0.849286 
4 *131:15 *131:17 207.391 
5 *131:17 *131:23 28.6032 
6 *131:23 *131:25 229.792 
7 *131:25 *131:27 8 
8 *131:27 *131:29 228.409 
9 *131:29 io_out[32] 11.1192 
*END

*D_NET *132 0.413948
*CONN
*P io_out[33] O
*I *739:io_out_o[33] O *D ntt_wb_bridge
*CAP
1 io_out[33] 0.00463469
2 *739:io_out_o[33] 0.0014596
3 *132:23 0.0578656
4 *132:21 0.0532309
5 *132:19 0.0340112
6 *132:17 0.0354708
7 *132:17 *133:23 0.00156512
8 *132:17 *141:25 0.000571675
9 *132:17 *142:15 0.000592669
10 *132:19 *133:23 0.00200854
11 *132:19 *142:15 0.0010063
12 *132:23 *641:5 0.00110895
13 *91:13 *132:17 0.00010101
14 *92:21 *132:19 0.00257399
15 *96:23 *132:19 0.0260541
16 *108:19 *132:19 3.2589e-05
17 *109:23 *132:17 0.000513352
18 *109:23 *132:19 0.00165599
19 *111:19 *132:19 0.00101583
20 *112:17 *132:19 0.00200625
21 *117:18 *132:17 0.00289003
22 *117:18 *132:19 0.0177007
23 *121:13 *132:19 0.00164257
24 *121:21 *132:19 0.0066876
25 *122:21 *132:19 0.0233401
26 *123:23 *132:19 0.00672006
27 *127:15 *132:19 0.127074
28 *131:13 *132:17 0.0004141
*RES
1 *739:io_out_o[33] *132:17 31.933 
2 *132:17 *132:19 262.293 
3 *132:19 *132:21 8 
4 *132:21 *132:23 180.936 
5 *132:23 io_out[33] 22.4536 
*END

*D_NET *133 0.499255
*CONN
*P io_out[34] O
*I *739:io_out_o[34] O *D ntt_wb_bridge
*CAP
1 io_out[34] 0.00101008
2 *739:io_out_o[34] 0.00255093
3 *133:31 0.0158183
4 *133:29 0.0148082
5 *133:27 0.0293947
6 *133:25 0.0293947
7 *133:23 0.00255093
8 *133:23 *141:25 0.00041117
9 *133:23 *142:15 0.000282628
10 *133:27 *136:27 0.130754
11 *133:27 *143:35 0.00356397
12 *133:31 io_out[37] 0.0039318
13 *80:23 *133:27 0.0052599
14 *89:13 *133:27 0.00197485
15 *92:13 *133:27 0.0071912
16 *95:43 *133:27 6.02207e-05
17 *106:21 *133:27 0.0217739
18 *108:19 *133:23 0.00309797
19 *109:23 *133:23 0.000244803
20 *113:13 *133:27 0.000812487
21 *115:13 *133:27 0.00154599
22 *116:19 *133:27 0.00151942
23 *117:18 *133:23 0.00139468
24 *118:13 *133:27 0.00452307
25 *120:13 *133:27 0.00533822
26 *123:27 *133:31 0
27 *128:21 *133:27 0.00160157
28 *130:15 *133:23 0.000485967
29 *130:31 *133:27 0.120676
30 *130:43 *133:31 0.0281387
31 *131:29 *133:31 0.0555716
32 *132:17 *133:23 0.00156512
33 *132:19 *133:23 0.00200854
*RES
1 *739:io_out_o[34] *133:23 47.2055 
2 *133:23 *133:25 8 
3 *133:25 *133:27 270.193 
4 *133:27 *133:29 8 
5 *133:29 *133:31 131.305 
6 *133:31 io_out[34] 10.9475 
*END

*D_NET *134 0.349931
*CONN
*P io_out[35] O
*I *739:io_out_o[35] O *D ntt_wb_bridge
*CAP
1 io_out[35] 0.0462569
2 *739:io_out_o[35] 0.00187057
3 *134:23 0.0462569
4 *134:21 0.0413137
5 *134:19 0.0413137
6 *134:17 0.0121411
7 *134:15 0.0140117
8 io_out[35] *584:9 0.0662495
9 io_out[35] *585:9 0
10 *134:15 *141:25 7.34316e-05
11 *134:17 *137:13 0.000352987
12 *134:17 *138:13 0.0207288
13 *134:17 *339:43 0.0392456
14 *134:17 *340:39 0.000952129
15 *134:17 *343:35 0.00197271
16 *134:17 *349:43 0.000742013
17 *134:21 la_data_out[23] 0.000322499
18 *134:21 *283:25 0
19 *134:21 *303:17 0.00632492
20 *134:21 *331:17 0.000433179
21 *134:21 *334:23 0.00632492
22 *134:21 *340:35 0.000705872
23 *134:21 *343:31 0.000322499
24 *134:21 *346:37 0.00039345
25 *134:21 *348:39 0.000322499
26 *134:21 *350:31 0.000322499
27 io_oeb[37] *134:17 0.000733033
28 *97:19 *134:21 0
29 *116:85 io_out[35] 0.000244076
30 *126:25 *134:21 0
*RES
1 *739:io_out_o[35] *134:15 20.6685 
2 *134:15 *134:17 92.6203 
3 *134:17 *134:19 8 
4 *134:19 *134:21 85.736 
5 *134:21 *134:23 8 
6 *134:23 io_out[35] 194.945 
*END

*D_NET *135 0.294821
*CONN
*P io_out[36] O
*I *739:io_out_o[36] O *D ntt_wb_bridge
*CAP
1 io_out[36] 0.0510236
2 *739:io_out_o[36] 0.00137075
3 *135:20 0.0510236
4 *135:18 0.0117416
5 *135:16 0.0117416
6 *135:14 0.0150582
7 *135:12 0.016429
8 io_out[36] *555:9 0.00833924
9 io_out[36] *556:9 0.0090745
10 *135:14 *140:19 0.000487014
11 *135:14 *140:21 0.00523121
12 *135:14 *341:59 0.00881413
13 *135:14 *345:39 0.00863221
14 *135:18 la_data_out[24] 0.00347634
15 *135:18 *294:29 0.0201155
16 *135:18 *320:31 0.00271269
17 *135:18 *323:23 0.0029866
18 *135:18 *327:35 0.0022235
19 *135:18 *328:23 0.00339954
20 io_oeb[37] *135:14 0.023817
21 *80:37 *135:18 0.000151995
22 *80:73 io_out[36] 0.0125846
23 *84:21 *135:14 0.000215964
24 *93:19 *135:14 0.00920772
25 *95:19 *135:14 0.0077395
26 *107:16 *135:14 0.000369335
27 *107:18 *135:14 0.00685427
*RES
1 *739:io_out_o[36] *135:12 19.3563 
2 *135:12 *135:14 92.1051 
3 *135:14 *135:16 8 
4 *135:16 *135:18 48.4176 
5 *135:18 *135:20 8 
6 *135:20 io_out[36] 197.693 
*END

*D_NET *136 0.371647
*CONN
*P io_out[37] O
*I *739:io_out_o[37] O *D ntt_wb_bridge
*CAP
1 io_out[37] 0.00284537
2 *739:io_out_o[37] 0.0030211
3 *136:27 0.0264333
4 *136:25 0.0286854
5 *136:17 0.00811857
6 io_out[37] *540:9 0
7 io_out[37] *541:9 0.000239137
8 *136:17 *141:25 0.000639581
9 *82:13 *136:17 0.000111633
10 *91:13 *136:17 0.000120607
11 *93:19 *136:17 0.00216867
12 *93:19 *136:25 0.000327876
13 *95:43 *136:27 0.00247664
14 *108:19 *136:17 0.00780113
15 *108:19 *136:25 0.00816996
16 *110:13 *136:17 0.0016544
17 *110:13 *136:25 0.00318109
18 *116:19 *136:27 6.52177e-06
19 *116:21 *136:27 0.00105696
20 *129:15 *136:25 0.0159465
21 *131:25 *136:27 0.123957
22 *133:27 *136:27 0.130754
23 *133:31 io_out[37] 0.0039318
*RES
1 *739:io_out_o[37] *136:17 44.5936 
2 *136:17 *136:25 49.488 
3 *136:25 *136:27 242.372 
4 *136:27 io_out[37] 28.2248 
*END

*D_NET *137 0.373614
*CONN
*P io_out[3] O
*I *739:io_out_o[3] O *D ntt_wb_bridge
*CAP
1 io_out[3] 0.0119148
2 *739:io_out_o[3] 0.00226814
3 *137:17 0.0473599
4 *137:15 0.0354451
5 *137:13 0.0508776
6 *137:11 0.0531457
7 *137:13 *138:13 0.000672612
8 *137:13 *139:17 0.155988
9 *137:13 *279:23 0.0128215
10 *137:13 *334:27 0
11 *137:13 *362:23 0
12 *137:13 *371:37 0
13 *137:17 *654:11 0
14 *137:17 *700:11 0.00268884
15 *87:31 *137:11 2.9555e-05
16 *94:53 *137:11 4.93791e-05
17 *134:17 *137:13 0.000352987
*RES
1 *739:io_out_o[3] *137:11 20.8477 
2 *137:11 *137:13 292.003 
3 *137:13 *137:15 8 
4 *137:15 *137:17 125.212 
5 *137:17 io_out[3] 45.9811 
*END

*D_NET *138 0.468685
*CONN
*P io_out[4] O
*I *739:io_out_o[4] O *D ntt_wb_bridge
*CAP
1 io_out[4] 0.00214539
2 *739:io_out_o[4] 0.00194177
3 *138:17 0.0334535
4 *138:15 0.0313081
5 *138:13 0.0387071
6 *138:11 0.0406489
7 *138:13 *139:17 0.173368
8 *138:13 *352:27 0
9 *138:17 *139:21 0.0686485
10 io_oeb[37] *138:13 0
11 *69:17 *138:13 0.0570145
12 *87:31 *138:11 4.10529e-05
13 *94:53 *138:11 6.52177e-06
14 *134:17 *138:13 0.0207288
15 *137:13 *138:13 0.000672612
*RES
1 *739:io_out_o[4] *138:11 20.5416 
2 *138:11 *138:13 321.713 
3 *138:13 *138:15 8 
4 *138:15 *138:17 162.15 
5 *138:17 io_out[4] 14.0387 
*END

*D_NET *139 0.584289
*CONN
*P io_out[5] O
*I *739:io_out_o[5] O *D ntt_wb_bridge
*CAP
1 io_out[5] 0.00202973
2 *739:io_out_o[5] 0.00214939
3 *139:21 0.0597776
4 *139:19 0.0577478
5 *139:17 0.0311515
6 *139:15 0.0333008
7 *139:15 *140:19 0
8 *87:31 *139:15 3.14935e-05
9 *94:33 *139:15 9.59299e-05
10 *137:13 *139:17 0.155988
11 *138:13 *139:17 0.173368
12 *138:17 *139:21 0.0686485
*RES
1 *739:io_out_o[5] *139:15 21.0717 
2 *139:15 *139:17 319.652 
3 *139:17 *139:19 8 
4 *139:19 *139:21 199.468 
5 *139:21 io_out[5] 13.8669 
*END

*D_NET *140 0.465098
*CONN
*P io_out[6] O
*I *739:io_out_o[6] O *D ntt_wb_bridge
*CAP
1 io_out[6] 0.000892823
2 *739:io_out_o[6] 0.00194711
3 *140:33 0.00176354
4 *140:25 0.0390381
5 *140:23 0.0381674
6 *140:21 0.0506587
7 *140:19 0.0526059
8 *140:21 *341:59 0.00282023
9 *140:21 *353:27 0.000155832
10 *79:13 *140:21 0.00877658
11 *87:31 *140:19 3.58243e-05
12 *93:19 *140:19 0.000230505
13 *94:33 *140:19 0.000358332
14 *95:19 *140:21 0.000623103
15 *105:27 *140:33 0.000188759
16 *107:18 *140:21 0.159763
17 *107:22 *140:25 0.101355
18 *110:13 *140:21 0
19 *135:14 *140:19 0.000487014
20 *135:14 *140:21 0.00523121
21 *139:15 *140:19 0
*RES
1 *739:io_out_o[6] *140:19 44.2304 
2 *140:19 *140:21 1762.45 
3 *140:21 *140:23 15 
4 *140:23 *140:25 1303.07 
5 *140:25 *140:33 48.3011 
6 *140:33 io_out[6] 10.7328 
*END

*D_NET *141 0.584789
*CONN
*P io_out[7] O
*I *739:io_out_o[7] O *D ntt_wb_bridge
*CAP
1 io_out[7] 0.000964933
2 *739:io_out_o[7] 0.00297546
3 *141:37 0.0195879
4 *141:35 0.0186229
5 *141:33 0.0309626
6 *141:31 0.0354381
7 *141:25 0.0235227
8 *141:23 0.0204692
9 *141:13 0.0043975
10 *141:23 *143:13 0.000565747
11 *141:25 *143:15 0.00064194
12 *141:25 *143:29 0.00110754
13 *141:25 *143:35 0.0226551
14 *141:25 *351:39 0.00335857
15 *141:37 *143:47 0.123039
16 *68:17 *141:25 0.000143653
17 *68:27 *141:33 0.0310276
18 *69:15 *141:25 7.56811e-05
19 *72:23 *141:25 8.01802e-05
20 *74:11 *141:25 0.00027218
21 *75:11 *141:31 0.000244384
22 *76:13 *141:31 0.000218621
23 *77:13 *141:31 0.000240368
24 *77:33 *141:33 0.019414
25 *78:11 *141:31 0.000162562
26 *78:13 *141:31 0.000763721
27 *78:13 *141:33 0.00337878
28 *79:11 *141:25 6.21839e-05
29 *80:21 *141:31 0.00152783
30 *81:13 *141:31 7.36673e-05
31 *81:15 *141:13 0.000418954
32 *82:11 *141:31 0.0001296
33 *82:13 *141:23 0.000127117
34 *82:13 *141:25 0.00481709
35 *82:13 *141:31 0.00032708
36 *83:11 *141:31 0.000117871
37 *84:11 *141:33 8.66022e-05
38 *85:11 *141:33 0.000110828
39 *86:11 *141:33 0.000302563
40 *86:13 *141:23 0.000112232
41 *86:13 *141:25 0.00378451
42 *86:13 *141:31 0.000427194
43 *86:13 *141:33 0.000159189
44 *87:11 *141:33 0.000146459
45 *87:13 *141:25 0.00259628
46 *87:13 *141:33 0.000126825
47 *87:31 *141:13 0
48 *88:15 *141:33 0.00012372
49 *89:11 *141:33 5.17254e-05
50 *90:21 *141:25 0.000529173
51 *90:23 *141:25 0.000494925
52 *90:27 *141:37 0.00753552
53 *91:11 *141:33 0.00033968
54 *91:13 *141:23 0.00013476
55 *91:13 *141:25 0.00552883
56 *91:13 *141:31 0.000652193
57 *91:13 *141:33 0.000776281
58 *91:33 *141:13 9.10923e-05
59 *92:11 *141:33 0.000248569
60 *93:17 *141:33 0.000170413
61 *94:11 *141:33 5.21424e-05
62 *94:13 *141:25 0.00265928
63 *94:13 *141:31 0.000428448
64 *94:13 *141:33 0.000592296
65 *95:17 *141:33 0.000656614
66 *95:37 *141:25 0.0010506
67 *95:43 *141:23 4.78027e-05
68 *95:43 *141:25 0.00892819
69 *96:13 *141:33 0.000114854
70 *97:13 *141:33 0.000259531
71 *99:17 *141:25 0.000104556
72 *99:27 *141:33 0.0284597
73 *100:19 *141:25 0.000123076
74 *100:23 *141:25 0.00293259
75 *100:23 *141:31 0.0029259
76 *100:23 *141:33 0.00156481
77 *100:29 *141:33 1.40476e-05
78 *101:17 *141:25 0.000323118
79 *101:31 *141:37 0.016896
80 *102:17 *141:25 0.000491414
81 *102:31 *141:37 0.00590871
82 *103:11 *141:25 0.000415098
83 *104:17 *141:25 0.000102498
84 *105:13 *141:25 0.000121018
85 *105:27 *141:37 0.0544182
86 *106:19 *141:13 0.00480242
87 *106:21 *141:25 0
88 *108:17 *141:13 0.000360654
89 *108:19 *141:13 0.00132359
90 *110:13 *141:13 0.000228395
91 *111:35 *141:37 0.000110182
92 *112:17 *141:25 0.000120336
93 *113:11 *141:25 0.000130459
94 *113:13 *141:31 0.000667985
95 *113:13 *141:33 0.000697892
96 *114:11 *141:25 0.000218191
97 *114:13 *141:25 0.00025714
98 *115:11 *141:25 3.37431e-05
99 *116:19 *141:25 4.20368e-05
100 *118:11 *141:25 0.000278938
101 *119:11 *141:25 0.000151685
102 *120:11 *141:25 0.000103474
103 *121:11 *141:25 4.0384e-05
104 *122:11 *141:25 0.00027641
105 *122:13 *141:13 0.000183377
106 *123:13 *141:25 0.000104565
107 *124:13 *141:25 0.000133374
108 *125:11 *141:25 4.15252e-05
109 *126:11 *141:25 0.000353172
110 *126:19 *141:13 6.77278e-05
111 *127:13 *141:25 0.000503769
112 *128:25 *141:37 0.0365552
113 *129:13 *141:25 0.000343264
114 *129:15 *141:13 0.00872235
115 *130:13 *141:25 0.000135431
116 *131:11 *141:25 5.39839e-05
117 *132:17 *141:25 0.000571675
118 *133:23 *141:25 0.00041117
119 *134:15 *141:25 7.34316e-05
120 *136:17 *141:25 0.000639581
*RES
1 *739:io_out_o[7] *141:13 47.1296 
2 *141:13 *141:23 19.9088 
3 *141:23 *141:25 89.3573 
4 *141:25 *141:31 18.4539 
5 *141:31 *141:33 192.784 
6 *141:33 *141:35 8 
7 *141:35 *141:37 1565.07 
8 *141:37 io_out[7] 10.9045 
*END

*D_NET *142 0.534118
*CONN
*P io_out[8] O
*I *739:io_out_o[8] O *D ntt_wb_bridge
*CAP
1 io_out[8] 0.00120888
2 *739:io_out_o[8] 0.000718973
3 *142:23 0.00959473
4 *142:21 0.00838585
5 *142:19 0.0541684
6 *142:17 0.0541684
7 *142:15 0.0433815
8 *142:13 0.0441005
9 *142:19 *648:11 0
10 *142:19 *653:11 0.00935088
11 *142:19 *671:17 0.0149255
12 *142:19 *732:11 0
13 *68:19 *142:15 0.000396539
14 *74:17 *142:19 0
15 *75:17 *142:19 0
16 *78:129 *142:19 0.0746374
17 *90:21 *142:15 0.000428906
18 *91:33 *142:13 0.000124584
19 *100:19 *142:15 0.000774922
20 *104:19 *142:15 0.0186635
21 *104:23 *142:19 0.0297367
22 *104:29 io_out[8] 4.51815e-05
23 *109:23 *142:15 0.126408
24 *111:23 *142:15 0.00205324
25 *111:35 io_out[8] 0.00029406
26 *112:21 *142:15 2.18506e-05
27 *113:17 *142:19 0
28 *115:145 *142:19 0.00875392
29 *117:18 *142:15 0.000883517
30 *121:13 *142:15 0.00730032
31 *121:21 *142:15 0.0045862
32 *126:13 *142:15 0.0042143
33 *127:15 *142:15 0.00288435
34 *131:13 *142:15 0.00518646
35 *131:17 *142:15 0.00483925
36 *132:17 *142:15 0.000592669
37 *132:19 *142:15 0.0010063
38 *133:23 *142:15 0.000282628
*RES
1 *739:io_out_o[8] *142:13 32.8352 
2 *142:13 *142:15 1579.03 
3 *142:15 *142:17 15 
4 *142:17 *142:19 1844.67 
5 *142:19 *142:21 15 
6 *142:21 *142:23 171.183 
7 *142:23 io_out[8] 30.0046 
*END

*D_NET *143 0.627214
*CONN
*P io_out[9] O
*I *739:io_out_o[9] O *D ntt_wb_bridge
*CAP
1 io_out[9] 0.000987277
2 *739:io_out_o[9] 0.00258014
3 *143:47 0.026036
4 *143:45 0.0250487
5 *143:43 0.0560277
6 *143:41 0.0562619
7 *143:35 0.00755721
8 *143:29 0.00802843
9 *143:15 0.00185194
10 *143:13 0.00372662
11 *143:43 *351:39 0.00197275
12 io_oeb[8] *143:47 0.000978184
13 *78:13 *143:43 0
14 *82:13 *143:13 0.000757682
15 *82:13 *143:29 0.000112764
16 *86:13 *143:13 0.000575343
17 *87:13 *143:13 0.000368351
18 *87:13 *143:43 0.0149959
19 *90:21 *143:41 0.000112265
20 *91:13 *143:13 0.000853844
21 *91:13 *143:15 0.00379256
22 *91:13 *143:29 0.000130187
23 *94:13 *143:13 0.000377289
24 *94:13 *143:43 0.00266028
25 *95:43 *143:13 0.00722763
26 *95:43 *143:35 0.00390136
27 *99:31 *143:47 0.0104979
28 *101:27 *143:43 0.0331644
29 *102:31 *143:47 0.00711681
30 *105:27 *143:47 0.0226877
31 *106:21 *143:35 0.00266826
32 *108:17 *143:13 0.000116903
33 *109:13 *143:13 0.000324736
34 *110:11 *143:13 0.000255309
35 *111:19 *143:13 0.000361775
36 *111:35 *143:47 0.166365
37 *113:13 *143:15 0.000245442
38 *114:13 *143:35 0.00368077
39 *115:11 *143:29 0.000213237
40 *116:19 *143:29 0.000260565
41 *120:13 *143:15 0
42 *120:13 *143:35 0.000759415
43 *133:27 *143:35 0.00356397
44 *141:23 *143:13 0.000565747
45 *141:25 *143:15 0.00064194
46 *141:25 *143:29 0.00110754
47 *141:25 *143:35 0.0226551
48 *141:37 *143:47 0.123039
*RES
1 *739:io_out_o[9] *143:13 37.2439 
2 *143:13 *143:15 41.5943 
3 *143:15 *143:29 43.6099 
4 *143:29 *143:35 49.4965 
5 *143:35 *143:41 26.8425 
6 *143:41 *143:43 1340.34 
7 *143:43 *143:45 15 
8 *143:45 *143:47 2112.12 
9 *143:47 io_out[9] 10.9904 
*END

*D_NET *272 0.232197
*CONN
*P la_data_out[0] O
*I *739:la_data_out_o[0] O *D ntt_wb_bridge
*CAP
1 la_data_out[0] 0.000623608
2 *739:la_data_out_o[0] 0.000523987
3 *272:49 0.014459
4 *272:47 0.0139537
5 *272:41 0.002108
6 *272:37 0.00403855
7 *272:35 0.0022693
8 *272:25 0.0478118
9 *272:23 0.0477674
10 *272:13 0.000700024
11 *272:13 *310:31 1.22804e-05
12 *272:13 *311:15 3.80368e-05
13 *272:13 *313:13 2.02872e-05
14 *272:13 *322:17 0.00133208
15 *272:13 *330:13 0.00162657
16 *272:13 *337:29 3.65917e-05
17 *272:23 *313:23 0.000531667
18 *272:23 *322:21 9.22111e-05
19 *272:23 *330:19 0.000529457
20 *272:23 *355:37 9.22111e-05
21 *272:25 la_data_out[24] 0.00257105
22 *272:25 *283:25 0
23 *272:25 *294:19 0.000181174
24 *272:25 *294:21 0.00365384
25 *272:25 *294:29 0.0420404
26 *272:25 *309:21 0.000177502
27 *272:25 *309:29 0.000258641
28 *272:25 *309:37 0.000120999
29 *272:25 *313:25 0.00110776
30 *272:25 *313:35 0.000138759
31 *272:25 *320:23 0.000120804
32 *272:25 *327:27 0
33 *272:25 *328:23 0.000236095
34 *272:25 *330:19 0.000133003
35 *272:25 *330:21 0.000240822
36 *272:25 *342:47 0.00674118
37 *272:25 *351:35 0.0112461
38 *272:25 *366:25 0.000328876
39 *272:25 *388:25 0
40 *272:35 *294:39 7.10124e-05
41 *272:35 *334:27 0.000226833
42 *272:35 *337:47 0.000230428
43 *272:37 *283:37 0.0019676
44 *272:37 *294:47 5.57162e-05
45 *272:37 *304:35 0.000742671
46 *272:37 *307:31 0.000325128
47 *272:37 *317:31 0.00036859
48 *272:37 *329:21 0.000413284
49 *272:37 *338:43 0.000110155
50 *272:41 *304:35 0.00152683
51 *272:49 *283:47 0.00118455
52 *272:49 *294:51 0.0126225
53 *272:49 *304:35 0.00448817
54 *126:25 *272:25 0
*RES
1 *739:la_data_out_o[0] *272:13 41.7309 
2 *272:13 *272:23 38.1966 
3 *272:23 *272:25 153.772 
4 *272:25 *272:35 33.5242 
5 *272:35 *272:37 58.0311 
6 *272:37 *272:41 43.7589 
7 *272:41 *272:47 25.0818 
8 *272:47 *272:49 60.5061 
9 *272:49 la_data_out[0] 22.1582 
*END

*D_NET *273 0.21342
*CONN
*P la_data_out[100] O
*I *739:la_data_out_o[100] O *D ntt_wb_bridge
*CAP
1 la_data_out[100] 0.0389766
2 *739:la_data_out_o[100] 0.00132559
3 *273:17 0.0389766
4 *273:15 0.00843519
5 *273:13 0.00976078
6 la_data_out[100] *714:93 0.00224985
7 *273:13 *371:23 0.000304636
8 *273:15 *275:15 0.0547075
9 *273:15 *280:15 0.0509667
10 *273:15 *385:15 0.00496225
11 *273:15 *387:15 0.000127564
12 *273:15 *390:15 0.000189547
13 *273:15 *736:15 0.00123178
14 *273:15 *737:34 0.000740924
15 *78:93 la_data_out[100] 0.000464459
16 *114:81 la_data_out[100] 0
*RES
1 *739:la_data_out_o[100] *273:13 39.2211 
2 *273:13 *273:15 601.398 
3 *273:15 *273:17 15 
4 *273:17 la_data_out[100] 894.339 
*END

*D_NET *274 0.21084
*CONN
*P la_data_out[101] O
*I *739:la_data_out_o[101] O *D ntt_wb_bridge
*CAP
1 la_data_out[101] 0.00086392
2 *739:la_data_out_o[101] 0.00125793
3 *274:23 0.00378658
4 *274:21 0.00292266
5 *274:19 0.0374108
6 *274:17 0.0374108
7 *274:15 0.00788003
8 *274:13 0.00913796
9 *274:13 *371:23 0.000177996
10 *274:15 *276:15 0.0409419
11 *274:15 *378:15 0.00383451
12 *274:15 *382:15 0.000140203
13 *274:15 *394:15 0
14 *274:15 *396:15 0.04771
15 *274:15 *663:53 0.000609597
16 *274:15 *733:23 0
17 *274:19 *682:63 0.00479482
18 *274:23 *276:23 0.00945568
19 *78:83 *274:19 0.00250419
*RES
1 *739:la_data_out_o[101] *274:13 40.3497 
2 *274:13 *274:15 512.306 
3 *274:15 *274:17 15 
4 *274:17 *274:19 877.685 
5 *274:19 *274:21 15 
6 *274:21 *274:23 101.148 
7 *274:23 la_data_out[101] 33.2079 
*END

*D_NET *275 0.203852
*CONN
*P la_data_out[102] O
*I *739:la_data_out_o[102] O *D ntt_wb_bridge
*CAP
1 la_data_out[102] 0.000688629
2 *739:la_data_out_o[102] 0.00118578
3 *275:23 0.00147161
4 *275:19 0.0397138
5 *275:17 0.0389308
6 *275:15 0.0100612
7 *275:13 0.011247
8 *275:13 *371:23 0.000212977
9 *275:15 *280:15 0.000520533
10 *275:15 *374:15 0.00457374
11 *275:15 *385:15 0.000880803
12 *275:15 *387:15 0.000112629
13 *275:15 *390:15 0.000366994
14 *275:15 *396:15 0.0158913
15 *275:15 *737:34 0.0207818
16 *275:19 *658:67 0
17 *275:23 *302:25 0.00250516
18 *273:15 *275:15 0.0547075
*RES
1 *739:la_data_out_o[102] *275:13 39.3567 
2 *275:13 *275:15 597.11 
3 *275:15 *275:17 15 
4 *275:17 *275:19 879.094 
5 *275:19 *275:23 41.825 
6 *275:23 la_data_out[102] 30.7429 
*END

*D_NET *276 0.189068
*CONN
*P la_data_out[103] O
*I *739:la_data_out_o[103] O *D ntt_wb_bridge
*CAP
1 la_data_out[103] 0.000828405
2 *739:la_data_out_o[103] 0.00113103
3 *276:23 0.00502954
4 *276:21 0.00420113
5 *276:19 0.0381445
6 *276:17 0.0381445
7 *276:15 0.013266
8 *276:13 0.014397
9 *276:13 *353:17 0.000641836
10 *276:13 *371:23 0.000153303
11 *276:15 *378:15 0.0033855
12 *276:15 *385:15 0.000352695
13 *276:15 *394:15 0
14 *276:15 *663:53 0.000346258
15 *276:15 *733:23 0
16 *276:19 *714:45 0
17 *276:19 *715:35 0.00396245
18 *276:23 *285:21 0.00446827
19 *276:23 *286:21 0.0102185
20 *114:59 *276:19 0
21 *274:15 *276:15 0.0409419
22 *274:23 *276:23 0.00945568
*RES
1 *739:la_data_out_o[103] *276:13 40.657 
2 *276:13 *276:15 439.889 
3 *276:15 *276:17 15 
4 *276:17 *276:19 878.389 
5 *276:19 *276:21 15 
6 *276:21 *276:23 195.004 
7 *276:23 la_data_out[103] 32.8557 
*END

*D_NET *277 0.212508
*CONN
*P la_data_out[104] O
*I *739:la_data_out_o[104] O *D ntt_wb_bridge
*CAP
1 la_data_out[104] 0.0387811
2 *739:la_data_out_o[104] 0.000881581
3 *277:19 0.0387811
4 *277:17 0.0170171
5 *277:15 0.0178987
6 la_data_out[104] *658:91 0.00170197
7 *277:15 *278:13 0
8 *277:15 *371:23 7.71426e-05
9 *277:17 *282:17 0.00447686
10 *277:17 *295:15 0.0504572
11 *277:17 *296:15 0.001205
12 *277:17 *300:15 0.00205732
13 *277:17 *356:19 0.000252351
14 *277:17 *357:15 0.00348482
15 *277:17 *360:19 0.00255769
16 *277:17 *362:15 0.0243949
17 *277:17 *390:15 0.0081018
18 *277:17 *715:49 0.00038169
19 *76:67 la_data_out[104] 0
*RES
1 *739:la_data_out_o[104] *277:15 28.5845 
2 *277:15 *277:17 116.491 
3 *277:17 *277:19 8 
4 *277:19 la_data_out[104] 890.994 
*END

*D_NET *278 0.216591
*CONN
*P la_data_out[105] O
*I *739:la_data_out_o[105] O *D ntt_wb_bridge
*CAP
1 la_data_out[105] 0.0384863
2 *739:la_data_out_o[105] 0.000765327
3 *278:25 0.0384863
4 *278:23 0.00884693
5 *278:21 0.00968069
6 *278:15 0.0033068
7 *278:13 0.00323837
8 la_data_out[105] *694:19 0
9 *278:13 *371:23 0.00011087
10 *278:15 *359:15 0.00312487
11 *278:15 *363:15 0.0177822
12 *278:15 *391:15 0.0175629
13 *278:15 *530:15 6.22449e-05
14 *278:15 *728:15 0.000440926
15 *278:21 *531:17 0.000448522
16 *278:21 *693:11 0.00014981
17 *278:23 *297:13 0
18 *278:23 *301:23 0.0424349
19 *278:23 *397:25 0.0304141
20 *278:23 *667:41 0.00124918
21 *115:89 la_data_out[105] 0
22 *277:15 *278:13 0
*RES
1 *739:la_data_out_o[105] *278:13 32.8539 
2 *278:13 *278:15 200.721 
3 *278:15 *278:21 44.5829 
4 *278:21 *278:23 457.516 
5 *278:23 *278:25 15 
6 *278:25 la_data_out[105] 873.915 
*END

*D_NET *279 0.191412
*CONN
*P la_data_out[106] O
*I *739:la_data_out_o[106] O *D ntt_wb_bridge
*CAP
1 la_data_out[106] 0.0010632
2 *739:la_data_out_o[106] 0.000698351
3 *279:23 0.0157523
4 *279:21 0.0146891
5 *279:19 0.0372887
6 *279:17 0.0372887
7 *279:15 0.010361
8 *279:13 0.0110594
9 *279:13 *280:13 0
10 *279:13 *371:23 0.000684203
11 *279:15 *281:17 0.0192533
12 *279:15 *282:17 9.23801e-06
13 *279:15 *288:19 0.00241599
14 *279:15 *295:15 0
15 *279:15 *298:19 0.0048592
16 *279:15 *299:15 0.000453973
17 *279:15 *354:15 0.000721809
18 *279:15 *358:7 0.00136043
19 *279:15 *363:25 0.000137281
20 *279:15 *364:19 0.00215146
21 *279:15 *370:15 0.00248564
22 *279:15 *372:15 0.00354554
23 *279:15 *375:13 7.30313e-05
24 *279:15 *380:13 0.00260497
25 *279:15 *529:15 0.00040082
26 *279:15 *530:15 0.000806776
27 *279:15 *531:17 0.00365688
28 *279:19 la_data_out[86] 0
29 *78:33 *279:19 0.00476891
30 *114:27 *279:19 0
31 *137:13 *279:23 0.0128215
*RES
1 *739:la_data_out_o[106] *279:13 24.5841 
2 *279:13 *279:15 53.5509 
3 *279:15 *279:17 8 
4 *279:17 *279:19 862.895 
5 *279:19 *279:21 8 
6 *279:21 *279:23 65.744 
7 *279:23 la_data_out[106] 31.3139 
*END

*D_NET *280 0.219862
*CONN
*P la_data_out[107] O
*I *739:la_data_out_o[107] O *D ntt_wb_bridge
*CAP
1 la_data_out[107] 0.0394777
2 *739:la_data_out_o[107] 0.00119496
3 *280:17 0.0394777
4 *280:15 0.0114242
5 *280:13 0.0126192
6 la_data_out[107] *655:19 0.00208976
7 *280:13 *371:23 0.000336865
8 *280:15 *296:15 0.0526444
9 *280:15 *385:15 0.0049177
10 *280:15 *387:15 0.000251423
11 *280:15 *390:15 0.000232281
12 *280:15 *736:15 0.00370881
13 *78:113 la_data_out[107] 0
14 *273:15 *280:15 0.0509667
15 *275:15 *280:15 0.000520533
16 *279:13 *280:13 0
*RES
1 *739:la_data_out_o[107] *280:13 38.8839 
2 *280:13 *280:15 675.244 
3 *280:15 *280:17 15 
4 *280:17 la_data_out[107] 893.987 
*END

*D_NET *281 0.263424
*CONN
*P la_data_out[108] O
*I *739:la_data_out_o[108] O *D ntt_wb_bridge
*CAP
1 la_data_out[108] 0.00141711
2 *739:la_data_out_o[108] 0.000678589
3 *281:23 0.0210121
4 *281:21 0.019595
5 *281:19 0.01346
6 *281:17 0.0178684
7 *281:13 0.00508695
8 *281:13 *358:13 0.00010514
9 *281:13 *371:23 0.000564853
10 *281:17 *282:17 0.00168807
11 *281:17 *354:15 0.0106779
12 *281:17 *359:15 0.000761195
13 *281:17 *363:15 0.000411122
14 *281:17 *393:15 0.00331347
15 *281:17 *395:15 0.00287003
16 *281:17 *397:15 0.000464746
17 *281:17 *731:47 0.000635196
18 *281:19 *282:19 0.0339527
19 *281:19 *284:17 2.68708e-05
20 *281:19 *292:17 0.0665598
21 *281:19 *367:19 0
22 *281:19 *649:15 0
23 *281:23 *352:27 0.00228894
24 *281:23 *353:27 1.31877e-05
25 *281:23 *358:31 0.00229996
26 *69:17 *281:23 0.016235
27 *70:22 *281:23 0.0108737
28 *71:22 *281:23 0.00416325
29 *72:25 *281:23 0.00357372
30 *73:20 *281:23 0.00357372
31 *279:15 *281:17 0.0192533
*RES
1 *739:la_data_out_o[108] *281:13 25.0719 
2 *281:13 *281:17 43.7765 
3 *281:17 *281:19 856.556 
4 *281:19 *281:21 8 
5 *281:21 *281:23 87.5541 
6 *281:23 la_data_out[108] 38.3568 
*END

*D_NET *282 0.217134
*CONN
*P la_data_out[109] O
*I *739:la_data_out_o[109] O *D ntt_wb_bridge
*CAP
1 la_data_out[109] 0.00265998
2 *739:la_data_out_o[109] 0.000921514
3 *282:25 0.00265998
4 *282:23 0.0180278
5 *282:21 0.0180278
6 *282:19 0.0183776
7 *282:17 0.0231913
8 *282:13 0.00573516
9 *282:13 *371:23 0.000505178
10 *282:17 *295:15 0.010419
11 *282:17 *356:19 0.00278401
12 *282:17 *359:15 0.00465428
13 *282:17 *728:15 0.00144574
14 *282:17 *731:47 0.000189732
15 *282:19 *367:19 0.0191371
16 *282:19 *649:15 0
17 *78:23 *282:23 0.000780286
18 *101:27 *282:23 0.0474907
19 *277:17 *282:17 0.00447686
20 *279:15 *282:17 9.23801e-06
21 *281:17 *282:17 0.00168807
22 *281:19 *282:19 0.0339527
*RES
1 *739:la_data_out_o[109] *282:13 27.7808 
2 *282:13 *282:17 42.6603 
3 *282:17 *282:19 836.836 
4 *282:19 *282:21 8 
5 *282:21 *282:23 90.6453 
6 *282:23 *282:25 8 
7 *282:25 la_data_out[109] 52.8939 
*END

*D_NET *283 0.229778
*CONN
*P la_data_out[10] O
*I *739:la_data_out_o[10] O *D ntt_wb_bridge
*CAP
1 la_data_out[10] 0.000753213
2 *739:la_data_out_o[10] 0.000568315
3 *283:47 0.00600056
4 *283:43 0.00529436
5 *283:37 0.0011008
6 *283:35 0.00121866
7 *283:25 0.0329044
8 *283:23 0.0329231
9 *283:17 0.00901738
10 *283:15 0.00883378
11 *283:13 0.0015822
12 *283:11 0.00215052
13 *283:11 *310:17 0.000163422
14 *283:13 *294:13 0.00872528
15 *283:13 *303:13 4.5051e-05
16 *283:13 *314:13 0.0013706
17 *283:13 *329:13 0.00909665
18 *283:13 *377:19 0
19 *283:17 *306:17 0.0235982
20 *283:17 *326:19 4.94766e-06
21 *283:17 *329:17 3.20602e-05
22 *283:17 *350:31 0
23 *283:23 *595:9 0
24 *283:23 *596:9 3.06395e-05
25 *283:25 *306:17 0.000103953
26 *283:25 *317:19 0.000695788
27 *283:25 *317:27 0.000150324
28 *283:25 *318:19 0.00740026
29 *283:25 *319:19 0.00039345
30 *283:25 *321:19 0.000535858
31 *283:25 *324:19 0.000322499
32 *283:25 *326:29 0.000129601
33 *283:25 *329:17 0.000131084
34 *283:35 *329:17 2.20037e-05
35 *283:35 *331:17 0
36 *283:35 *334:27 0.000219528
37 *283:35 *337:47 0.000223101
38 *283:37 *294:47 0.0015012
39 *283:37 *303:21 0.000162608
40 *283:47 *303:21 0.0162955
41 *283:47 *304:35 0.00255661
42 *283:47 *307:31 0.00932542
43 *126:25 *283:17 0.000403351
44 *126:25 *283:25 0.0406399
45 *134:21 *283:25 0
46 *272:25 *283:25 0
47 *272:37 *283:37 0.0019676
48 *272:49 *283:47 0.00118455
*RES
1 *739:la_data_out_o[10] *283:11 26.4282 
2 *283:11 *283:13 101.148 
3 *283:13 *283:15 15 
4 *283:15 *283:17 303.516 
5 *283:17 *283:23 16.3565 
6 *283:23 *283:25 100.968 
7 *283:25 *283:35 32.8199 
8 *283:35 *283:37 38.2593 
9 *283:37 *283:43 23.6732 
10 *283:43 *283:47 45.6656 
11 *283:47 la_data_out[10] 16.9754 
*END

*D_NET *284 0.25936
*CONN
*P la_data_out[110] O
*I *739:la_data_out_o[110] O *D ntt_wb_bridge
*CAP
1 la_data_out[110] 0.000753281
2 *739:la_data_out_o[110] 0.000444296
3 *284:25 0.0069286
4 *284:23 0.00700402
5 *284:17 0.0243584
6 *284:15 0.0235297
7 *284:13 0.00524849
8 *284:11 0.00569279
9 *284:11 *371:23 0.000194896
10 *284:13 *285:13 0.000577236
11 *284:13 *288:23 0.00239862
12 *284:13 *292:13 0.000297149
13 *284:13 *293:13 0.0102206
14 *284:13 *368:19 0
15 *284:13 *375:13 0.00110297
16 *284:13 *383:13 0.00111338
17 *284:13 *383:21 0.00383255
18 *284:13 *392:21 2.18506e-05
19 *284:17 *292:17 7.17057e-05
20 *284:17 *302:17 0.0673527
21 *284:17 *369:15 0
22 *284:17 *649:15 0.00181857
23 *284:17 *676:35 0.00178592
24 *284:17 *734:19 0
25 *284:17 *735:11 0
26 *284:23 *292:23 0.00109582
27 *284:23 *292:25 2.73653e-05
28 *284:23 *359:31 0.000104089
29 *284:23 *365:27 0.000623479
30 *284:23 *368:47 0.00103061
31 *284:25 *285:21 0.0422926
32 *284:25 *292:25 0.0462561
33 *284:25 *383:35 0.000137565
34 *284:25 *383:39 0.00301771
35 *281:19 *284:17 2.68708e-05
*RES
1 *739:la_data_out_o[110] *284:11 27.2706 
2 *284:11 *284:13 182.617 
3 *284:13 *284:15 15 
4 *284:15 *284:17 864.304 
5 *284:17 *284:23 45.0564 
6 *284:23 *284:25 494.678 
7 *284:25 la_data_out[110] 31.7993 
*END

*D_NET *285 0.220116
*CONN
*P la_data_out[111] O
*I *739:la_data_out_o[111] O *D ntt_wb_bridge
*CAP
1 la_data_out[111] 0.000767732
2 *739:la_data_out_o[111] 0.000225375
3 *285:21 0.00895138
4 *285:19 0.00818365
5 *285:17 0.0366805
6 *285:15 0.0366805
7 *285:13 0.0050622
8 *285:11 0.00528757
9 *285:11 *371:23 0.000176965
10 *285:13 *286:13 0.0218188
11 *285:13 *288:23 0.00347493
12 *285:13 *292:13 0.0110901
13 *285:13 *371:23 0.00184623
14 *285:17 *658:35 0.00757201
15 *285:17 *714:35 0
16 *285:21 *286:21 0.0239889
17 *285:21 *292:25 0.000970746
18 *276:23 *285:21 0.00446827
19 *284:13 *285:13 0.000577236
20 *284:25 *285:21 0.0422926
*RES
1 *739:la_data_out_o[111] *285:11 25.4016 
2 *285:11 *285:13 246.935 
3 *285:13 *285:15 15 
4 *285:15 *285:17 862.895 
5 *285:17 *285:19 15 
6 *285:19 *285:21 470.856 
7 *285:21 la_data_out[111] 32.1514 
*END

*D_NET *286 0.226407
*CONN
*P la_data_out[112] O
*I *739:la_data_out_o[112] O *D ntt_wb_bridge
*CAP
1 la_data_out[112] 0.0007823
2 *739:la_data_out_o[112] 0.000135515
3 *286:21 0.00692989
4 *286:19 0.00614759
5 *286:17 0.0264544
6 *286:15 0.0264544
7 *286:13 0.00783834
8 *286:11 0.00797385
9 *286:11 *371:23 8.06172e-05
10 *286:13 *287:13 0.0406029
11 *286:13 *288:23 0.00769352
12 *286:13 *298:31 0.00138215
13 *286:13 *371:23 0.0020175
14 *286:13 *531:17 0.000107295
15 *286:17 la_data_out[97] 0.0351714
16 *286:17 *714:67 0
17 *286:21 *292:25 0.000609337
18 *276:23 *286:21 0.0102185
19 *285:13 *286:13 0.0218188
20 *285:21 *286:21 0.0239889
*RES
1 *739:la_data_out_o[112] *286:11 24.6836 
2 *286:11 *286:13 455.611 
3 *286:13 *286:15 15 
4 *286:15 *286:17 862.191 
5 *286:17 *286:19 15 
6 *286:19 *286:21 274.568 
7 *286:21 la_data_out[112] 32.5036 
*END

*D_NET *287 0.229001
*CONN
*P la_data_out[113] O
*I *739:la_data_out_o[113] O *D ntt_wb_bridge
*CAP
1 la_data_out[113] 0.036766
2 *739:la_data_out_o[113] 0.000144554
3 *287:15 0.036766
4 *287:13 0.0119634
5 *287:11 0.012108
6 la_data_out[113] *655:99 0.00122579
7 la_data_out[113] *686:73 0.000396305
8 la_data_out[113] *721:79 0.0056526
9 *287:11 *371:23 0.000119943
10 *287:13 *288:23 0.00794836
11 *287:13 *289:13 0.0660993
12 *287:13 *298:31 0.00402737
13 *287:13 *371:23 0.00139253
14 *287:13 *531:17 0.000117123
15 *77:115 la_data_out[113] 0.00367034
16 *286:13 *287:13 0.0406029
*RES
1 *739:la_data_out_o[113] *287:11 24.4808 
2 *287:11 *287:13 740.039 
3 *287:13 *287:15 15 
4 *287:15 la_data_out[113] 879.197 
*END

*D_NET *288 0.188052
*CONN
*P la_data_out[114] O
*I *739:la_data_out_o[114] O *D ntt_wb_bridge
*CAP
1 la_data_out[114] 0.0387478
2 *739:la_data_out_o[114] 0.00137368
3 *288:25 0.0387478
4 *288:23 0.0156866
5 *288:21 0.0156866
6 *288:19 0.00137368
7 la_data_out[114] *652:81 0.000270897
8 la_data_out[114] *659:63 0.00176265
9 la_data_out[114] *694:103 0
10 la_data_out[114] *694:117 0
11 la_data_out[114] *723:91 0.00122445
12 *288:19 *365:19 0.000812491
13 *288:19 *371:23 0.000112148
14 *288:19 *380:13 0.00442546
15 *288:23 *289:13 0.000183548
16 *288:23 *292:13 0.0100951
17 *288:23 *293:13 0.0104104
18 *288:23 *369:13 0.000130187
19 *288:23 *392:21 0.0230768
20 *279:15 *288:19 0.00241599
21 *284:13 *288:23 0.00239862
22 *285:13 *288:23 0.00347493
23 *286:13 *288:23 0.00769352
24 *287:13 *288:23 0.00794836
*RES
1 *739:la_data_out_o[114] *288:19 42.3739 
2 *288:19 *288:21 15 
3 *288:21 *288:23 707.641 
4 *288:23 *288:25 15 
5 *288:25 la_data_out[114] 880.606 
*END

*D_NET *289 0.242025
*CONN
*P la_data_out[115] O
*I *739:la_data_out_o[115] O *D ntt_wb_bridge
*CAP
1 la_data_out[115] 0.0386572
2 *739:la_data_out_o[115] 8.84e-05
3 *289:15 0.0386572
4 *289:13 0.0108925
5 *289:11 0.0109809
6 la_data_out[115] *652:119 0.000389041
7 la_data_out[115] *665:57 0.000385569
8 la_data_out[115] *686:51 0.000198143
9 la_data_out[115] *694:133 0
10 la_data_out[115] *721:101 0
11 la_data_out[115] *721:109 0
12 la_data_out[115] *721:119 0
13 la_data_out[115] *723:121 0.000113542
14 *289:11 *371:23 6.29208e-05
15 *289:13 *290:13 0.0704773
16 *289:13 *293:13 0
17 *289:13 *298:31 0.00449122
18 *289:13 *371:23 0.000230791
19 *289:13 *531:17 0.000117123
20 *114:131 la_data_out[115] 0
21 *287:13 *289:13 0.0660993
22 *288:23 *289:13 0.000183548
*RES
1 *739:la_data_out_o[115] *289:11 23.9121 
2 *289:11 *289:13 762.431 
3 *289:13 *289:15 15 
4 *289:15 la_data_out[115] 878.845 
*END

*D_NET *290 0.249968
*CONN
*P la_data_out[116] O
*I *739:la_data_out_o[116] O *D ntt_wb_bridge
*CAP
1 la_data_out[116] 0.038593
2 *739:la_data_out_o[116] 0.000113906
3 *290:15 0.038593
4 *290:13 0.0109719
5 *290:11 0.0110858
6 la_data_out[116] *296:19 0
7 la_data_out[116] *669:57 0.0010188
8 la_data_out[116] *686:51 0.00141468
9 la_data_out[116] *694:135 0
10 *290:11 *371:23 7.07859e-05
11 *290:13 *291:13 0.0714167
12 *290:13 *293:13 0
13 *290:13 *298:31 0.00600028
14 *290:13 *371:23 0.000110183
15 *290:13 *531:17 0.000101448
16 *114:137 la_data_out[116] 0
17 *289:13 *290:13 0.0704773
*RES
1 *739:la_data_out_o[116] *290:11 23.5899 
2 *290:11 *290:13 775.294 
3 *290:13 *290:15 15 
4 *290:15 la_data_out[116] 878.493 
*END

*D_NET *291 0.225593
*CONN
*P la_data_out[117] O
*I *739:la_data_out_o[117] O *D ntt_wb_bridge
*CAP
1 la_data_out[117] 0.0365973
2 *739:la_data_out_o[117] 0.000113671
3 *291:19 0.0385089
4 *291:15 0.00191158
5 *291:13 0.0138659
6 *291:11 0.0139796
7 la_data_out[117] *669:33 0.000297246
8 *291:11 *371:23 5.09072e-05
9 *291:13 *297:13 0.0355849
10 *291:13 *298:31 0.00690437
11 *291:13 *302:13 0.00494522
12 *291:13 *694:149 0.000171985
13 *291:19 *669:33 0.00102543
14 *291:19 *694:157 4.60157e-05
15 *112:33 la_data_out[117] 0
16 *112:33 *291:19 0
17 *115:129 la_data_out[117] 0
18 *115:129 *291:19 0.00017366
19 *290:13 *291:13 0.0714167
*RES
1 *739:la_data_out_o[117] *291:11 23.5264 
2 *291:11 *291:13 785.299 
3 *291:13 *291:15 15 
4 *291:15 *291:19 44.4632 
5 *291:19 la_data_out[117] 834.444 
*END

*D_NET *292 0.320478
*CONN
*P la_data_out[118] O
*I *739:la_data_out_o[118] O *D ntt_wb_bridge
*CAP
1 la_data_out[118] 0.000728239
2 *739:la_data_out_o[118] 0.000411818
3 *292:25 0.00999385
4 *292:23 0.00981149
5 *292:17 0.0117202
6 *292:15 0.0111743
7 *292:13 0.00210402
8 *292:11 0.00251584
9 *292:11 *371:23 0.000158285
10 *292:13 *371:23 0.00138793
11 *292:17 *302:17 0.0673999
12 *292:17 *367:19 0
13 *292:23 *302:23 9.86777e-06
14 *292:23 *365:27 0.000541752
15 *292:23 *373:31 0.000104089
16 *292:23 *379:31 0.00031819
17 *292:23 *381:33 0.00190542
18 *292:25 *296:23 0.00322008
19 *292:25 *302:23 0.000212601
20 *292:25 *302:25 0.0596871
21 *281:19 *292:17 0.0665598
22 *284:13 *292:13 0.000297149
23 *284:17 *292:17 7.17057e-05
24 *284:23 *292:23 0.00109582
25 *284:23 *292:25 2.73653e-05
26 *284:25 *292:25 0.0462561
27 *285:13 *292:13 0.0110901
28 *285:21 *292:25 0.000970746
29 *286:21 *292:25 0.000609337
30 *288:23 *292:13 0.0100951
*RES
1 *739:la_data_out_o[118] *292:11 25.6829 
2 *292:11 *292:13 122.587 
3 *292:13 *292:15 15 
4 *292:15 *292:17 863.599 
5 *292:17 *292:23 42.7986 
6 *292:23 *292:25 642.371 
7 *292:25 la_data_out[118] 31.4471 
*END

*D_NET *293 0.168766
*CONN
*P la_data_out[119] O
*I *739:la_data_out_o[119] O *D ntt_wb_bridge
*CAP
1 la_data_out[119] 0.0384075
2 *739:la_data_out_o[119] 0.000598082
3 *293:15 0.0384075
4 *293:13 0.0305137
5 *293:11 0.0311118
6 *293:11 *371:23 0.000197611
7 *293:13 *299:15 0
8 *293:13 *368:19 0
9 *293:13 *369:7 0.00100148
10 *293:13 *383:21 0.00133265
11 *293:13 *392:21 0.00656474
12 *293:13 *529:15 0
13 *103:17 la_data_out[119] 0
14 *115:137 la_data_out[119] 0
15 *284:13 *293:13 0.0102206
16 *288:23 *293:13 0.0104104
17 *289:13 *293:13 0
18 *290:13 *293:13 0
*RES
1 *739:la_data_out_o[119] *293:11 27.5929 
2 *293:11 *293:13 801.974 
3 *293:13 *293:15 15 
4 *293:15 la_data_out[119] 882.014 
*END

*D_NET *294 0.236825
*CONN
*P la_data_out[11] O
*I *739:la_data_out_o[11] O *D ntt_wb_bridge
*CAP
1 la_data_out[11] 0.000594472
2 *739:la_data_out_o[11] 0.000320474
3 *294:51 0.00721266
4 *294:47 0.00756874
5 *294:39 0.00132696
6 *294:29 0.0228728
7 *294:27 0.0226207
8 *294:21 0.00750651
9 *294:19 0.00861343
10 *294:15 0.00123119
11 *294:13 0.00344496
12 *294:11 0.00376544
13 *294:11 *310:17 4.3258e-05
14 *294:13 *328:15 0
15 *294:13 *329:13 0.000614267
16 *294:13 *334:19 0.00193291
17 *294:13 *377:17 0
18 *294:13 *377:19 0
19 *294:19 *335:23 0.00185349
20 *294:19 *351:33 0.00207428
21 *294:19 *351:35 0
22 *294:19 *366:25 0.000148435
23 *294:21 *335:23 0
24 *294:21 *342:45 6.43972e-05
25 *294:21 *351:35 0.0200859
26 *294:27 *342:41 0.000126526
27 *294:29 la_data_out[24] 0.00309258
28 *294:29 *309:29 0.0072615
29 *294:29 *320:31 0.00245285
30 *294:29 *323:23 0.00245285
31 *294:29 *325:19 0.00467636
32 *294:29 *327:27 8.27225e-06
33 *294:29 *328:23 0.000110196
34 *294:29 *330:21 0.000834139
35 *294:29 *341:53 3.36251e-05
36 *294:39 *313:35 0
37 *294:39 *334:27 0.000359302
38 *294:39 *335:23 9.49518e-05
39 *294:47 *304:31 0
40 *294:47 *307:25 0
41 *294:47 *309:37 0
42 *294:47 *317:31 2.19403e-05
43 *294:47 *318:23 0.000279227
44 *294:47 *326:33 0.00012959
45 *294:51 *304:35 0.00136108
46 *294:51 *309:45 0.00794085
47 *294:51 *313:35 0.00272725
48 *135:18 *294:29 0.0201155
49 *272:25 *294:19 0.000181174
50 *272:25 *294:21 0.00365384
51 *272:25 *294:29 0.0420404
52 *272:35 *294:39 7.10124e-05
53 *272:37 *294:47 5.57162e-05
54 *272:49 *294:51 0.0126225
55 *283:13 *294:13 0.00872528
56 *283:37 *294:47 0.0015012
*RES
1 *739:la_data_out_o[11] *294:11 26.3025 
2 *294:11 *294:13 107.818 
3 *294:13 *294:15 15 
4 *294:15 *294:19 49.0618 
5 *294:19 *294:21 257.002 
6 *294:21 *294:27 16.2707 
7 *294:27 *294:29 100.714 
8 *294:29 *294:39 34.1339 
9 *294:39 *294:47 48.0746 
10 *294:47 *294:51 46.2667 
11 *294:51 la_data_out[11] 13.4539 
*END

*D_NET *295 0.210956
*CONN
*P la_data_out[120] O
*I *739:la_data_out_o[120] O *D ntt_wb_bridge
*CAP
1 la_data_out[120] 0.0397415
2 *739:la_data_out_o[120] 0.00113456
3 *295:17 0.0397415
4 *295:15 0.0337092
5 *295:13 0.0348437
6 *295:13 *371:23 0.000322038
7 *295:15 *669:33 0
8 *295:15 *721:135 0.000586754
9 *295:15 *723:121 0
10 *277:17 *295:15 0.0504572
11 *279:15 *295:15 0
12 *282:17 *295:15 0.010419
*RES
1 *739:la_data_out_o[120] *295:13 28.1528 
2 *295:13 *295:15 146.716 
3 *295:15 *295:17 8 
4 *295:17 la_data_out[120] 890.29 
*END

*D_NET *296 0.243749
*CONN
*P la_data_out[121] O
*I *739:la_data_out_o[121] O *D ntt_wb_bridge
*CAP
1 la_data_out[121] 0.000760859
2 *739:la_data_out_o[121] 0.00153519
3 *296:23 0.00350903
4 *296:21 0.00274817
5 *296:19 0.03854
6 *296:17 0.03854
7 *296:15 0.0113177
8 *296:13 0.0128529
9 *296:13 *371:23 0.000499005
10 *296:15 *300:15 0.0656809
11 *296:15 *387:15 0.00280053
12 *296:15 *390:15 0.000263083
13 *296:15 *736:15 0.00147638
14 *296:19 *669:57 0.000325818
15 *296:19 *686:51 0.000321265
16 *296:19 *721:119 0
17 *296:23 *302:25 0.0028808
18 la_data_out[116] *296:19 0
19 *76:79 *296:15 0.00262823
20 *277:17 *296:15 0.001205
21 *280:15 *296:15 0.0526444
22 *292:25 *296:23 0.00322008
*RES
1 *739:la_data_out_o[121] *296:13 38.8192 
2 *296:13 *296:15 732.892 
3 *296:15 *296:17 15 
4 *296:17 *296:19 876.981 
5 *296:19 *296:21 15 
6 *296:21 *296:23 89.7136 
7 *296:23 la_data_out[121] 31.7993 
*END

*D_NET *297 0.198783
*CONN
*P la_data_out[122] O
*I *739:la_data_out_o[122] O *D ntt_wb_bridge
*CAP
1 la_data_out[122] 0.0381079
2 *739:la_data_out_o[122] 0.000449018
3 *297:15 0.0381079
4 *297:13 0.0258557
5 *297:11 0.0263047
6 *297:11 *371:23 0.000110381
7 *297:13 *298:29 0.000409521
8 *297:13 *298:31 0.0162514
9 *297:13 *302:13 0.00494754
10 *297:13 *368:33 0.00170521
11 *297:13 *368:35 0.00228036
12 *297:13 *391:23 0.000336994
13 *297:13 *391:27 0.00833102
14 *297:13 *393:23 0
15 *297:13 *395:23 0
16 *297:13 *397:25 0
17 *278:23 *297:13 0
18 *291:13 *297:13 0.0355849
*RES
1 *739:la_data_out_o[122] *297:11 24.0901 
2 *297:11 *297:13 833.895 
3 *297:13 *297:15 15 
4 *297:15 la_data_out[122] 877.436 
*END

*D_NET *298 0.237247
*CONN
*P la_data_out[123] O
*I *739:la_data_out_o[123] O *D ntt_wb_bridge
*CAP
1 la_data_out[123] 0.0380565
2 *739:la_data_out_o[123] 0.00246593
3 *298:33 0.0380565
4 *298:31 0.048648
5 *298:29 0.0487328
6 *298:19 0.00255076
7 *298:19 *299:15 0.00024288
8 *298:19 *301:19 0.00267374
9 *298:19 *363:25 5.6895e-05
10 *298:19 *364:19 0.00086134
11 *298:19 *365:19 0.000432412
12 *298:19 *370:15 0.000753233
13 *298:19 *371:23 0.000379655
14 *298:19 *380:13 0.00114922
15 *298:19 *393:21 0.000579193
16 *298:29 *368:35 0.000414334
17 *298:31 *371:23 0.000491437
18 *298:31 *375:13 0
19 *298:31 *391:27 0.00278419
20 *298:31 *393:23 0.000546746
21 *298:31 *531:17 8.40788e-05
22 *298:31 *655:115 0.000341778
23 *298:31 *667:41 0.000993338
24 *298:31 *669:33 0
25 *298:31 *694:149 0.000936995
26 *77:153 *298:31 0.000689052
27 *108:31 la_data_out[123] 0
28 *279:15 *298:19 0.0048592
29 *286:13 *298:31 0.00138215
30 *287:13 *298:31 0.00402737
31 *289:13 *298:31 0.00449122
32 *290:13 *298:31 0.00600028
33 *291:13 *298:31 0.00690437
34 *297:13 *298:29 0.000409521
35 *297:13 *298:31 0.0162514
*RES
1 *739:la_data_out_o[123] *298:19 48.8197 
2 *298:19 *298:29 42.7539 
3 *298:29 *298:31 142.509 
4 *298:31 *298:33 8 
5 *298:33 la_data_out[123] 876.908 
*END

*D_NET *299 0.181111
*CONN
*P la_data_out[124] O
*I *739:la_data_out_o[124] O *D ntt_wb_bridge
*CAP
1 la_data_out[124] 0.038385
2 *739:la_data_out_o[124] 0.000715706
3 *299:17 0.038385
4 *299:15 0.0362379
5 *299:13 0.0369536
6 *299:13 *371:23 0.000316287
7 *299:15 *301:19 0.000420654
8 *299:15 *365:19 0.00739162
9 *299:15 *368:19 0.00135904
10 *299:15 *529:15 0.0192611
11 *299:15 *530:15 0.000987654
12 *279:15 *299:15 0.000453973
13 *293:13 *299:15 0
14 *298:19 *299:15 0.00024288
*RES
1 *739:la_data_out_o[124] *299:13 29.6908 
2 *299:13 *299:15 856.287 
3 *299:15 *299:17 15 
4 *299:17 la_data_out[124] 884.831 
*END

*D_NET *300 0.213207
*CONN
*P la_data_out[125] O
*I *739:la_data_out_o[125] O *D ntt_wb_bridge
*CAP
1 la_data_out[125] 0.0387439
2 *739:la_data_out_o[125] 0.0012818
3 *300:17 0.0387439
4 *300:15 0.0274968
5 *300:13 0.0287786
6 *300:13 *371:23 0.000260306
7 *300:15 *387:15 0.00439669
8 *300:15 *658:97 0.000104766
9 *300:15 *689:31 3.22722e-05
10 *300:15 *715:49 0.000104769
11 *300:15 *726:15 6.08617e-05
12 *300:15 *736:15 0.00543649
13 *76:79 *300:15 2.73468e-05
14 *277:17 *300:15 0.00205732
15 *296:15 *300:15 0.0656809
*RES
1 *739:la_data_out_o[125] *300:13 38.034 
2 *300:13 *300:15 867.245 
3 *300:15 *300:17 15 
4 *300:17 la_data_out[125] 893.283 
*END

*D_NET *301 0.199964
*CONN
*P la_data_out[126] O
*I *739:la_data_out_o[126] O *D ntt_wb_bridge
*CAP
1 la_data_out[126] 0.0388882
2 *739:la_data_out_o[126] 0.00166244
3 *301:25 0.0388882
4 *301:23 0.0325064
5 *301:21 0.0325064
6 *301:19 0.00166244
7 *301:19 *365:19 0.000371524
8 *301:19 *368:25 0.000382897
9 *301:19 *371:23 0.000200631
10 *301:19 *380:13 0.00267374
11 *301:19 *393:21 0.000695578
12 *301:19 *395:21 0.000716446
13 *301:23 *397:25 0.00039519
14 *301:23 *667:41 0.00288437
15 *278:23 *301:23 0.0424349
16 *298:19 *301:19 0.00267374
17 *299:15 *301:19 0.000420654
*RES
1 *739:la_data_out_o[126] *301:19 46.572 
2 *301:19 *301:21 15 
3 *301:21 *301:23 851.046 
4 *301:23 *301:25 15 
5 *301:25 la_data_out[126] 873.563 
*END

*D_NET *302 0.28959
*CONN
*P la_data_out[127] O
*I *739:la_data_out_o[127] O *D ntt_wb_bridge
*CAP
1 la_data_out[127] 0.000719477
2 *739:la_data_out_o[127] 0.000167547
3 *302:25 0.025338
4 *302:23 0.0254871
5 *302:17 0.0117721
6 *302:15 0.0109035
7 *302:13 0.00114005
8 *302:11 0.0013076
9 *302:11 *371:23 2.96653e-05
10 *302:17 *369:15 0
11 *302:17 *373:31 4.5745e-05
12 *302:23 *354:31 0.000363998
13 *302:23 *378:23 0.000493693
14 *302:23 *379:31 0.00107034
15 *302:23 *381:33 0.000810629
16 *275:23 *302:25 0.00250516
17 *284:17 *302:17 0.0673527
18 *291:13 *302:13 0.00494522
19 *292:17 *302:17 0.0673999
20 *292:23 *302:23 9.86777e-06
21 *292:25 *302:23 0.000212601
22 *292:25 *302:25 0.0596871
23 *296:23 *302:25 0.0028808
24 *297:13 *302:13 0.00494754
*RES
1 *739:la_data_out_o[127] *302:11 23.5488 
2 *302:11 *302:13 54.4579 
3 *302:13 *302:15 15 
4 *302:15 *302:17 862.191 
5 *302:17 *302:23 47.3246 
6 *302:23 *302:25 803.642 
7 *302:25 la_data_out[127] 31.095 
*END

*D_NET *303 0.232336
*CONN
*P la_data_out[12] O
*I *739:la_data_out_o[12] O *D ntt_wb_bridge
*CAP
1 la_data_out[12] 0.000808497
2 *739:la_data_out_o[12] 0.000241609
3 *303:21 0.00621046
4 *303:17 0.0169596
5 *303:15 0.0115576
6 *303:13 0.00200002
7 *303:11 0.00224163
8 *303:11 *310:17 4.52243e-05
9 *303:13 *304:13 0.0113727
10 *303:13 *310:17 0.00130985
11 *303:13 *311:15 0.000168797
12 *303:13 *314:13 0.000222074
13 *303:13 *329:13 0.0107454
14 *303:17 la_data_out[23] 0
15 *303:17 *331:17 1.48521e-05
16 *303:17 *334:23 0.067245
17 *303:17 *340:35 0.0663759
18 *303:21 la_data_out[14] 0.000861915
19 *303:21 *304:35 0.000182619
20 *303:21 *306:27 0.00945156
21 *303:21 *307:31 0.000835276
22 *303:21 *313:35 8.51007e-06
23 *303:21 *337:47 0.000649347
24 *134:21 *303:17 0.00632492
25 *283:13 *303:13 4.5051e-05
26 *283:37 *303:21 0.000162608
27 *283:47 *303:21 0.0162955
*RES
1 *739:la_data_out_o[12] *303:11 25.2535 
2 *303:11 *303:13 125.446 
3 *303:13 *303:15 15 
4 *303:15 *303:17 862.719 
5 *303:17 *303:21 44.8928 
6 *303:21 la_data_out[12] 25.6796 
*END

*D_NET *304 0.187712
*CONN
*P la_data_out[13] O
*I *739:la_data_out_o[13] O *D ntt_wb_bridge
*CAP
1 la_data_out[13] 0.000708014
2 *739:la_data_out_o[13] 0.00026034
3 *304:35 0.00567466
4 *304:31 0.00567344
5 *304:25 0.0239791
6 *304:23 0.0245396
7 *304:19 0.00148096
8 *304:13 0.00270017
9 *304:11 0.00274687
10 *304:11 *310:17 7.37353e-05
11 *304:13 *305:13 0.000465435
12 *304:13 *306:13 0.0114302
13 *304:13 *310:17 0.0017536
14 *304:13 *311:15 0.000160236
15 *304:13 *314:13 0.000104089
16 *304:13 *329:13 0.000366854
17 *304:19 *338:31 0.000332464
18 *304:23 *337:39 0.0016023
19 *304:23 *337:41 0.000805339
20 *304:23 *338:31 2.03086e-05
21 *304:25 *337:41 0.062501
22 *304:31 *337:41 0.000673308
23 *304:31 *338:39 0
24 *304:35 *307:31 0.0110276
25 *304:35 *313:35 0.00147613
26 *97:19 *304:25 0.0049259
27 *272:37 *304:35 0.000742671
28 *272:41 *304:35 0.00152683
29 *272:49 *304:35 0.00448817
30 *283:47 *304:35 0.00255661
31 *294:47 *304:31 0
32 *294:51 *304:35 0.00136108
33 *303:13 *304:13 0.0113727
34 *303:21 *304:35 0.000182619
*RES
1 *739:la_data_out_o[13] *304:11 25.0096 
2 *304:11 *304:13 139.739 
3 *304:13 *304:19 20.1682 
4 *304:19 *304:23 41.8221 
5 *304:23 *304:25 800.545 
6 *304:25 *304:31 27.2436 
7 *304:31 *304:35 40.1701 
8 *304:35 la_data_out[13] 15.5668 
*END

*D_NET *305 0.138898
*CONN
*P la_data_out[14] O
*I *739:la_data_out_o[14] O *D ntt_wb_bridge
*CAP
1 la_data_out[14] 0.00222671
2 *739:la_data_out_o[14] 0.000249942
3 *305:25 0.0410792
4 *305:23 0.0388525
5 *305:21 0.00348904
6 *305:13 0.00579946
7 *305:11 0.00256036
8 la_data_out[14] *306:27 0.00128109
9 *305:11 *310:17 0.000102246
10 *305:13 *306:13 0.0120774
11 *305:13 *307:13 0.000762059
12 *305:13 *309:13 0.0115199
13 *305:13 *310:17 0.000935165
14 *305:13 *310:31 0.00022031
15 *305:13 *388:21 0.000107542
16 *305:13 *399:19 0.000120607
17 *305:21 *310:31 0.00684743
18 *305:21 *314:13 0.00170178
19 *305:21 *332:11 2.11066e-05
20 *305:21 *339:35 2.33476e-05
21 *305:21 *344:29 0.00162982
22 *305:21 *377:27 0.00596364
23 *80:63 *305:25 0
24 *303:21 la_data_out[14] 0.000861915
25 *304:13 *305:13 0.000465435
*RES
1 *739:la_data_out_o[14] *305:11 24.4136 
2 *305:11 *305:13 143.074 
3 *305:13 *305:21 47.248 
4 *305:21 *305:23 8 
5 *305:23 *305:25 860.078 
6 *305:25 la_data_out[14] 40.8973 
*END

*D_NET *306 0.223684
*CONN
*P la_data_out[15] O
*I *739:la_data_out_o[15] O *D ntt_wb_bridge
*CAP
1 la_data_out[15] 0.000863767
2 *739:la_data_out_o[15] 0.000318364
3 *306:27 0.00702266
4 *306:17 0.0178612
5 *306:15 0.0117023
6 *306:13 0.00211235
7 *306:11 0.00243071
8 *306:11 *310:17 0.000130757
9 *306:13 *309:13 0.000366346
10 *306:13 *310:17 0.00130014
11 *306:13 *310:31 0.000104089
12 *306:13 *329:13 0.00051024
13 *306:13 *399:19 0.000110331
14 *306:17 *329:17 0.0671276
15 *306:17 *341:55 0.0418985
16 *306:17 *350:31 0
17 *306:27 *334:27 0.000615303
18 *306:27 *337:47 4.58701e-06
19 la_data_out[14] *306:27 0.00128109
20 *126:25 *306:17 0.0112623
21 *283:17 *306:17 0.0235982
22 *283:25 *306:17 0.000103953
23 *303:21 *306:27 0.00945156
24 *304:13 *306:13 0.0114302
25 *305:13 *306:13 0.0120774
*RES
1 *739:la_data_out_o[15] *306:11 24.874 
2 *306:11 *306:13 140.215 
3 *306:13 *306:15 15 
4 *306:15 *306:17 860.606 
5 *306:17 *306:27 44.3733 
6 *306:27 la_data_out[15] 18.3839 
*END

*D_NET *307 0.144625
*CONN
*P la_data_out[16] O
*I *739:la_data_out_o[16] O *D ntt_wb_bridge
*CAP
1 la_data_out[16] 0.000750225
2 *739:la_data_out_o[16] 0.000166139
3 *307:31 0.00328921
4 *307:25 0.0414834
5 *307:23 0.0392296
6 *307:13 0.00305905
7 *307:11 0.00294009
8 *307:11 *310:17 9.14318e-05
9 *307:13 *309:13 0.0132386
10 *307:13 *310:17 0.000330248
11 *307:13 *310:31 0.000104089
12 *307:13 *313:13 0.0131826
13 *307:13 *388:21 0.000100317
14 *307:13 *399:19 0.000111633
15 *307:23 *310:31 0.001046
16 *307:23 *332:11 7.23207e-05
17 *307:23 *339:35 7.45617e-05
18 *307:23 *344:29 0.00104894
19 *129:19 *307:25 0.00203132
20 *272:37 *307:31 0.000325128
21 *283:47 *307:31 0.00932542
22 *294:47 *307:25 0
23 *303:21 *307:31 0.000835276
24 *304:35 *307:31 0.0110276
25 *305:13 *307:13 0.000762059
*RES
1 *739:la_data_out_o[16] *307:11 23.6683 
2 *307:11 *307:13 158.796 
3 *307:13 *307:23 34.0563 
4 *307:23 *307:25 861.486 
5 *307:25 *307:31 37.0933 
6 *307:31 la_data_out[16] 16.2711 
*END

*D_NET *308 0.134705
*CONN
*P la_data_out[17] O
*I *739:la_data_out_o[17] O *D ntt_wb_bridge
*CAP
1 la_data_out[17] 0.039954
2 *739:la_data_out_o[17] 0.00070896
3 *308:15 0.039954
4 *308:13 0.00662168
5 *308:11 0.00733064
6 *308:11 *310:17 0.000174744
7 *308:13 *312:13 0.0213214
8 *308:13 *314:13 0.000119542
9 *308:13 *331:13 0.0155709
10 *308:13 *332:7 0.00022054
11 *308:13 *333:15 0
12 *308:13 *377:27 0.00272876
*RES
1 *739:la_data_out_o[17] *308:11 21.7881 
2 *308:11 *308:13 49.3435 
3 *308:13 *308:15 8 
4 *308:15 la_data_out[17] 883.247 
*END

*D_NET *309 0.215774
*CONN
*P la_data_out[18] O
*I *739:la_data_out_o[18] O *D ntt_wb_bridge
*CAP
1 la_data_out[18] 0.000565333
2 *739:la_data_out_o[18] 0.000330712
3 *309:45 0.00416199
4 *309:37 0.0048555
5 *309:29 0.011942
6 *309:27 0.0108138
7 *309:21 0.000710116
8 *309:13 0.00294509
9 *309:11 0.00269623
10 *309:11 *310:17 0.00021629
11 *309:13 *310:17 0.000484743
12 *309:13 *310:31 0.00022031
13 *309:13 *313:13 0.000672749
14 *309:13 *329:13 0.000217366
15 *309:13 *377:13 0.000102752
16 *309:13 *388:21 0.000115816
17 *309:13 *399:19 0.000128881
18 *309:21 *313:23 0.000833875
19 *309:21 *313:25 4.48642e-05
20 *309:21 *320:23 0
21 *309:21 *351:33 0.000938912
22 *309:29 *313:25 0.0641417
23 *309:29 *313:35 2.22077e-05
24 *309:29 *330:21 0.0641963
25 *309:37 *313:35 0.00105127
26 *309:37 *319:23 0.000446252
27 *309:37 *321:23 0.000486965
28 *309:37 *326:33 3.29148e-06
29 *309:37 *330:21 0.000500742
30 *309:45 la_data_out[23] 2.50873e-05
31 *309:45 *313:35 0.000339182
32 *309:45 *332:11 0.00043193
33 *309:45 *336:23 0.000225999
34 *309:45 *338:39 2.17802e-05
35 *272:25 *309:21 0.000177502
36 *272:25 *309:29 0.000258641
37 *272:25 *309:37 0.000120999
38 *294:29 *309:29 0.0072615
39 *294:47 *309:37 0
40 *294:51 *309:45 0.00794085
41 *305:13 *309:13 0.0115199
42 *306:13 *309:13 0.000366346
43 *307:13 *309:13 0.0132386
*RES
1 *739:la_data_out_o[18] *309:11 24.4945 
2 *309:11 *309:13 154.984 
3 *309:13 *309:21 39.8571 
4 *309:21 *309:27 32.0507 
5 *309:27 *309:29 822.222 
6 *309:29 *309:37 47.4489 
7 *309:37 *309:45 46.1162 
8 *309:45 la_data_out[18] 20.7496 
*END

*D_NET *310 0.140884
*CONN
*P la_data_out[19] O
*I *739:la_data_out_o[19] O *D ntt_wb_bridge
*CAP
1 la_data_out[19] 0.0397265
2 *739:la_data_out_o[19] 0.00727155
3 *310:31 0.0439925
4 *310:17 0.0115376
5 *310:17 *311:15 0.000646134
6 *310:17 *313:13 0.000104572
7 *310:17 *314:13 0.0135336
8 *310:17 *322:11 9.05669e-05
9 *310:17 *333:13 0.000282941
10 *310:17 *344:19 0.000342616
11 *310:17 *355:13 0.000132725
12 *310:17 *366:21 0.000461965
13 *310:17 *377:13 0.00049394
14 *310:17 *388:21 0.000581315
15 *310:17 *399:19 0.00064099
16 *310:31 *311:15 7.15092e-05
17 *310:31 *314:13 0.00169566
18 *310:31 *327:25 1.15439e-05
19 *310:31 *344:27 8.88331e-05
20 *310:31 *344:29 0.0034681
21 *272:13 *310:31 1.22804e-05
22 *283:11 *310:17 0.000163422
23 *294:11 *310:17 4.3258e-05
24 *303:11 *310:17 4.52243e-05
25 *303:13 *310:17 0.00130985
26 *304:11 *310:17 7.37353e-05
27 *304:13 *310:17 0.0017536
28 *305:11 *310:17 0.000102246
29 *305:13 *310:17 0.000935165
30 *305:13 *310:31 0.00022031
31 *305:21 *310:31 0.00684743
32 *306:11 *310:17 0.000130757
33 *306:13 *310:17 0.00130014
34 *306:13 *310:31 0.000104089
35 *307:11 *310:17 9.14318e-05
36 *307:13 *310:17 0.000330248
37 *307:13 *310:31 0.000104089
38 *307:23 *310:31 0.001046
39 *308:11 *310:17 0.000174744
40 *309:11 *310:17 0.00021629
41 *309:13 *310:17 0.000484743
42 *309:13 *310:31 0.00022031
*RES
1 *739:la_data_out_o[19] *310:17 45.3544 
2 *310:17 *310:31 45.361 
3 *310:31 la_data_out[19] 878.317 
*END

*D_NET *311 0.14148
*CONN
*P la_data_out[1] O
*I *739:la_data_out_o[1] O *D ntt_wb_bridge
*CAP
1 la_data_out[1] 0.0388058
2 *739:la_data_out_o[1] 0.000802627
3 *311:25 0.0388058
4 *311:23 0.018191
5 *311:21 0.0182394
6 *311:15 0.000851
7 *311:15 *314:13 0.00090996
8 *311:15 *322:17 0.00124811
9 *311:15 *337:29 0.00125044
10 *311:21 *322:17 0.000102392
11 *311:21 *342:31 2.53025e-05
12 *311:23 *322:21 0
13 *311:23 *327:25 2.24267e-05
14 *311:23 *337:39 0.00216355
15 *311:23 *344:27 1.36431e-05
16 *311:23 *344:29 0.0170775
17 *118:89 la_data_out[1] 0.00188651
18 *272:13 *311:15 3.80368e-05
19 *303:13 *311:15 0.000168797
20 *304:13 *311:15 0.000160236
21 *310:17 *311:15 0.000646134
22 *310:31 *311:15 7.15092e-05
*RES
1 *739:la_data_out_o[1] *311:15 41.5757 
2 *311:15 *311:21 24.3775 
3 *311:21 *311:23 76.6491 
4 *311:23 *311:25 8 
5 *311:25 la_data_out[1] 875.5 
*END

*D_NET *312 0.132163
*CONN
*P la_data_out[20] O
*I *739:la_data_out_o[20] O *D ntt_wb_bridge
*CAP
1 la_data_out[20] 0.040017
2 *739:la_data_out_o[20] 0.00067718
3 *312:15 0.040017
4 *312:13 0.00632211
5 *312:11 0.00699929
6 *312:11 *313:13 0.000101032
7 *312:11 *314:13 0.000128231
8 *312:13 *326:15 0.00137668
9 *312:13 *328:15 0.00269753
10 *312:13 *331:13 0.00113905
11 *312:13 *333:15 0.00113509
12 *312:13 *337:17 0.00255022
13 *312:13 *344:19 0.00415466
14 *312:13 *377:17 0.000547998
15 *312:13 *377:19 0.000530809
16 *312:13 *388:21 0.00244732
17 *308:13 *312:13 0.0213214
*RES
1 *739:la_data_out_o[20] *312:11 22.6454 
2 *312:11 *312:13 43.5045 
3 *312:13 *312:15 8 
4 *312:15 la_data_out[20] 883.951 
*END

*D_NET *313 0.204741
*CONN
*P la_data_out[21] O
*I *739:la_data_out_o[21] O *D ntt_wb_bridge
*CAP
1 la_data_out[21] 0.000649754
2 *739:la_data_out_o[21] 0.00027693
3 *313:35 0.00284167
4 *313:25 0.0129989
5 *313:23 0.0113005
6 *313:13 0.00307644
7 *313:11 0.00285985
8 *313:11 *314:13 0.000174387
9 *313:11 *330:13 0.000227452
10 *313:13 *329:13 0
11 *313:13 *330:13 0.0163545
12 *313:23 *320:23 1.47955e-05
13 *313:23 *330:19 0.000551445
14 *313:25 *330:19 0.000121941
15 *313:25 *330:21 1.42282e-05
16 *313:25 *342:47 0.000606426
17 *313:25 *351:35 0.0627525
18 *313:35 *330:21 4.75904e-05
19 *313:35 *331:21 0.0012117
20 *313:35 *332:15 0.00161827
21 *313:35 *335:23 0
22 *313:35 *335:33 2.05503e-05
23 *313:35 *337:47 5.13351e-05
24 *313:35 *338:43 0.000259909
25 *313:35 *342:47 0.000205685
26 *272:13 *313:13 2.02872e-05
27 *272:23 *313:23 0.000531667
28 *272:25 *313:25 0.00110776
29 *272:25 *313:35 0.000138759
30 *294:39 *313:35 0
31 *294:51 *313:35 0.00272725
32 *303:21 *313:35 8.51007e-06
33 *304:35 *313:35 0.00147613
34 *307:13 *313:13 0.0131826
35 *309:13 *313:13 0.000672749
36 *309:21 *313:23 0.000833875
37 *309:21 *313:25 4.48642e-05
38 *309:29 *313:25 0.0641417
39 *309:29 *313:35 2.22077e-05
40 *309:37 *313:35 0.00105127
41 *309:45 *313:35 0.000339182
42 *310:17 *313:13 0.000104572
43 *312:11 *313:13 0.000101032
*RES
1 *739:la_data_out_o[21] *313:11 24.4672 
2 *313:11 *313:13 175.471 
3 *313:13 *313:23 37.8375 
4 *313:23 *313:25 823.455 
5 *313:25 *313:35 46.0736 
6 *313:35 la_data_out[21] 14.1582 
*END

*D_NET *314 0.134936
*CONN
*P la_data_out[22] O
*I *739:la_data_out_o[22] O *D ntt_wb_bridge
*CAP
1 la_data_out[22] 0.0398186
2 *739:la_data_out_o[22] 0.0054694
3 *314:13 0.045288
4 *314:13 *329:13 0.00366909
5 *314:13 *332:7 0.000107521
6 *314:13 *334:19 0.019602
7 *314:13 *377:27 0.00102129
8 *283:13 *314:13 0.0013706
9 *303:13 *314:13 0.000222074
10 *304:13 *314:13 0.000104089
11 *305:21 *314:13 0.00170178
12 *308:13 *314:13 0.000119542
13 *310:17 *314:13 0.0135336
14 *310:31 *314:13 0.00169566
15 *311:15 *314:13 0.00090996
16 *312:11 *314:13 0.000128231
17 *313:11 *314:13 0.000174387
*RES
1 *739:la_data_out_o[22] *314:13 49.0853 
2 *314:13 la_data_out[22] 879.725 
*END

*D_NET *315 0.160626
*CONN
*P la_data_out[23] O
*I *739:la_data_out_o[23] O *D ntt_wb_bridge
*CAP
1 la_data_out[23] 0.0265813
2 *739:la_data_out_o[23] 0.00103201
3 *315:25 0.0275718
4 *315:15 0.00446287
5 *315:13 0.00450431
6 la_data_out[23] *331:17 0
7 la_data_out[23] *332:11 0.0677331
8 la_data_out[23] *336:21 0
9 la_data_out[23] *339:35 0.000258717
10 la_data_out[23] *340:35 0
11 la_data_out[23] *346:37 0
12 la_data_out[23] *689:29 1.02219e-05
13 la_data_out[23] *729:21 0.00028831
14 *315:13 *316:17 0
15 *315:13 *334:19 5.65882e-05
16 *315:15 *335:15 0.00159911
17 *315:15 *340:33 0.000961448
18 *315:15 *342:29 0.000280429
19 *315:15 *351:23 0.0170868
20 *315:15 *737:34 0.00418203
21 *315:25 *338:25 0.00296367
22 *315:25 *343:27 4.70939e-05
23 *315:25 *726:23 0.000353511
24 *315:25 *736:23 0.000304797
25 *134:21 la_data_out[23] 0.000322499
26 *303:17 la_data_out[23] 0
27 *309:45 la_data_out[23] 2.50873e-05
*RES
1 *739:la_data_out_o[23] *315:13 36.8618 
2 *315:13 *315:15 182.617 
3 *315:15 *315:25 39.0713 
4 *315:25 la_data_out[23] 895.924 
*END

*D_NET *316 0.214712
*CONN
*P la_data_out[24] O
*I *739:la_data_out_o[24] O *D ntt_wb_bridge
*CAP
1 la_data_out[24] 0.0114111
2 *739:la_data_out_o[24] 0.000721271
3 *316:33 0.0119312
4 *316:25 0.00143269
5 *316:19 0.00318633
6 *316:17 0.00299503
7 la_data_out[24] *323:21 2.22077e-05
8 la_data_out[24] *323:23 0.0660581
9 la_data_out[24] *325:29 1.09111e-05
10 la_data_out[24] *328:23 0.0657754
11 la_data_out[24] *330:21 2.5858e-05
12 *316:17 *334:19 7.53387e-05
13 *316:19 *317:15 0.0177106
14 *316:19 *341:23 0.00218961
15 *316:19 *355:15 0.00432339
16 *316:19 *366:21 0.000816621
17 *316:19 *399:19 0.000328165
18 *316:19 *689:31 0
19 *316:19 *728:15 0.013232
20 *316:25 *355:21 0.00128921
21 *316:33 *323:21 0.000834975
22 *316:33 *327:27 0.000114902
23 *316:33 *328:23 0.000424578
24 *316:33 *355:37 0.000662627
25 *135:18 la_data_out[24] 0.00347634
26 *272:25 la_data_out[24] 0.00257105
27 *294:29 la_data_out[24] 0.00309258
28 *315:13 *316:17 0
*RES
1 *739:la_data_out_o[24] *316:17 32.1521 
2 *316:17 *316:19 193.575 
3 *316:19 *316:25 48.4564 
4 *316:25 *316:33 34.8754 
5 *316:33 la_data_out[24] 860.005 
*END

*D_NET *317 0.217564
*CONN
*P la_data_out[25] O
*I *739:la_data_out_o[25] O *D ntt_wb_bridge
*CAP
1 la_data_out[25] 0.000765491
2 *739:la_data_out_o[25] 0.000707786
3 *317:31 0.00114355
4 *317:27 0.00145229
5 *317:25 0.00117444
6 *317:19 0.0108039
7 *317:17 0.0107037
8 *317:15 0.00289986
9 *317:13 0.00360765
10 *317:13 *334:19 0.000175938
11 *317:15 *318:15 0.0198287
12 *317:15 *341:23 0.00265812
13 *317:15 *366:21 0.000928006
14 *317:15 *399:19 0.000370573
15 *317:15 *689:31 0
16 *317:15 *728:15 0.0003421
17 *317:19 *318:19 0.0647549
18 *317:19 *319:19 2.72763e-05
19 *317:19 *321:19 0.0646588
20 *317:19 *335:21 6.12496e-06
21 *317:19 *335:23 0
22 *317:19 *388:25 0.000461041
23 *317:27 *318:19 0.00317845
24 *317:27 *329:17 0.00320991
25 *317:31 *318:23 0.00245255
26 *317:31 *329:21 0.000187767
27 *317:31 *330:27 0.00179222
28 *317:31 *338:43 0.000218381
29 *80:41 *317:25 0.000107247
30 *272:37 *317:31 0.00036859
31 *283:25 *317:19 0.000695788
32 *283:25 *317:27 0.000150324
33 *294:47 *317:31 2.19403e-05
34 *316:19 *317:15 0.0177106
*RES
1 *739:la_data_out_o[25] *317:13 31.7962 
2 *317:13 *317:15 216.92 
3 *317:15 *317:17 15 
4 *317:17 *317:19 829.265 
5 *317:19 *317:25 16.2277 
6 *317:25 *317:27 43.2825 
7 *317:27 *317:31 41.825 
8 *317:31 la_data_out[25] 31.095 
*END

*D_NET *318 0.229259
*CONN
*P la_data_out[26] O
*I *739:la_data_out_o[26] O *D ntt_wb_bridge
*CAP
1 la_data_out[26] 0.000766112
2 *739:la_data_out_o[26] 0.000700946
3 *318:23 0.00143894
4 *318:21 0.000672823
5 *318:19 0.0117677
6 *318:17 0.0117677
7 *318:15 0.0027924
8 *318:13 0.00349335
9 la_data_out[26] *329:27 7.98243e-05
10 *318:13 *334:19 0.000235613
11 *318:15 *319:15 0.000234106
12 *318:15 *320:15 0.0199544
13 *318:15 *321:15 8.06804e-06
14 *318:15 *333:15 0.000631793
15 *318:15 *339:15 0.0027448
16 *318:15 *366:21 0.000356243
17 *318:15 *728:15 0.000259389
18 *318:19 *321:19 1.16209e-05
19 *318:19 *326:19 0.0645054
20 *318:19 *326:29 0.00306739
21 *318:19 *329:17 1.60583e-05
22 *318:19 *350:31 0
23 *318:19 *388:25 0.000520376
24 *318:23 *326:33 0.000144695
25 *318:23 *328:27 0.00348795
26 *318:23 *330:27 0.000970746
27 *318:23 *336:35 0.000240364
28 *318:23 *337:49 0.000495992
29 *283:25 *318:19 0.00740026
30 *294:47 *318:23 0.000279227
31 *317:15 *318:15 0.0198287
32 *317:19 *318:19 0.0647549
33 *317:27 *318:19 0.00317845
34 *317:31 *318:23 0.00245255
*RES
1 *739:la_data_out_o[26] *318:13 31.5523 
2 *318:13 *318:15 224.543 
3 *318:15 *318:17 15 
4 *318:17 *318:19 871.699 
5 *318:19 *318:21 15 
6 *318:21 *318:23 44.9293 
7 *318:23 la_data_out[26] 31.4471 
*END

*D_NET *319 0.224352
*CONN
*P la_data_out[27] O
*I *739:la_data_out_o[27] O *D ntt_wb_bridge
*CAP
1 la_data_out[27] 0.00103811
2 *739:la_data_out_o[27] 0.000663437
3 *319:23 0.00302008
4 *319:21 0.00198197
5 *319:19 0.0115664
6 *319:17 0.0115664
7 *319:15 0.00280832
8 *319:13 0.00347176
9 *319:13 *334:19 0.000295287
10 *319:15 *320:15 0.0206065
11 *319:15 *321:15 0.000378173
12 *319:15 *323:15 0.0203451
13 *319:15 *333:15 0.000642728
14 *319:15 *337:17 0.00339653
15 *319:19 *321:19 0.0676033
16 *319:19 *324:19 0.0675505
17 *319:19 *335:23 4.6884e-05
18 *319:19 *388:25 0.000359763
19 *319:23 *320:35 0.00504841
20 *319:23 *321:23 0.000123137
21 *319:23 *334:27 0.000738562
22 *319:23 *350:35 0
23 *283:25 *319:19 0.00039345
24 *309:37 *319:23 0.000446252
25 *317:19 *319:19 2.72763e-05
26 *318:15 *319:15 0.000234106
*RES
1 *739:la_data_out_o[27] *319:13 30.9563 
2 *319:13 *319:15 230.26 
3 *319:15 *319:17 15 
4 *319:17 *319:19 867.825 
5 *319:19 *319:21 15 
6 *319:21 *319:23 61.6043 
7 *319:23 la_data_out[27] 34.6164 
*END

*D_NET *320 0.236569
*CONN
*P la_data_out[28] O
*I *739:la_data_out_o[28] O *D ntt_wb_bridge
*CAP
1 la_data_out[28] 0.00101274
2 *739:la_data_out_o[28] 0.00070822
3 *320:35 0.00220317
4 *320:33 0.00119043
5 *320:31 0.00990674
6 *320:29 0.0100681
7 *320:23 0.00111204
8 *320:15 0.00381586
9 *320:13 0.00357341
10 *320:13 *334:19 0.000354962
11 *320:15 *323:15 0.000366854
12 *320:15 *333:15 0.000791205
13 *320:15 *339:15 0.00347545
14 *320:15 *366:21 0.000350014
15 *320:15 *728:15 0.000393603
16 *320:23 *323:21 0
17 *320:23 *328:21 0.00012516
18 *320:23 *328:23 0.00141353
19 *320:23 *330:19 0.00147796
20 *320:23 *351:29 7.16032e-05
21 *320:23 *351:33 0
22 *320:31 *323:23 0.065967
23 *320:31 *325:19 0.064932
24 *320:31 *325:29 0.000897439
25 *320:31 *327:27 0.00344693
26 *320:35 *321:23 0.00678779
27 *320:35 *334:27 0.00112595
28 *84:19 *320:31 9.02578e-05
29 *135:18 *320:31 0.00271269
30 *272:25 *320:23 0.000120804
31 *294:29 *320:31 0.00245285
32 *309:21 *320:23 0
33 *313:23 *320:23 1.47955e-05
34 *318:15 *320:15 0.0199544
35 *319:15 *320:15 0.0206065
36 *319:23 *320:35 0.00504841
*RES
1 *739:la_data_out_o[28] *320:13 31.4167 
2 *320:13 *320:15 232.642 
3 *320:15 *320:23 45.2636 
4 *320:23 *320:29 32.0507 
5 *320:29 *320:31 839.654 
6 *320:31 *320:33 15 
7 *320:33 *320:35 72.5621 
8 *320:35 la_data_out[28] 34.2643 
*END

*D_NET *321 0.238867
*CONN
*P la_data_out[29] O
*I *739:la_data_out_o[29] O *D ntt_wb_bridge
*CAP
1 la_data_out[29] 0.000997891
2 *739:la_data_out_o[29] 0.000660465
3 *321:23 0.00264737
4 *321:21 0.00164948
5 *321:19 0.0115711
6 *321:17 0.0115711
7 *321:15 0.00307025
8 *321:13 0.00373072
9 *321:13 *334:19 0.000414637
10 *321:15 *323:15 0.0216418
11 *321:15 *324:15 0.000373697
12 *321:15 *325:15 0.0215989
13 *321:15 *326:15 1.61361e-05
14 *321:15 *337:17 0.0036692
15 *321:15 *388:21 0.0008183
16 *321:19 *324:19 2.26559e-05
17 *321:19 *326:29 0.00296436
18 *321:19 *388:25 0.00039609
19 *321:23 *323:27 0.0085222
20 *321:23 *324:23 0.000318444
21 *321:23 *326:33 2.19667e-05
22 *321:23 *334:27 0.00159626
23 *283:25 *321:19 0.000535858
24 *309:37 *321:23 0.000486965
25 *317:19 *321:19 0.0646588
26 *318:15 *321:15 8.06804e-06
27 *318:19 *321:19 1.16209e-05
28 *319:15 *321:15 0.000378173
29 *319:19 *321:19 0.0676033
30 *319:23 *321:23 0.000123137
31 *320:35 *321:23 0.00678779
*RES
1 *739:la_data_out_o[29] *321:13 30.4686 
2 *321:13 *321:15 245.029 
3 *321:15 *321:17 15 
4 *321:17 *321:19 867.825 
5 *321:19 *321:21 15 
6 *321:21 *321:23 98.7657 
7 *321:23 la_data_out[29] 33.9121 
*END

*D_NET *322 0.152365
*CONN
*P la_data_out[2] O
*I *739:la_data_out_o[2] O *D ntt_wb_bridge
*CAP
1 la_data_out[2] 0.0400107
2 *739:la_data_out_o[2] 0.000355927
3 *322:23 0.0400107
4 *322:21 0.0155552
5 *322:19 0.0155552
6 *322:17 0.000612873
7 *322:11 0.0009688
8 *322:17 *325:19 0.000457654
9 *322:17 *327:25 5.75985e-06
10 *322:17 *330:13 0.000622214
11 *322:17 *337:29 0.000670483
12 *322:17 *342:31 0
13 *322:21 *337:39 0.000342588
14 *322:21 *355:37 0.000338791
15 *322:21 *355:39 0.0336724
16 *80:95 la_data_out[2] 0.000320683
17 *272:13 *322:17 0.00133208
18 *272:23 *322:21 9.22111e-05
19 *310:17 *322:11 9.05669e-05
20 *311:15 *322:17 0.00124811
21 *311:21 *322:17 0.000102392
22 *311:23 *322:21 0
*RES
1 *739:la_data_out_o[2] *322:11 24.1275 
2 *322:11 *322:17 47.3039 
3 *322:17 *322:19 8 
4 *322:19 *322:21 73.2144 
5 *322:21 *322:23 8 
6 *322:23 la_data_out[2] 871.274 
*END

*D_NET *323 0.247684
*CONN
*P la_data_out[30] O
*I *739:la_data_out_o[30] O *D ntt_wb_bridge
*CAP
1 la_data_out[30] 0.00096105
2 *739:la_data_out_o[30] 0.000696096
3 *323:27 0.00260223
4 *323:25 0.00164118
5 *323:23 0.00993369
6 *323:21 0.0106636
7 *323:15 0.00393633
8 *323:13 0.00390252
9 *323:13 *334:19 0.000474312
10 *323:15 *325:15 0.000366854
11 *323:15 *333:15 0.000374561
12 *323:15 *337:17 0.00420828
13 *323:15 *339:15 0.000124457
14 *323:15 *728:15 0
15 *323:21 *325:19 0.00202244
16 *323:21 *327:27 0.000135169
17 *323:21 *328:21 0.000560307
18 *323:21 *328:23 0.000103388
19 *323:21 *337:29 0.000126959
20 *323:21 *342:31 0
21 *323:23 *325:19 1.42282e-05
22 *323:23 *325:29 2.06927e-05
23 *323:23 *327:27 0.0031308
24 *323:27 *324:23 0.0102633
25 *323:27 *334:27 0.00222348
26 la_data_out[24] *323:21 2.22077e-05
27 la_data_out[24] *323:23 0.0660581
28 *135:18 *323:23 0.0029866
29 *294:29 *323:23 0.00245285
30 *316:33 *323:21 0.000834975
31 *319:15 *323:15 0.0203451
32 *320:15 *323:15 0.000366854
33 *320:23 *323:21 0
34 *320:31 *323:23 0.065967
35 *321:15 *323:15 0.0216418
36 *321:23 *323:27 0.0085222
*RES
1 *739:la_data_out_o[30] *323:13 30.929 
2 *323:13 *323:15 244.076 
3 *323:15 *323:21 43.4096 
4 *323:21 *323:23 840.886 
5 *323:23 *323:25 15 
6 *323:25 *323:27 109.724 
7 *323:27 la_data_out[30] 33.56 
*END

*D_NET *324 0.249039
*CONN
*P la_data_out[31] O
*I *739:la_data_out_o[31] O *D ntt_wb_bridge
*CAP
1 la_data_out[31] 0.000939949
2 *739:la_data_out_o[31] 0.000559826
3 *324:23 0.00301386
4 *324:21 0.00207391
5 *324:19 0.0115826
6 *324:17 0.0115826
7 *324:15 0.00325178
8 *324:13 0.00381161
9 *324:13 *325:13 0
10 *324:13 *334:19 0.000297345
11 *324:15 *325:15 0.0231153
12 *324:15 *326:15 0.000468256
13 *324:15 *327:15 0.0229414
14 *324:15 *337:13 0.000128728
15 *324:15 *337:17 0.00247797
16 *324:15 *388:21 0.00123541
17 *324:19 *326:29 1.39398e-05
18 *324:19 *335:23 0.0676461
19 *324:19 *366:25 0.000141169
20 *324:19 *388:25 0.000204593
21 *324:23 *325:31 0.0119132
22 *324:23 *326:33 0.000178318
23 *324:23 *335:33 0.000354393
24 *324:23 *335:35 0.00225557
25 *283:25 *324:19 0.000322499
26 *319:19 *324:19 0.0675505
27 *321:15 *324:15 0.000373697
28 *321:19 *324:19 2.26559e-05
29 *321:23 *324:23 0.000318444
30 *323:27 *324:23 0.0102633
*RES
1 *739:la_data_out_o[31] *324:13 29.5515 
2 *324:13 *324:15 260.751 
3 *324:15 *324:17 15 
4 *324:17 *324:19 867.825 
5 *324:19 *324:21 15 
6 *324:21 *324:23 134.974 
7 *324:23 la_data_out[31] 33.2079 
*END

*D_NET *325 0.226548
*CONN
*P la_data_out[32] O
*I *739:la_data_out_o[32] O *D ntt_wb_bridge
*CAP
1 la_data_out[32] 0.000909279
2 *739:la_data_out_o[32] 0.000642498
3 *325:31 0.00296724
4 *325:29 0.00258784
5 *325:19 0.0133596
6 *325:17 0.0128297
7 *325:15 0.00338405
8 *325:13 0.00402655
9 *325:13 *329:13 0.000107542
10 *325:13 *334:19 0.000593662
11 *325:15 *327:15 0.000243083
12 *325:15 *337:17 0.00317815
13 *325:15 *339:15 0.000196487
14 *325:15 *388:21 0.00103331
15 *325:15 *728:15 0
16 *325:19 *327:25 0
17 *325:19 *327:35 0.0221355
18 *325:19 *342:31 0
19 *325:19 *342:35 0.0105624
20 *325:19 *344:19 0.000108573
21 *325:19 *355:37 2.26497e-05
22 *325:29 *327:35 0.000654219
23 *325:31 *326:33 0.0136087
24 *325:31 *335:35 0.00297465
25 la_data_out[24] *325:29 1.09111e-05
26 *82:19 *325:19 0.000229733
27 *84:19 *325:29 8.81675e-05
28 *86:27 *325:19 7.80302e-05
29 *294:29 *325:19 0.00467636
30 *320:31 *325:19 0.064932
31 *320:31 *325:29 0.000897439
32 *321:15 *325:15 0.0215989
33 *322:17 *325:19 0.000457654
34 *323:15 *325:15 0.000366854
35 *323:21 *325:19 0.00202244
36 *323:23 *325:19 1.42282e-05
37 *323:23 *325:29 2.06927e-05
38 *324:13 *325:13 0
39 *324:15 *325:15 0.0231153
40 *324:23 *325:31 0.0119132
*RES
1 *739:la_data_out_o[32] *325:13 30.4412 
2 *325:13 *325:15 257.893 
3 *325:15 *325:17 15 
4 *325:17 *325:19 853.211 
5 *325:19 *325:29 31.8511 
6 *325:29 *325:31 145.456 
7 *325:31 la_data_out[32] 32.8557 
*END

*D_NET *326 0.260596
*CONN
*P la_data_out[33] O
*I *739:la_data_out_o[33] O *D ntt_wb_bridge
*CAP
1 la_data_out[33] 0.000878609
2 *739:la_data_out_o[33] 0.000589748
3 *326:33 0.00343268
4 *326:31 0.00255407
5 *326:29 0.000983538
6 *326:27 0.00113014
7 *326:19 0.0108317
8 *326:17 0.0106851
9 *326:15 0.00360678
10 *326:13 0.00419653
11 *326:13 *329:13 0.000120607
12 *326:13 *334:19 0.000653336
13 *326:15 *327:15 0.0240231
14 *326:15 *328:15 0.0242683
15 *326:15 *337:13 0.000407698
16 *326:15 *337:17 0.000342035
17 *326:15 *344:19 0.000623098
18 *326:15 *377:19 0.000284623
19 *326:15 *388:21 0.00025876
20 *326:19 *329:17 0.0641719
21 *326:19 *350:31 0
22 *326:19 *388:25 0.000161888
23 *326:29 *335:23 0
24 *326:33 *327:39 0.0152532
25 *326:33 *328:27 0.000142275
26 *326:33 *335:33 0.000359378
27 *326:33 *336:37 0.00271383
28 *326:33 *337:47 0.000185017
29 *126:25 *326:19 0.00110494
30 *283:17 *326:19 4.94766e-06
31 *283:25 *326:29 0.000129601
32 *294:47 *326:33 0.00012959
33 *309:37 *326:33 3.29148e-06
34 *312:13 *326:15 0.00137668
35 *318:19 *326:19 0.0645054
36 *318:19 *326:29 0.00306739
37 *318:23 *326:33 0.000144695
38 *321:15 *326:15 1.61361e-05
39 *321:19 *326:29 0.00296436
40 *321:23 *326:33 2.19667e-05
41 *324:15 *326:15 0.000468256
42 *324:19 *326:29 1.39398e-05
43 *324:23 *326:33 0.000178318
44 *325:31 *326:33 0.0136087
*RES
1 *739:la_data_out_o[33] *326:13 29.4931 
2 *326:13 *326:15 275.044 
3 *326:15 *326:17 15 
4 *326:17 *326:19 825.568 
5 *326:19 *326:27 32.2993 
6 *326:27 *326:29 41.3457 
7 *326:29 *326:31 15 
8 *326:31 *326:33 173.089 
9 *326:33 la_data_out[33] 32.5036 
*END

*D_NET *327 0.209508
*CONN
*P la_data_out[34] O
*I *739:la_data_out_o[34] O *D ntt_wb_bridge
*CAP
1 la_data_out[34] 0.000838371
2 *739:la_data_out_o[34] 0.000829152
3 *327:39 0.00333896
4 *327:37 0.00250059
5 *327:35 0.0172196
6 *327:33 0.0172701
7 *327:27 0.0165691
8 *327:25 0.0170009
9 *327:15 0.00402607
10 *327:13 0.00437298
11 *327:13 *329:13 0.000133671
12 *327:13 *334:19 0.000680646
13 *327:15 *328:15 0.000366854
14 *327:15 *337:13 0.000474854
15 *327:15 *337:17 0.00172106
16 *327:15 *388:21 0.00103675
17 *327:15 *728:15 0
18 *327:25 *342:31 0.00060146
19 *327:25 *344:19 0.000445845
20 *327:25 *344:27 8.96725e-05
21 *327:27 *341:53 0
22 *327:27 *342:31 0.000477014
23 *327:27 *342:35 0.00419917
24 *327:27 *366:25 0
25 *327:33 *342:41 2.047e-05
26 *327:39 *328:27 0.0169479
27 *327:39 *336:37 0.00350371
28 *327:39 *337:47 0.000190284
29 *82:19 *327:35 0.000227511
30 *86:27 *327:35 7.57482e-05
31 *135:18 *327:35 0.0022235
32 *272:25 *327:27 0
33 *294:29 *327:27 8.27225e-06
34 *310:31 *327:25 1.15439e-05
35 *311:23 *327:25 2.24267e-05
36 *316:33 *327:27 0.000114902
37 *320:31 *327:27 0.00344693
38 *322:17 *327:25 5.75985e-06
39 *323:21 *327:27 0.000135169
40 *323:23 *327:27 0.0031308
41 *324:15 *327:15 0.0229414
42 *325:15 *327:15 0.000243083
43 *325:19 *327:25 0
44 *325:19 *327:35 0.0221355
45 *325:29 *327:35 0.000654219
46 *326:15 *327:15 0.0240231
47 *326:33 *327:39 0.0152532
*RES
1 *739:la_data_out_o[34] *327:13 29.9535 
2 *327:13 *327:15 270.28 
3 *327:15 *327:25 40.0432 
4 *327:25 *327:27 54.1296 
5 *327:27 *327:33 16.0989 
6 *327:33 *327:35 559.876 
7 *327:35 *327:37 15 
8 *327:37 *327:39 181.188 
9 *327:39 la_data_out[34] 32.1514 
*END

*D_NET *328 0.260698
*CONN
*P la_data_out[35] O
*I *739:la_data_out_o[35] O *D ntt_wb_bridge
*CAP
1 la_data_out[35] 0.000807701
2 *739:la_data_out_o[35] 0.000391558
3 *328:27 0.00361887
4 *328:25 0.00281117
5 *328:23 0.011469
6 *328:21 0.0119258
7 *328:15 0.00838277
8 *328:13 0.00831752
9 *328:13 *334:19 6.27615e-05
10 *328:15 *337:13 0.00180268
11 *328:15 *337:17 0.000558218
12 *328:15 *344:19 0.000811216
13 *328:15 *377:17 0.00326827
14 *328:15 *377:19 0.00152367
15 *328:15 *388:21 0.000290445
16 *328:23 *330:19 0.000113095
17 *328:23 *330:21 0.0654493
18 *328:23 *337:29 6.10127e-05
19 *328:27 *329:29 0.0154246
20 *328:27 *330:27 8.48502e-06
21 *328:27 *336:35 0.000170476
22 *328:27 *337:49 0.0033705
23 la_data_out[24] *328:23 0.0657754
24 *135:18 *328:23 0.00339954
25 *272:25 *328:23 0.000236095
26 *294:13 *328:15 0
27 *294:29 *328:23 0.000110196
28 *312:13 *328:15 0.00269753
29 *316:33 *328:23 0.000424578
30 *318:23 *328:27 0.00348795
31 *320:23 *328:21 0.00012516
32 *320:23 *328:23 0.00141353
33 *323:21 *328:21 0.000560307
34 *323:21 *328:23 0.000103388
35 *326:15 *328:15 0.0242683
36 *326:33 *328:27 0.000142275
37 *327:15 *328:15 0.000366854
38 *327:39 *328:27 0.0169479
*RES
1 *739:la_data_out_o[35] *328:13 28.0695 
2 *328:13 *328:15 287.431 
3 *328:15 *328:21 24.1661 
4 *328:21 *328:23 860.254 
5 *328:23 *328:25 15 
6 *328:25 *328:27 202.627 
7 *328:27 la_data_out[35] 31.7993 
*END

*D_NET *329 0.267326
*CONN
*P la_data_out[36] O
*I *739:la_data_out_o[36] O *D ntt_wb_bridge
*CAP
1 la_data_out[36] 0.000777031
2 *739:la_data_out_o[36] 0.000182989
3 *329:29 0.00333464
4 *329:27 0.0026322
5 *329:21 0.00144686
6 *329:19 0.00137227
7 *329:17 0.0116002
8 *329:15 0.0116002
9 *329:13 0.0101485
10 *329:11 0.0103314
11 *329:11 *334:19 2.32124e-05
12 *329:13 *330:13 0
13 *329:13 *334:19 0.00059362
14 *329:21 *330:27 0.00357449
15 *329:21 *331:21 0.00141403
16 *329:29 *330:27 0.000272059
17 *329:29 *330:29 0.0166297
18 *329:29 *337:49 0.0037458
19 la_data_out[26] *329:27 7.98243e-05
20 *126:25 *329:17 0.011249
21 *272:37 *329:21 0.000413284
22 *283:13 *329:13 0.00909665
23 *283:17 *329:17 3.20602e-05
24 *283:25 *329:17 0.000131084
25 *283:35 *329:17 2.20037e-05
26 *294:13 *329:13 0.000614267
27 *303:13 *329:13 0.0107454
28 *304:13 *329:13 0.000366854
29 *306:13 *329:13 0.00051024
30 *306:17 *329:17 0.0671276
31 *309:13 *329:13 0.000217366
32 *313:13 *329:13 0
33 *314:13 *329:13 0.00366909
34 *317:27 *329:17 0.00320991
35 *317:31 *329:21 0.000187767
36 *318:19 *329:17 1.60583e-05
37 *325:13 *329:13 0.000107542
38 *326:13 *329:13 0.000120607
39 *326:19 *329:17 0.0641719
40 *327:13 *329:13 0.000133671
41 *328:27 *329:29 0.0154246
*RES
1 *739:la_data_out_o[36] *329:11 25.6281 
2 *329:11 *329:13 304.106 
3 *329:13 *329:15 15 
4 *329:15 *329:17 865.36 
5 *329:17 *329:19 15 
6 *329:19 *329:21 46.3586 
7 *329:21 *329:27 31.2014 
8 *329:27 *329:29 183.094 
9 *329:29 la_data_out[36] 31.4471 
*END

*D_NET *330 0.243243
*CONN
*P la_data_out[37] O
*I *739:la_data_out_o[37] O *D ntt_wb_bridge
*CAP
1 la_data_out[37] 0.000746361
2 *739:la_data_out_o[37] 0.000110009
3 *330:29 0.00669232
4 *330:27 0.00667914
5 *330:23 0.000733187
6 *330:21 0.0112602
7 *330:19 0.011656
8 *330:13 0.0106641
9 *330:11 0.0103784
10 *330:11 *334:19 1.94231e-05
11 *330:13 *337:29 5.49168e-05
12 *330:21 *335:33 7.57281e-06
13 *330:27 *338:43 0.000961501
14 *330:29 *338:43 0.00696611
15 la_data_out[24] *330:21 2.5858e-05
16 *272:13 *330:13 0.00162657
17 *272:23 *330:19 0.000529457
18 *272:25 *330:19 0.000133003
19 *272:25 *330:21 0.000240822
20 *294:29 *330:21 0.000834139
21 *309:29 *330:21 0.0641963
22 *309:37 *330:21 0.000500742
23 *313:11 *330:13 0.000227452
24 *313:13 *330:13 0.0163545
25 *313:23 *330:19 0.000551445
26 *313:25 *330:19 0.000121941
27 *313:25 *330:21 1.42282e-05
28 *313:35 *330:21 4.75904e-05
29 *317:31 *330:27 0.00179222
30 *318:23 *330:27 0.000970746
31 *320:23 *330:19 0.00147796
32 *322:17 *330:13 0.000622214
33 *328:23 *330:19 0.000113095
34 *328:23 *330:21 0.0654493
35 *328:27 *330:27 8.48502e-06
36 *329:13 *330:13 0
37 *329:21 *330:27 0.00357449
38 *329:29 *330:27 0.000272059
39 *329:29 *330:29 0.0166297
*RES
1 *739:la_data_out_o[37] *330:11 23.6235 
2 *330:11 *330:13 303.63 
3 *330:13 *330:19 37.7754 
4 *330:19 *330:21 840.182 
5 *330:21 *330:23 15 
6 *330:23 *330:27 43.9971 
7 *330:27 *330:29 196.434 
8 *330:29 la_data_out[37] 31.095 
*END

*D_NET *331 0.250101
*CONN
*P la_data_out[38] O
*I *739:la_data_out_o[38] O *D ntt_wb_bridge
*CAP
1 la_data_out[38] 0.000665804
2 *739:la_data_out_o[38] 0.000315537
3 *331:21 0.00680165
4 *331:19 0.00613585
5 *331:17 0.0142351
6 *331:15 0.0142351
7 *331:13 0.00714443
8 *331:11 0.00745996
9 *331:11 *332:7 3.0197e-05
10 *331:13 *332:7 0.0316268
11 *331:13 *334:17 0.000213237
12 *331:13 *337:13 0.00245723
13 *331:13 *337:17 0
14 *331:17 *334:23 0.0346798
15 *331:17 *340:35 0
16 *331:17 *343:31 6.40461e-05
17 *331:17 *346:37 0.0663556
18 *331:17 *350:31 0
19 *331:21 *332:15 0.0121186
20 *331:21 *338:43 0.0257781
21 la_data_out[23] *331:17 0
22 *134:21 *331:17 0.000433179
23 *283:35 *331:17 0
24 *303:17 *331:17 1.48521e-05
25 *308:13 *331:13 0.0155709
26 *312:13 *331:13 0.00113905
27 *313:35 *331:21 0.0012117
28 *329:21 *331:21 0.00141403
*RES
1 *739:la_data_out_o[38] *331:11 20.7814 
2 *331:11 *331:13 58.4453 
3 *331:13 *331:15 8 
4 *331:15 *331:17 867.825 
5 *331:17 *331:19 8 
6 *331:19 *331:21 49 
7 *331:21 la_data_out[38] 22.8625 
*END

*D_NET *332 0.245415
*CONN
*P la_data_out[39] O
*I *739:la_data_out_o[39] O *D ntt_wb_bridge
*CAP
1 la_data_out[39] 0.000594472
2 *739:la_data_out_o[39] 0.000312893
3 *332:15 0.0119422
4 *332:13 0.0113478
5 *332:11 0.0138477
6 *332:9 0.0138477
7 *332:7 0.00597416
8 *332:5 0.00628705
9 *332:7 *334:17 0.000490218
10 *332:7 *334:19 0.0315157
11 *332:11 *336:21 6.54711e-06
12 *332:11 *336:23 0.0337264
13 *332:11 *339:35 0.000806719
14 *332:15 *338:43 0.000512311
15 la_data_out[23] *332:11 0.0677331
16 *83:19 *332:11 0.000222971
17 *305:21 *332:11 2.11066e-05
18 *307:23 *332:11 7.23207e-05
19 *308:13 *332:7 0.00022054
20 *309:45 *332:11 0.00043193
21 *313:35 *332:15 0.00161827
22 *314:13 *332:7 0.000107521
23 *331:11 *332:7 3.0197e-05
24 *331:13 *332:7 0.0316268
25 *331:21 *332:15 0.0121186
*RES
1 *739:la_data_out_o[39] *332:5 0.662667 
2 *332:5 *332:7 60.9971 
3 *332:7 *332:9 8 
4 *332:9 *332:11 868.529 
5 *332:11 *332:13 8 
6 *332:13 *332:15 53.1216 
7 *332:15 la_data_out[39] 21.4539 
*END

*D_NET *333 0.136421
*CONN
*P la_data_out[3] O
*I *739:la_data_out_o[3] O *D ntt_wb_bridge
*CAP
1 la_data_out[3] 0.040881
2 *739:la_data_out_o[3] 0.000944408
3 *333:17 0.040881
4 *333:15 0.0208282
5 *333:13 0.0217726
6 *333:15 *337:17 0.000733848
7 *333:15 *339:29 0
8 *333:15 *366:21 0.00427348
9 *333:15 *377:27 0
10 *333:15 *388:21 0.0020267
11 *333:15 *399:19 0.000221937
12 *308:13 *333:15 0
13 *310:17 *333:13 0.000282941
14 *312:13 *333:15 0.00113509
15 *318:15 *333:15 0.000631793
16 *319:15 *333:15 0.000642728
17 *320:15 *333:15 0.000791205
18 *323:15 *333:15 0.000374561
*RES
1 *739:la_data_out_o[3] *333:13 25.2647 
2 *333:13 *333:15 76.3915 
3 *333:15 *333:17 8 
4 *333:17 la_data_out[3] 887.472 
*END

*D_NET *334 0.270365
*CONN
*P la_data_out[40] O
*I *739:la_data_out_o[40] O *D ntt_wb_bridge
*CAP
1 la_data_out[40] 0.000850722
2 *739:la_data_out_o[40] 0.00102776
3 *334:27 0.0115572
4 *334:25 0.0107064
5 *334:23 0.0137511
6 *334:21 0.0137511
7 *334:19 0.00703737
8 *334:17 0.00806513
9 *334:17 *337:13 0.00100312
10 *334:23 *340:35 3.68907e-05
11 *334:27 *335:35 0.0280542
12 *334:27 *337:47 0.000408501
13 *134:21 *334:23 0.00632492
14 *137:13 *334:27 0
15 *272:35 *334:27 0.000226833
16 *283:35 *334:27 0.000219528
17 *294:13 *334:19 0.00193291
18 *294:39 *334:27 0.000359302
19 *303:17 *334:23 0.067245
20 *306:27 *334:27 0.000615303
21 *314:13 *334:19 0.019602
22 *315:13 *334:19 5.65882e-05
23 *316:17 *334:19 7.53387e-05
24 *317:13 *334:19 0.000175938
25 *318:13 *334:19 0.000235613
26 *319:13 *334:19 0.000295287
27 *319:23 *334:27 0.000738562
28 *320:13 *334:19 0.000354962
29 *320:35 *334:27 0.00112595
30 *321:13 *334:19 0.000414637
31 *321:23 *334:27 0.00159626
32 *323:13 *334:19 0.000474312
33 *323:27 *334:27 0.00222348
34 *324:13 *334:19 0.000297345
35 *325:13 *334:19 0.000593662
36 *326:13 *334:19 0.000653336
37 *327:13 *334:19 0.000680646
38 *328:13 *334:19 6.27615e-05
39 *329:11 *334:19 2.32124e-05
40 *329:13 *334:19 0.00059362
41 *330:11 *334:19 1.94231e-05
42 *331:13 *334:17 0.000213237
43 *331:17 *334:23 0.0346798
44 *332:7 *334:17 0.000490218
45 *332:7 *334:19 0.0315157
*RES
1 *739:la_data_out_o[40] *334:17 22.8611 
2 *334:17 *334:19 58.2736 
3 *334:19 *334:21 8 
4 *334:21 *334:23 862.895 
5 *334:23 *334:25 8 
6 *334:25 *334:27 55.7835 
7 *334:27 la_data_out[40] 26.3839 
*END

*D_NET *335 0.282488
*CONN
*P la_data_out[41] O
*I *739:la_data_out_o[41] O *D ntt_wb_bridge
*CAP
1 la_data_out[41] 0.000808511
2 *739:la_data_out_o[41] 0.0009617
3 *335:35 0.00688275
4 *335:33 0.00618478
5 *335:23 0.0251444
6 *335:21 0.0253158
7 *335:15 0.00799114
8 *335:13 0.00867092
9 *335:13 *337:13 0.00042081
10 *335:15 *336:15 0.00881654
11 *335:15 *338:15 0.000128905
12 *335:15 *339:29 0.00629333
13 *335:15 *340:23 0.0138988
14 *335:15 *340:33 0.00715672
15 *335:15 *342:29 0.000725742
16 *335:15 *348:27 0.000277799
17 *335:15 *351:23 0.00288762
18 *335:15 *689:31 0.00493928
19 *335:15 *726:15 0.00660692
20 *335:15 *729:15 0.00570571
21 *335:15 *736:15 0.00441572
22 *335:15 *737:34 0.00245855
23 *335:21 *351:29 0
24 *335:23 *342:45 0
25 *335:23 *342:47 0
26 *335:23 *351:29 0
27 *335:23 *351:33 6.00151e-05
28 *335:23 *366:25 0.000161888
29 *335:23 *388:25 0.000204593
30 *335:35 *336:37 0.0283496
31 *335:35 *337:47 0.0014049
32 *335:35 *337:49 1.91712e-05
33 *126:25 *335:23 0.000322499
34 *294:19 *335:23 0.00185349
35 *294:21 *335:23 0
36 *294:39 *335:23 9.49518e-05
37 *313:35 *335:23 0
38 *313:35 *335:33 2.05503e-05
39 *315:15 *335:15 0.00159911
40 *317:19 *335:21 6.12496e-06
41 *317:19 *335:23 0
42 *319:19 *335:23 4.6884e-05
43 *324:19 *335:23 0.0676461
44 *324:23 *335:33 0.000354393
45 *324:23 *335:35 0.00225557
46 *325:31 *335:35 0.00297465
47 *326:29 *335:23 0
48 *326:33 *335:33 0.000359378
49 *330:21 *335:33 7.57281e-06
50 *334:27 *335:35 0.0280542
*RES
1 *739:la_data_out_o[41] *335:13 26.4034 
2 *335:13 *335:15 60.7637 
3 *335:15 *335:21 12.9921 
4 *335:21 *335:23 870.466 
5 *335:23 *335:33 42.2775 
6 *335:33 *335:35 56.6421 
7 *335:35 la_data_out[41] 25.6796 
*END

*D_NET *336 0.273114
*CONN
*P la_data_out[42] O
*I *739:la_data_out_o[42] O *D ntt_wb_bridge
*CAP
1 la_data_out[42] 0.000766301
2 *739:la_data_out_o[42] 0.00111127
3 *336:37 0.00697418
4 *336:35 0.00732026
5 *336:23 0.0144251
6 *336:21 0.0139196
7 *336:15 0.0131529
8 *336:13 0.0136573
9 *336:13 *337:13 0.000537304
10 *336:15 *338:25 0.00685002
11 *336:15 *339:29 8.8898e-05
12 *336:15 *340:23 0.000112526
13 *336:15 *340:33 0.000945487
14 *336:15 *341:37 0.00041463
15 *336:15 *342:29 0.00729375
16 *336:15 *343:27 0
17 *336:15 *716:23 0
18 *336:21 *339:35 0.00246036
19 *336:21 *349:39 0.00271935
20 *336:21 *689:29 0.000109836
21 *336:23 *338:39 0.0657629
22 *336:23 *349:39 1.23701e-05
23 *336:35 *337:47 0.00304566
24 *336:35 *338:43 0.00305703
25 *336:37 *337:49 0.0300759
26 la_data_out[23] *336:21 0
27 *83:19 *336:23 0.000225253
28 *97:19 *336:23 0.000322499
29 *309:45 *336:23 0.000225999
30 *318:23 *336:35 0.000240364
31 *326:33 *336:37 0.00271383
32 *327:39 *336:37 0.00350371
33 *328:27 *336:35 0.000170476
34 *332:11 *336:21 6.54711e-06
35 *332:11 *336:23 0.0337264
36 *335:15 *336:15 0.00881654
37 *335:35 *336:37 0.0283496
*RES
1 *739:la_data_out_o[42] *336:13 28.6245 
2 *336:13 *336:15 64.6277 
3 *336:15 *336:21 43.9807 
4 *336:21 *336:23 843.175 
5 *336:23 *336:35 32.2326 
6 *336:35 *336:37 57.2432 
7 *336:37 la_data_out[42] 24.9754 
*END

*D_NET *337 0.334733
*CONN
*P la_data_out[43] O
*I *739:la_data_out_o[43] O *D ntt_wb_bridge
*CAP
1 la_data_out[43] 0.000724091
2 *739:la_data_out_o[43] 0.00417136
3 *337:49 0.0073233
4 *337:47 0.00757804
5 *337:41 0.0121746
6 *337:39 0.0126296
7 *337:29 0.0024998
8 *337:23 0.00188215
9 *337:17 0.00731573
10 *337:13 0.0106708
11 *337:13 *339:15 0.00290275
12 *337:17 *339:15 0.0171519
13 *337:17 *366:21 0.00163827
14 *337:17 *388:21 0.00307478
15 *337:17 *399:19 0.000163512
16 *337:39 *338:31 0.00125434
17 *337:39 *339:39 0.000169025
18 *337:41 *338:39 0
19 *337:41 *339:39 0.064453
20 *337:47 *338:43 4.17833e-05
21 *337:49 *338:43 0.0318519
22 *97:19 *337:41 0.000605042
23 *272:13 *337:29 3.65917e-05
24 *272:35 *337:47 0.000230428
25 *283:35 *337:47 0.000223101
26 *303:21 *337:47 0.000649347
27 *304:23 *337:39 0.0016023
28 *304:23 *337:41 0.000805339
29 *304:25 *337:41 0.062501
30 *304:31 *337:41 0.000673308
31 *306:27 *337:47 4.58701e-06
32 *311:15 *337:29 0.00125044
33 *311:23 *337:39 0.00216355
34 *312:13 *337:17 0.00255022
35 *313:35 *337:47 5.13351e-05
36 *318:23 *337:49 0.000495992
37 *319:15 *337:17 0.00339653
38 *321:15 *337:17 0.0036692
39 *322:17 *337:29 0.000670483
40 *322:21 *337:39 0.000342588
41 *323:15 *337:17 0.00420828
42 *323:21 *337:29 0.000126959
43 *324:15 *337:13 0.000128728
44 *324:15 *337:17 0.00247797
45 *325:15 *337:17 0.00317815
46 *326:15 *337:13 0.000407698
47 *326:15 *337:17 0.000342035
48 *326:33 *337:47 0.000185017
49 *327:15 *337:13 0.000474854
50 *327:15 *337:17 0.00172106
51 *327:39 *337:47 0.000190284
52 *328:15 *337:13 0.00180268
53 *328:15 *337:17 0.000558218
54 *328:23 *337:29 6.10127e-05
55 *328:27 *337:49 0.0033705
56 *329:29 *337:49 0.0037458
57 *330:13 *337:29 5.49168e-05
58 *331:13 *337:13 0.00245723
59 *331:13 *337:17 0
60 *333:15 *337:17 0.000733848
61 *334:17 *337:13 0.00100312
62 *334:27 *337:47 0.000408501
63 *335:13 *337:13 0.00042081
64 *335:35 *337:47 0.0014049
65 *335:35 *337:49 1.91712e-05
66 *336:13 *337:13 0.000537304
67 *336:35 *337:47 0.00304566
68 *336:37 *337:49 0.0300759
*RES
1 *739:la_data_out_o[43] *337:13 22.0621 
2 *337:13 *337:17 45.3651 
3 *337:17 *337:23 25.6782 
4 *337:23 *337:29 46.8896 
5 *337:29 *337:39 41.54 
6 *337:39 *337:41 837.541 
7 *337:41 *337:47 14.636 
8 *337:47 *337:49 60.6349 
9 *337:49 la_data_out[43] 24.2711 
*END

*D_NET *338 0.340947
*CONN
*P la_data_out[44] O
*I *739:la_data_out_o[44] O *D ntt_wb_bridge
*CAP
1 la_data_out[44] 0.000681881
2 *739:la_data_out_o[44] 0.00108363
3 *338:43 0.0102476
4 *338:41 0.00956573
5 *338:39 0.0112829
6 *338:37 0.0114619
7 *338:31 0.00134857
8 *338:25 0.00329633
9 *338:15 0.00702685
10 *338:13 0.00598376
11 *338:13 *339:13 0
12 *338:13 *345:19 0.000286026
13 *338:13 *346:21 0
14 *338:15 *339:29 0.00108352
15 *338:15 *340:23 0.0282609
16 *338:15 *341:37 0.000708067
17 *338:15 *342:19 0.0268894
18 *338:15 *346:25 0.00234951
19 *338:15 *351:15 0.00199314
20 *338:15 *399:19 0.00104837
21 *338:25 *341:37 0.00170633
22 *338:25 *343:27 0
23 *338:25 *689:23 0.000200481
24 *338:25 *726:23 2.46625e-06
25 *338:25 *729:23 1.12325e-05
26 *338:25 *737:34 0.00124193
27 *338:31 *339:39 8.66e-05
28 *338:31 *347:37 0.000942865
29 *338:31 *377:25 0
30 *338:37 *339:35 5.25011e-05
31 *338:39 *339:39 0
32 *338:39 *349:39 0.0646902
33 *97:19 *338:39 0.000322499
34 *272:37 *338:43 0.000110155
35 *304:19 *338:31 0.000332464
36 *304:23 *338:31 2.03086e-05
37 *304:31 *338:39 0
38 *309:45 *338:39 2.17802e-05
39 *313:35 *338:43 0.000259909
40 *315:25 *338:25 0.00296367
41 *317:31 *338:43 0.000218381
42 *330:27 *338:43 0.000961501
43 *330:29 *338:43 0.00696611
44 *331:21 *338:43 0.0257781
45 *332:15 *338:43 0.000512311
46 *335:15 *338:15 0.000128905
47 *336:15 *338:25 0.00685002
48 *336:23 *338:39 0.0657629
49 *336:35 *338:43 0.00305703
50 *337:39 *338:31 0.00125434
51 *337:41 *338:39 0
52 *337:47 *338:43 4.17833e-05
53 *337:49 *338:43 0.0318519
*RES
1 *739:la_data_out_o[44] *338:13 24.1001 
2 *338:13 *338:15 54.7531 
3 *338:15 *338:25 42.6979 
4 *338:25 *338:31 37.8346 
5 *338:31 *338:37 32.5271 
6 *338:37 *338:39 843.351 
7 *338:39 *338:41 8 
8 *338:41 *338:43 69.9515 
9 *338:43 la_data_out[44] 23.5668 
*END

*D_NET *339 0.338443
*CONN
*P la_data_out[45] O
*I *739:la_data_out_o[45] O *D ntt_wb_bridge
*CAP
1 la_data_out[45] 0.00131326
2 *739:la_data_out_o[45] 0.000631684
3 *339:43 0.0080807
4 *339:41 0.00676744
5 *339:39 0.0108685
6 *339:37 0.0108685
7 *339:35 0.00081848
8 *339:29 0.00305709
9 *339:15 0.00810453
10 *339:13 0.0064976
11 *339:13 *345:19 0.00065951
12 *339:13 *346:21 0.000117356
13 *339:15 *341:23 0.0271957
14 *339:15 *341:37 2.12286e-05
15 *339:15 *345:19 0.000161953
16 *339:15 *346:21 3.59647e-05
17 *339:15 *399:19 0.00178664
18 *339:29 *740:mem_we 0
19 *339:29 *340:33 0.000548643
20 *339:29 *341:37 0
21 *339:29 *399:19 0.00230172
22 *339:29 *689:31 0.00136561
23 *339:29 *729:15 0.000980308
24 *339:39 *347:37 0.0646376
25 *339:39 *349:39 4.02485e-05
26 *339:43 *340:39 0.0393111
27 io_oeb[37] *339:43 0.00014675
28 la_data_out[23] *339:35 0.000258717
29 *97:19 *339:39 0.000433179
30 *134:17 *339:43 0.0392456
31 *305:21 *339:35 2.33476e-05
32 *307:23 *339:35 7.45617e-05
33 *318:15 *339:15 0.0027448
34 *320:15 *339:15 0.00347545
35 *323:15 *339:15 0.000124457
36 *325:15 *339:15 0.000196487
37 *332:11 *339:35 0.000806719
38 *333:15 *339:29 0
39 *335:15 *339:29 0.00629333
40 *336:15 *339:29 8.8898e-05
41 *336:21 *339:35 0.00246036
42 *337:13 *339:15 0.00290275
43 *337:17 *339:15 0.0171519
44 *337:39 *339:39 0.000169025
45 *337:41 *339:39 0.064453
46 *338:13 *339:13 0
47 *338:15 *339:29 0.00108352
48 *338:31 *339:39 8.66e-05
49 *338:37 *339:35 5.25011e-05
50 *338:39 *339:39 0
*RES
1 *739:la_data_out_o[45] *339:13 21.9064 
2 *339:13 *339:15 53.5509 
3 *339:15 *339:29 42.8163 
4 *339:29 *339:35 49.5411 
5 *339:35 *339:37 15 
6 *339:37 *339:39 831.026 
7 *339:39 *339:41 8 
8 *339:41 *339:43 73.5579 
9 *339:43 la_data_out[45] 36.9482 
*END

*D_NET *340 0.317656
*CONN
*P la_data_out[46] O
*I *739:la_data_out_o[46] O *D ntt_wb_bridge
*CAP
1 la_data_out[46] 0.00134409
2 *739:la_data_out_o[46] 0.000778476
3 *340:39 0.00840763
4 *340:37 0.00706354
5 *340:35 0.0254854
6 *340:33 0.0270469
7 *340:23 0.00831569
8 *340:21 0.00753264
9 *340:21 *341:21 0
10 *340:21 *345:19 1.10133e-05
11 *340:21 *348:23 0.000207845
12 *340:23 *342:19 0.000359707
13 *340:23 *346:25 0.000223838
14 *340:23 *347:21 0.00106515
15 *340:23 *348:27 0.00267902
16 *340:23 *350:19 0.00231483
17 *340:23 *689:31 0.000672708
18 *340:23 *726:15 0.000441671
19 *340:23 *729:15 0.000500241
20 *340:23 *736:15 0.00116592
21 *340:33 *341:37 0.000155582
22 *340:33 *342:29 0.00595581
23 *340:33 *351:23 0.00110824
24 *340:35 *346:37 0
25 *340:39 *343:35 0.0408486
26 *340:39 *349:43 0.0146241
27 io_oeb[37] *340:39 8.12867e-05
28 la_data_out[23] *340:35 0
29 *134:17 *340:39 0.000952129
30 *134:21 *340:35 0.000705872
31 *303:17 *340:35 0.0663759
32 *315:15 *340:33 0.000961448
33 *331:17 *340:35 0
34 *334:23 *340:35 3.68907e-05
35 *335:15 *340:23 0.0138988
36 *335:15 *340:33 0.00715672
37 *336:15 *340:23 0.000112526
38 *336:15 *340:33 0.000945487
39 *338:15 *340:23 0.0282609
40 *339:29 *340:33 0.000548643
41 *339:43 *340:39 0.0393111
*RES
1 *739:la_data_out_o[46] *340:21 27.0229 
2 *340:21 *340:23 55.3541 
3 *340:23 *340:33 41.2547 
4 *340:33 *340:35 863.599 
5 *340:35 *340:37 8 
6 *340:37 *340:39 75.8763 
7 *340:39 la_data_out[46] 37.6525 
*END

*D_NET *341 0.292117
*CONN
*P la_data_out[47] O
*I *739:la_data_out_o[47] O *D ntt_wb_bridge
*CAP
1 la_data_out[47] 0.00160517
2 *739:la_data_out_o[47] 0.00102003
3 *341:59 0.00936402
4 *341:57 0.00775885
5 *341:55 0.0156691
6 *341:53 0.0182605
7 *341:39 0.0195758
8 *341:37 0.0195282
9 *341:23 0.00699077
10 *341:21 0.00546706
11 *341:21 *342:17 0
12 *341:21 *343:19 0.000689536
13 *341:21 *345:19 8.14539e-06
14 *341:21 *346:21 0.0010667
15 *341:21 *348:23 0.000702335
16 *341:21 *349:23 6.43972e-05
17 *341:23 *342:19 2.1933e-05
18 *341:23 *343:19 0.0272549
19 *341:23 *346:21 3.19045e-05
20 *341:23 *728:15 0.00207844
21 *341:37 *342:19 0.000101859
22 *341:37 *343:27 0.00108775
23 *341:37 *399:19 0.00136415
24 *341:53 *594:9 0.000117269
25 *341:53 *595:9 0.000117269
26 *341:55 *350:31 0
27 *341:59 *345:39 0.0404254
28 *107:18 *341:59 0.0223337
29 *124:21 *341:55 9.02184e-05
30 *126:25 *341:55 0.000705872
31 *135:14 *341:59 0.00881413
32 *140:21 *341:59 0.00282023
33 *294:29 *341:53 3.36251e-05
34 *306:17 *341:55 0.0418985
35 *316:19 *341:23 0.00218961
36 *317:15 *341:23 0.00265812
37 *327:27 *341:53 0
38 *336:15 *341:37 0.00041463
39 *338:15 *341:37 0.000708067
40 *338:25 *341:37 0.00170633
41 *339:15 *341:23 0.0271957
42 *339:15 *341:37 2.12286e-05
43 *339:29 *341:37 0
44 *340:21 *341:21 0
45 *340:33 *341:37 0.000155582
*RES
1 *739:la_data_out_o[47] *341:21 27.2305 
2 *341:21 *341:23 50.3739 
3 *341:23 *341:37 44.0367 
4 *341:37 *341:39 56.3435 
5 *341:39 *341:53 23.4835 
6 *341:53 *341:55 536.987 
7 *341:55 *341:57 15 
8 *341:57 *341:59 432.266 
9 *341:59 la_data_out[47] 47.9979 
*END

*D_NET *342 0.333304
*CONN
*P la_data_out[48] O
*I *739:la_data_out_o[48] O *D ntt_wb_bridge
*CAP
1 la_data_out[48] 0.00144781
2 *739:la_data_out_o[48] 0.00066652
3 *342:51 0.00977095
4 *342:49 0.00832314
5 *342:47 0.0148456
6 *342:45 0.0162717
7 *342:41 0.00187935
8 *342:35 0.00801846
9 *342:33 0.00763114
10 *342:31 0.00298476
11 *342:29 0.00467769
12 *342:19 0.00679549
13 *342:17 0.00570306
14 *342:17 *345:19 3.14863e-05
15 *342:19 *343:19 0.0299334
16 *342:19 *347:21 0.00248791
17 *342:19 *347:25 0.00272431
18 *342:19 *349:27 0.00230762
19 *342:29 *343:27 7.73956e-05
20 *342:29 *351:23 0.000242899
21 *342:29 *737:34 0.0003105
22 *342:41 *595:9 0
23 *342:41 *596:9 7.46912e-05
24 *342:45 *351:35 0.00175761
25 *342:47 *351:35 0.0377262
26 *342:51 *343:35 0.0420389
27 io_oeb[37] *342:51 0.0420389
28 *84:13 *342:51 0.00919472
29 *85:13 *342:51 0.00797137
30 *85:19 *342:47 0.000111272
31 *272:25 *342:47 0.00674118
32 *294:21 *342:45 6.43972e-05
33 *294:27 *342:41 0.000126526
34 *311:21 *342:31 2.53025e-05
35 *313:25 *342:47 0.000606426
36 *313:35 *342:47 0.000205685
37 *315:15 *342:29 0.000280429
38 *322:17 *342:31 0
39 *323:21 *342:31 0
40 *325:19 *342:31 0
41 *325:19 *342:35 0.0105624
42 *327:25 *342:31 0.00060146
43 *327:27 *342:31 0.000477014
44 *327:27 *342:35 0.00419917
45 *327:33 *342:41 2.047e-05
46 *335:15 *342:29 0.000725742
47 *335:23 *342:45 0
48 *335:23 *342:47 0
49 *336:15 *342:29 0.00729375
50 *338:15 *342:19 0.0268894
51 *340:23 *342:19 0.000359707
52 *340:33 *342:29 0.00595581
53 *341:21 *342:17 0
54 *341:23 *342:19 2.1933e-05
55 *341:37 *342:19 0.000101859
*RES
1 *739:la_data_out_o[48] *342:17 24.986 
2 *342:17 *342:19 55.44 
3 *342:19 *342:29 42.2512 
4 *342:29 *342:31 59.5121 
5 *342:31 *342:33 1.57429 
6 *342:33 *342:35 256.298 
7 *342:35 *342:41 17.0864 
8 *342:41 *342:45 44.7636 
9 *342:45 *342:47 503.378 
10 *342:47 *342:49 8 
11 *342:49 *342:51 79.9979 
12 *342:51 la_data_out[48] 39.0611 
*END

*D_NET *343 0.393557
*CONN
*P la_data_out[49] O
*I *739:la_data_out_o[49] O *D ntt_wb_bridge
*CAP
1 la_data_out[49] 0.00138647
2 *739:la_data_out_o[49] 0.00115266
3 *343:35 0.0100742
4 *343:33 0.00868776
5 *343:31 0.0115812
6 *343:29 0.0115812
7 *343:27 0.00315005
8 *343:19 0.00830794
9 *343:17 0.00631054
10 *343:17 *345:19 0.000170498
11 *343:17 *347:21 0.000400184
12 *343:17 *348:23 0.000363823
13 *343:17 *350:17 0
14 *343:19 *345:23 0.00251286
15 *343:19 *347:21 0.000150577
16 *343:19 *348:23 0.00171497
17 *343:19 *728:15 0.0055922
18 *343:27 *347:33 0.00198314
19 *343:27 *348:35 0.00172492
20 *343:27 *349:35 0.00263731
21 *343:27 *350:27 0.00152414
22 *343:27 *716:23 0.00913046
23 *343:27 *736:23 0.00215845
24 *343:31 *346:37 0.0676246
25 *343:31 *348:39 0.067747
26 *343:31 *350:31 5.09387e-06
27 *343:31 *399:25 0.000110158
28 *343:35 *348:43 0.0095653
29 *343:35 *349:43 0.00224696
30 io_oeb[37] *343:35 0.0013329
31 *83:13 *343:35 0.00829235
32 *134:17 *343:35 0.00197271
33 *134:21 *343:31 0.000322499
34 *315:25 *343:27 4.70939e-05
35 *331:17 *343:31 6.40461e-05
36 *336:15 *343:27 0
37 *338:25 *343:27 0
38 *340:39 *343:35 0.0408486
39 *341:21 *343:19 0.000689536
40 *341:23 *343:19 0.0272549
41 *341:37 *343:27 0.00108775
42 *342:19 *343:19 0.0299334
43 *342:29 *343:27 7.73956e-05
44 *342:51 *343:35 0.0420389
*RES
1 *739:la_data_out_o[49] *343:17 24.1332 
2 *343:17 *343:19 55.7405 
3 *343:19 *343:27 44.0245 
4 *343:27 *343:29 8 
5 *343:29 *343:31 869.234 
6 *343:31 *343:33 8 
7 *343:33 *343:35 85.2357 
8 *343:35 la_data_out[49] 38.3568 
*END

*D_NET *344 0.146341
*CONN
*P la_data_out[4] O
*I *739:la_data_out_o[4] O *D ntt_wb_bridge
*CAP
1 la_data_out[4] 0.0398259
2 *739:la_data_out_o[4] 0.00181543
3 *344:31 0.0398259
4 *344:29 0.0132401
5 *344:27 0.0135147
6 *344:19 0.00209
7 *344:19 *388:21 0.00225152
8 *344:29 *377:27 0.00208065
9 *80:83 la_data_out[4] 0
10 *118:81 la_data_out[4] 0.00179453
11 *305:21 *344:29 0.00162982
12 *307:23 *344:29 0.00104894
13 *310:17 *344:19 0.000342616
14 *310:31 *344:27 8.88331e-05
15 *310:31 *344:29 0.0034681
16 *311:23 *344:27 1.36431e-05
17 *311:23 *344:29 0.0170775
18 *312:13 *344:19 0.00415466
19 *325:19 *344:19 0.000108573
20 *326:15 *344:19 0.000623098
21 *327:25 *344:19 0.000445845
22 *327:25 *344:27 8.96725e-05
23 *328:15 *344:19 0.000811216
*RES
1 *739:la_data_out_o[4] *344:19 44.6517 
2 *344:19 *344:27 8.7224 
3 *344:27 *344:29 66.4739 
4 *344:29 *344:31 8 
5 *344:31 la_data_out[4] 876.908 
*END

*D_NET *345 0.367133
*CONN
*P la_data_out[50] O
*I *739:la_data_out_o[50] O *D ntt_wb_bridge
*CAP
1 la_data_out[50] 0.00155364
2 *739:la_data_out_o[50] 0.00260015
3 *345:39 0.00818111
4 *345:37 0.00662747
5 *345:35 0.0115028
6 *345:33 0.0115028
7 *345:31 0.00280898
8 *345:29 0.00330497
9 *345:23 0.00216073
10 *345:21 0.00166475
11 *345:19 0.00260015
12 *345:19 *346:21 0.00179397
13 *345:19 *350:17 0.00104494
14 *345:23 *346:25 0.000319054
15 *345:23 *347:25 0.011691
16 *345:23 *689:31 0
17 *345:23 *728:15 0.0127779
18 *345:29 *346:31 0.000709412
19 *345:31 *346:33 0.020717
20 *345:31 *347:33 0.000411036
21 *345:31 *348:35 0.0206301
22 *345:31 *716:23 0.00487777
23 *345:35 *347:37 0.0676341
24 *345:35 *349:39 0.0675795
25 *345:39 *346:41 0.0459933
26 *345:39 *347:41 0.000327959
27 *97:19 *345:35 0.000322499
28 *107:18 *345:39 0.00289666
29 *135:14 *345:39 0.00863221
30 *338:13 *345:19 0.000286026
31 *339:13 *345:19 0.00065951
32 *339:15 *345:19 0.000161953
33 *340:21 *345:19 1.10133e-05
34 *341:21 *345:19 8.14539e-06
35 *341:59 *345:39 0.0404254
36 *342:17 *345:19 3.14863e-05
37 *343:17 *345:19 0.000170498
38 *343:19 *345:23 0.00251286
*RES
1 *739:la_data_out_o[50] *345:19 40.3994 
2 *345:19 *345:21 15 
3 *345:21 *345:23 139.739 
4 *345:23 *345:29 41.0614 
5 *345:29 *345:31 233.595 
6 *345:31 *345:33 15 
7 *345:33 *345:35 867.825 
8 *345:35 *345:37 15 
9 *345:37 *345:39 498.966 
10 *345:39 la_data_out[50] 47.6457 
*END

*D_NET *346 0.357914
*CONN
*P la_data_out[51] O
*I *739:la_data_out_o[51] O *D ntt_wb_bridge
*CAP
1 la_data_out[51] 0.0015286
2 *739:la_data_out_o[51] 0.00191875
3 *346:41 0.00784214
4 *346:39 0.00631354
5 *346:37 0.0118613
6 *346:35 0.0118613
7 *346:33 0.00664825
8 *346:31 0.00708087
9 *346:25 0.0023879
10 *346:23 0.00195529
11 *346:21 0.00191875
12 *346:21 *347:21 0
13 *346:21 *348:23 5.44993e-06
14 *346:21 *349:23 0.00204114
15 *346:21 *350:17 0.0018846
16 *346:25 *347:25 0.000737993
17 *346:25 *348:27 0.0123865
18 *346:25 *349:27 0.000764472
19 *346:25 *351:15 0.00917191
20 *346:25 *689:31 0.000402534
21 *346:33 *348:35 2.02872e-05
22 *346:33 *716:23 0.00411221
23 *346:37 *348:39 1.67126e-05
24 *346:37 *729:21 0
25 *346:41 *347:41 0.0477347
26 io_oeb[37] *346:41 0.00896186
27 la_data_out[23] *346:37 0
28 *107:18 *346:41 0.000625475
29 *134:21 *346:37 0.00039345
30 *331:17 *346:37 0.0663556
31 *338:13 *346:21 0
32 *338:15 *346:25 0.00234951
33 *339:13 *346:21 0.000117356
34 *339:15 *346:21 3.59647e-05
35 *340:23 *346:25 0.000223838
36 *340:35 *346:37 0
37 *341:21 *346:21 0.0010667
38 *341:23 *346:21 3.19045e-05
39 *343:31 *346:37 0.0676246
40 *345:19 *346:21 0.00179397
41 *345:23 *346:25 0.000319054
42 *345:29 *346:31 0.000709412
43 *345:31 *346:33 0.020717
44 *345:39 *346:41 0.0459933
*RES
1 *739:la_data_out_o[51] *346:21 41.9984 
2 *346:21 *346:23 15 
3 *346:23 *346:25 146.409 
4 *346:25 *346:31 40.005 
5 *346:31 *346:33 226.925 
6 *346:33 *346:35 15 
7 *346:35 *346:37 868.529 
8 *346:37 *346:39 15 
9 *346:39 *346:41 510.4 
10 *346:41 la_data_out[51] 47.2936 
*END

*D_NET *347 0.383803
*CONN
*P la_data_out[52] O
*I *739:la_data_out_o[52] O *D ntt_wb_bridge
*CAP
1 la_data_out[52] 0.0014906
2 *739:la_data_out_o[52] 0.00278977
3 *347:41 0.00849934
4 *347:39 0.00700873
5 *347:37 0.0117948
6 *347:35 0.0117948
7 *347:33 0.00306882
8 *347:31 0.00352084
9 *347:25 0.0021893
10 *347:23 0.00173728
11 *347:21 0.00278977
12 *347:21 *348:23 0.0010918
13 *347:21 *350:17 0.000200771
14 *347:21 *350:19 0.000278977
15 *347:21 *351:15 0.000781189
16 *347:21 *689:31 0.000544416
17 *347:21 *726:15 0.000433732
18 *347:21 *729:15 0.000444257
19 *347:21 *736:15 0.000433732
20 *347:25 *349:27 0.0108665
21 *347:25 *728:15 0.000558441
22 *347:31 *348:33 0.000635981
23 *347:33 *348:35 0.0221863
24 *347:33 *349:35 0.000406312
25 *347:33 *350:27 0.0221825
26 *347:33 *716:23 0.00267204
27 *347:37 *349:39 2.0835e-05
28 *347:37 *737:40 0
29 *347:41 *349:43 9.1497e-06
30 io_oeb[37] *347:41 0.0107171
31 *83:13 *347:41 0.000475268
32 *85:13 *347:41 0.0484453
33 *97:19 *347:37 0.00039345
34 *107:18 *347:41 0.000412634
35 *338:31 *347:37 0.000942865
36 *339:39 *347:37 0.0646376
37 *340:23 *347:21 0.00106515
38 *342:19 *347:21 0.00248791
39 *342:19 *347:25 0.00272431
40 *343:17 *347:21 0.000400184
41 *343:19 *347:21 0.000150577
42 *343:27 *347:33 0.00198314
43 *345:23 *347:25 0.011691
44 *345:31 *347:33 0.000411036
45 *345:35 *347:37 0.0676341
46 *345:39 *347:41 0.000327959
47 *346:21 *347:21 0
48 *346:25 *347:25 0.000737993
49 *346:41 *347:41 0.0477347
*RES
1 *739:la_data_out_o[52] *347:21 42.1042 
2 *347:21 *347:23 15 
3 *347:23 *347:25 138.786 
4 *347:25 *347:31 40.005 
5 *347:31 *347:33 245.982 
6 *347:33 *347:35 15 
7 *347:35 *347:37 867.825 
8 *347:37 *347:39 15 
9 *347:39 *347:41 536.127 
10 *347:41 la_data_out[52] 46.9414 
*END

*D_NET *348 0.388276
*CONN
*P la_data_out[53] O
*I *739:la_data_out_o[53] O *D ntt_wb_bridge
*CAP
1 la_data_out[53] 0.00138086
2 *739:la_data_out_o[53] 0.00223968
3 *348:43 0.00801267
4 *348:41 0.00663181
5 *348:39 0.0116122
6 *348:37 0.0116122
7 *348:35 0.00294272
8 *348:33 0.00332033
9 *348:27 0.00224833
10 *348:25 0.00187072
11 *348:23 0.00223968
12 *348:23 *349:23 0.0011441
13 *348:23 *350:17 0.00023339
14 *348:23 *351:13 0.00216454
15 *348:23 *728:15 0.000701039
16 *348:27 *350:19 0.0118265
17 *348:27 *351:15 0.000753994
18 *348:27 *689:31 0.00107735
19 *348:35 *716:23 0.00294643
20 *348:39 *350:31 0.0677327
21 *348:39 *399:25 0.000121281
22 *348:43 *349:43 0.0510841
23 io_oeb[37] *348:43 0.00102311
24 *83:13 *348:43 0.0510778
25 *134:21 *348:39 0.000322499
26 *335:15 *348:27 0.000277799
27 *340:21 *348:23 0.000207845
28 *340:23 *348:27 0.00267902
29 *341:21 *348:23 0.000702335
30 *343:17 *348:23 0.000363823
31 *343:19 *348:23 0.00171497
32 *343:27 *348:35 0.00172492
33 *343:31 *348:39 0.067747
34 *343:35 *348:43 0.0095653
35 *345:31 *348:35 0.0206301
36 *346:21 *348:23 5.44993e-06
37 *346:25 *348:27 0.0123865
38 *346:33 *348:35 2.02872e-05
39 *346:37 *348:39 1.67126e-05
40 *347:21 *348:23 0.0010918
41 *347:31 *348:33 0.000635981
42 *347:33 *348:35 0.0221863
*RES
1 *739:la_data_out_o[53] *348:23 43.3423 
2 *348:23 *348:25 15 
3 *348:25 *348:27 150.22 
4 *348:27 *348:33 38.9486 
5 *348:33 *348:35 236.93 
6 *348:35 *348:37 15 
7 *348:37 *348:39 869.586 
8 *348:39 *348:41 15 
9 *348:41 *348:43 546.132 
10 *348:43 la_data_out[53] 45.5329 
*END

*D_NET *349 0.35534
*CONN
*P la_data_out[54] O
*I *739:la_data_out_o[54] O *D ntt_wb_bridge
*CAP
1 la_data_out[54] 0.00135582
2 *739:la_data_out_o[54] 0.00202592
3 *349:43 0.0179569
4 *349:41 0.0166011
5 *349:39 0.011561
6 *349:37 0.011561
7 *349:35 0.00760087
8 *349:33 0.00799914
9 *349:27 0.00216764
10 *349:25 0.00176936
11 *349:23 0.00202592
12 *349:23 *350:17 0.000898355
13 *349:23 *351:13 0.00287026
14 *349:27 *351:15 0.0112132
15 *349:27 *728:15 0.000661872
16 *349:33 *350:25 0.000562862
17 *349:35 *350:27 0.0240516
18 *349:35 *716:23 0.00453979
19 *349:35 *736:23 0.00101156
20 *349:39 *689:29 4.28349e-05
21 io_oeb[37] *349:43 0.00130022
22 *83:13 *349:43 0.00124
23 *97:19 *349:39 0.000322499
24 *134:17 *349:43 0.000742013
25 *336:21 *349:39 0.00271935
26 *336:23 *349:39 1.23701e-05
27 *338:39 *349:39 0.0646902
28 *339:39 *349:39 4.02485e-05
29 *340:39 *349:43 0.0146241
30 *341:21 *349:23 6.43972e-05
31 *342:19 *349:27 0.00230762
32 *343:27 *349:35 0.00263731
33 *343:35 *349:43 0.00224696
34 *345:35 *349:39 0.0675795
35 *346:21 *349:23 0.00204114
36 *346:25 *349:27 0.000764472
37 *347:25 *349:27 0.0108665
38 *347:33 *349:35 0.000406312
39 *347:37 *349:39 2.0835e-05
40 *347:41 *349:43 9.1497e-06
41 *348:23 *349:23 0.0011441
42 *348:43 *349:43 0.0510841
*RES
1 *739:la_data_out_o[54] *349:23 42.3083 
2 *349:23 *349:25 15 
3 *349:25 *349:27 137.356 
4 *349:27 *349:33 38.9486 
5 *349:33 *349:35 265.039 
6 *349:35 *349:37 15 
7 *349:37 *349:39 868.881 
8 *349:39 *349:41 15 
9 *349:41 *349:43 571.859 
10 *349:43 la_data_out[54] 45.1807 
*END

*D_NET *350 0.278044
*CONN
*P la_data_out[55] O
*I *739:la_data_out_o[55] O *D ntt_wb_bridge
*CAP
1 la_data_out[55] 0.00100352
2 *739:la_data_out_o[55] 0.00225982
3 *350:35 0.0288841
4 *350:33 0.0278806
5 *350:31 0.0259322
6 *350:29 0.0259322
7 *350:27 0.00340779
8 *350:25 0.00371945
9 *350:19 0.00212477
10 *350:17 0.00407293
11 *350:17 *351:13 0.00033865
12 *350:19 *351:15 0.000704457
13 *350:19 *689:31 0.0136159
14 *350:27 *716:23 0.00257362
15 *350:27 *736:23 0.000388894
16 *350:31 *399:25 0.000141169
17 *124:21 *350:31 0
18 *134:21 *350:31 0.000322499
19 *283:17 *350:31 0
20 *306:17 *350:31 0
21 *318:19 *350:31 0
22 *319:23 *350:35 0
23 *326:19 *350:31 0
24 *331:17 *350:31 0
25 *340:23 *350:19 0.00231483
26 *341:55 *350:31 0
27 *343:17 *350:17 0
28 *343:27 *350:27 0.00152414
29 *343:31 *350:31 5.09387e-06
30 *345:19 *350:17 0.00104494
31 *346:21 *350:17 0.0018846
32 *347:21 *350:17 0.000200771
33 *347:21 *350:19 0.000278977
34 *347:33 *350:27 0.0221825
35 *348:23 *350:17 0.00023339
36 *348:27 *350:19 0.0118265
37 *348:39 *350:31 0.0677327
38 *349:23 *350:17 0.000898355
39 *349:33 *350:25 0.000562862
40 *349:35 *350:27 0.0240516
*RES
1 *739:la_data_out_o[55] *350:17 39.7795 
2 *350:17 *350:19 148.791 
3 *350:19 *350:25 37.8921 
4 *350:25 *350:27 257.416 
5 *350:27 *350:29 15 
6 *350:29 *350:31 876.276 
7 *350:31 *350:33 15 
8 *350:33 *350:35 582.341 
9 *350:35 la_data_out[55] 38.1379 
*END

*D_NET *351 0.349661
*CONN
*P la_data_out[56] O
*I *739:la_data_out_o[56] O *D ntt_wb_bridge
*CAP
1 la_data_out[56] 0.00253698
2 *739:la_data_out_o[56] 0.00201471
3 *351:41 0.00253698
4 *351:39 0.0168995
5 *351:37 0.0168995
6 *351:35 0.0105954
7 *351:33 0.0114528
8 *351:29 0.00142815
9 *351:23 0.00484561
10 *351:21 0.00451292
11 *351:15 0.00232354
12 *351:13 0.00410025
13 *351:13 *728:15 0.00120987
14 *351:15 *689:31 0.00021436
15 *351:15 *728:15 0.000521994
16 *351:23 *726:15 0.000611491
17 *351:23 *736:15 0.0234029
18 *351:23 *737:34 0.000650958
19 *351:33 *366:25 0.000127524
20 *86:13 *351:39 0.00361734
21 *86:21 *351:39 0
22 *87:13 *351:39 0.0417947
23 *87:51 *351:39 0.000801837
24 *94:13 *351:39 0.000145356
25 *100:19 la_data_out[56] 0.000718623
26 *116:29 *351:39 0.00233627
27 *141:25 *351:39 0.00335857
28 *143:43 *351:39 0.00197275
29 *272:25 *351:35 0.0112461
30 *294:19 *351:33 0.00207428
31 *294:19 *351:35 0
32 *294:21 *351:35 0.0200859
33 *309:21 *351:33 0.000938912
34 *313:25 *351:35 0.0627525
35 *315:15 *351:23 0.0170868
36 *320:23 *351:29 7.16032e-05
37 *320:23 *351:33 0
38 *335:15 *351:23 0.00288762
39 *335:21 *351:29 0
40 *335:23 *351:29 0
41 *335:23 *351:33 6.00151e-05
42 *338:15 *351:15 0.00199314
43 *340:33 *351:23 0.00110824
44 *342:29 *351:23 0.000242899
45 *342:45 *351:35 0.00175761
46 *342:47 *351:35 0.0377262
47 *346:25 *351:15 0.00917191
48 *347:21 *351:15 0.000781189
49 *348:23 *351:13 0.00216454
50 *348:27 *351:15 0.000753994
51 *349:23 *351:13 0.00287026
52 *349:27 *351:15 0.0112132
53 *350:17 *351:13 0.00033865
54 *350:19 *351:15 0.000704457
*RES
1 *739:la_data_out_o[56] *351:13 36.1523 
2 *351:13 *351:15 143.074 
3 *351:15 *351:21 32.9621 
4 *351:21 *351:23 262.181 
5 *351:23 *351:29 25.0568 
6 *351:29 *351:33 32.2936 
7 *351:33 *351:35 802.503 
8 *351:35 *351:37 15 
9 *351:37 *351:39 589.964 
10 *351:39 *351:41 15 
11 *351:41 la_data_out[56] 52.0136 
*END

*D_NET *352 0.417258
*CONN
*P la_data_out[57] O
*I *739:la_data_out_o[57] O *D ntt_wb_bridge
*CAP
1 la_data_out[57] 0.00139419
2 *739:la_data_out_o[57] 0.000539349
3 *352:27 0.0126352
4 *352:25 0.011241
5 *352:23 0.0110889
6 *352:21 0.0110889
7 *352:19 0.00533489
8 *352:13 0.00654453
9 *352:7 0.00824165
10 *352:5 0.00757136
11 *352:7 *353:9 0
12 *352:7 *354:15 0.000260569
13 *352:7 *356:19 0.0335436
14 *352:7 *357:15 0.0328421
15 *352:7 *689:31 0.000360269
16 *352:7 *728:15 0.000517501
17 *352:7 *729:15 0.000360269
18 *352:19 *353:19 0.0234191
19 *352:19 *358:25 0.000155895
20 *352:19 *649:11 0.0218667
21 *352:19 *664:23 0.00294702
22 *352:19 *688:23 0.0034154
23 *352:23 *353:23 0.0684352
24 *352:23 *358:27 0.0686953
25 *352:23 *383:29 0
26 *352:23 *704:19 7.87136e-05
27 *352:27 *353:27 0.0034985
28 *352:27 *358:31 0.0186445
29 io_oeb[37] *352:27 0.0378221
30 *69:17 *352:27 0.000352987
31 *70:20 *352:27 0.00260143
32 *83:13 *352:27 0.00796619
33 *84:13 *352:27 0.00512813
34 *85:13 *352:27 0.00476997
35 *102:27 *352:19 0.00160777
36 *138:13 *352:27 0
37 *281:23 *352:27 0.00228894
*RES
1 *739:la_data_out_o[57] *352:5 2.05893 
2 *352:5 *352:7 67.1683 
3 *352:7 *352:13 33.7521 
4 *352:13 *352:19 45.6736 
5 *352:19 *352:21 8 
6 *352:21 *352:23 877.685 
7 *352:23 *352:25 8 
8 *352:25 *352:27 85.8368 
9 *352:27 la_data_out[57] 39.0611 
*END

*D_NET *353 0.400112
*CONN
*P la_data_out[58] O
*I *739:la_data_out_o[58] O *D ntt_wb_bridge
*CAP
1 la_data_out[58] 0.0015273
2 *739:la_data_out_o[58] 0.0012494
3 *353:27 0.0128683
4 *353:25 0.011341
5 *353:23 0.0175325
6 *353:21 0.0175325
7 *353:19 0.00723742
8 *353:17 0.00843253
9 *353:11 0.00790724
10 *353:9 0.00796153
11 *353:9 *354:13 0.000649221
12 *353:9 *354:15 0.000208639
13 *353:9 *356:17 0.000120449
14 *353:11 *354:15 0.0321077
15 *353:11 *357:13 0.000155068
16 *353:11 *358:7 0.0166638
17 *353:11 *364:19 0.000596253
18 *353:11 *370:15 0.000191477
19 *353:11 *372:15 0.00115369
20 *353:11 *393:15 0.000981424
21 *353:11 *395:15 0.000607199
22 *353:19 *359:23 0
23 *353:19 *373:17 0.00119625
24 *353:19 *398:23 0.00144223
25 *353:19 *649:11 0.000749989
26 *353:19 *662:27 0.00473397
27 *353:19 *664:23 0.000101624
28 *353:19 *675:27 0.00539045
29 *353:19 *687:11 0.0114849
30 *353:19 *688:23 0.000347336
31 *353:19 *710:23 0.00408609
32 *353:23 *383:25 0
33 *353:23 *383:29 0
34 *353:23 *704:19 0.0364295
35 io_oeb[37] *353:27 0.0361048
36 *70:22 *353:27 0.00169465
37 *71:22 *353:27 0.000978245
38 *72:25 *353:27 0.00701766
39 *73:20 *353:27 0.00607282
40 *79:13 *353:27 0.0389072
41 *102:19 *353:27 0
42 *102:27 *353:19 9.81333e-06
43 *107:18 *353:27 0.000176157
44 *140:21 *353:27 0.000155832
45 *276:13 *353:17 0.000641836
46 *281:23 *353:27 1.31877e-05
47 *352:7 *353:9 0
48 *352:19 *353:19 0.0234191
49 *352:23 *353:23 0.0684352
50 *352:27 *353:27 0.0034985
*RES
1 *739:la_data_out_o[58] *353:9 5.51227 
2 *353:9 *353:11 59.3469 
3 *353:11 *353:17 35.865 
4 *353:17 *353:19 47.9696 
5 *353:19 *353:21 8 
6 *353:21 *353:23 874.164 
7 *353:23 *353:25 8 
8 *353:25 *353:27 82.6597 
9 *353:27 la_data_out[58] 40.4696 
*END

*D_NET *354 0.362847
*CONN
*P la_data_out[59] O
*I *739:la_data_out_o[59] O *D ntt_wb_bridge
*CAP
1 la_data_out[59] 0.000695511
2 *739:la_data_out_o[59] 0.000645228
3 *354:31 0.0139475
4 *354:29 0.013252
5 *354:27 0.0198546
6 *354:25 0.0235435
7 *354:21 0.00522311
8 *354:15 0.00977879
9 *354:13 0.0088898
10 *354:15 *356:19 0.00115595
11 *354:15 *358:7 0.000966699
12 *354:15 *359:15 0.0447741
13 *354:15 *363:15 0.00257956
14 *354:15 *393:15 0.00103229
15 *354:15 *395:15 0.00112167
16 *354:15 *397:15 0.0037858
17 *354:21 *360:29 0.000556957
18 *354:21 *379:21 2.11157e-05
19 *354:21 *647:17 9.72298e-05
20 *354:25 *358:25 0.00207688
21 *354:25 *361:15 0.00334736
22 *354:25 *674:15 0.000345796
23 *354:25 *677:27 0.000276072
24 *354:25 *695:23 0.00025384
25 *354:25 *735:17 0.00835557
26 *354:27 la_data_out[83] 0
27 *354:27 *383:25 0
28 *354:27 *383:29 0
29 *354:27 *695:19 0.0559056
30 *354:27 *707:11 0.0247746
31 *354:31 *356:39 0.0357859
32 *354:31 *359:31 0.00108778
33 *354:31 *360:87 0.00865797
34 *354:31 *367:23 0.00200094
35 *354:31 *369:21 0.0162935
36 *354:31 *373:31 0.00172537
37 *354:31 *374:31 0.000180621
38 *354:31 *375:27 0.00151227
39 *354:31 *378:23 0.000251726
40 *78:27 *354:27 0.00310379
41 *279:15 *354:15 0.000721809
42 *281:17 *354:15 0.0106779
43 *302:23 *354:31 0.000363998
44 *352:7 *354:15 0.000260569
45 *353:9 *354:13 0.000649221
46 *353:9 *354:15 0.000208639
47 *353:11 *354:15 0.0321077
*RES
1 *739:la_data_out_o[59] *354:13 21.8878 
2 *354:13 *354:15 87.8117 
3 *354:15 *354:21 40.0907 
4 *354:21 *354:25 29.8661 
5 *354:25 *354:27 895.996 
6 *354:27 *354:29 8 
7 *354:29 *354:31 80.3413 
8 *354:31 la_data_out[59] 23.5668 
*END

*D_NET *355 0.153705
*CONN
*P la_data_out[5] O
*I *739:la_data_out_o[5] O *D ntt_wb_bridge
*CAP
1 la_data_out[5] 0.0388431
2 *739:la_data_out_o[5] 0.00091218
3 *355:41 0.0388431
4 *355:39 0.0124445
5 *355:37 0.0131594
6 *355:21 0.00162744
7 *355:15 0.00230726
8 *355:13 0.00230687
9 *355:13 *740:mem_we 2.76611e-06
10 *355:13 *366:21 0
11 *355:15 *399:19 0.000850192
12 *355:15 *689:31 0
13 *80:75 la_data_out[5] 0
14 *118:79 la_data_out[5] 0.00187425
15 *272:23 *355:37 9.22111e-05
16 *310:17 *355:13 0.000132725
17 *316:19 *355:15 0.00432339
18 *316:25 *355:21 0.00128921
19 *316:33 *355:37 0.000662627
20 *322:21 *355:37 0.000338791
21 *322:21 *355:39 0.0336724
22 *325:19 *355:37 2.26497e-05
*RES
1 *739:la_data_out_o[5] *355:13 33.5768 
2 *355:13 *355:15 47.3114 
3 *355:15 *355:21 48.4564 
4 *355:21 *355:37 32.5543 
5 *355:37 *355:39 62.3523 
6 *355:39 *355:41 8 
7 *355:41 la_data_out[5] 870.57 
*END

*D_NET *356 0.34563
*CONN
*P la_data_out[60] O
*I *739:la_data_out_o[60] O *D ntt_wb_bridge
*CAP
1 la_data_out[60] 0.000724091
2 *739:la_data_out_o[60] 0.000771825
3 *356:39 0.00857345
4 *356:37 0.00784936
5 *356:35 0.00355505
6 *356:33 0.00358255
7 *356:31 0.0265819
8 *356:29 0.0291484
9 *356:25 0.00358363
10 *356:19 0.00811351
11 *356:17 0.00789573
12 *356:17 *357:13 4.31291e-05
13 *356:19 *357:15 0.00144887
14 *356:19 *359:15 0.0375979
15 *356:19 *363:15 0.00403638
16 *356:19 *728:15 0.00867674
17 *356:25 *384:19 0.000206693
18 *356:29 *359:23 0.00291489
19 *356:29 *373:17 0.014107
20 *356:29 *379:15 0.00717313
21 *356:29 *711:15 0.00051563
22 *356:31 *363:69 0
23 *356:31 *363:71 0
24 *356:31 *656:11 0.000434343
25 *356:31 *678:23 0
26 *356:31 *687:15 0
27 *356:31 *719:11 0
28 *356:31 *728:11 0.0550548
29 *356:31 *731:41 0
30 *356:35 *363:71 0
31 *356:39 *359:31 0.0305545
32 *356:39 *363:75 0.00508802
33 *356:39 *364:27 0.00375645
34 *114:17 *356:31 0
35 *114:17 *356:35 0
36 *277:17 *356:19 0.000252351
37 *282:17 *356:19 0.00278401
38 *352:7 *356:19 0.0335436
39 *353:9 *356:17 0.000120449
40 *354:15 *356:19 0.00115595
41 *354:31 *356:39 0.0357859
*RES
1 *739:la_data_out_o[60] *356:17 25.118 
2 *356:17 *356:19 73.3861 
3 *356:19 *356:25 30.935 
4 *356:25 *356:29 33.9877 
5 *356:29 *356:31 819.747 
6 *356:31 *356:33 0.621429 
7 *356:33 *356:35 67.9429 
8 *356:35 *356:37 8 
9 *356:37 *356:39 68.0624 
10 *356:39 la_data_out[60] 24.2711 
*END

*D_NET *357 0.347493
*CONN
*P la_data_out[61] O
*I *739:la_data_out_o[61] O *D ntt_wb_bridge
*CAP
1 la_data_out[61] 0.00132931
2 *739:la_data_out_o[61] 0.000818879
3 *357:31 0.00738668
4 *357:29 0.00605737
5 *357:27 0.0164285
6 *357:25 0.0216931
7 *357:21 0.00584967
8 *357:15 0.00869402
9 *357:13 0.00892776
10 *357:15 *362:15 0.0153143
11 *357:15 *689:31 0.000357902
12 *357:15 *726:15 0.000285138
13 *357:15 *728:15 0.000197681
14 *357:15 *729:15 0.000292057
15 *357:15 *736:15 0.000285138
16 *357:21 *358:13 0.00074137
17 *357:25 *359:23 0.00125867
18 *357:25 *360:29 0.002059
19 *357:25 *376:15 0.0120422
20 *357:25 *382:15 0
21 *357:25 *657:15 0.00357391
22 *357:25 *678:19 0.0030941
23 *357:25 *702:21 2.37336e-05
24 *357:25 *702:23 0.000494628
25 *357:25 *711:15 0.0171479
26 *357:27 *367:19 0.0315017
27 *357:27 *370:19 0.0662814
28 *357:27 *647:23 0.00336501
29 *357:27 *733:19 0.000248791
30 *357:31 *358:31 0.0354598
31 *69:17 *357:31 0.0373045
32 *70:20 *357:31 0.00100483
33 *277:17 *357:15 0.00348482
34 *352:7 *357:15 0.0328421
35 *353:11 *357:13 0.000155068
36 *356:17 *357:13 4.31291e-05
37 *356:19 *357:15 0.00144887
*RES
1 *739:la_data_out_o[61] *357:13 24.4884 
2 *357:13 *357:15 65.744 
3 *357:15 *357:21 26.7093 
4 *357:21 *357:25 44.3776 
5 *357:25 *357:27 872.051 
6 *357:27 *357:29 8 
7 *357:29 *357:31 68.7493 
8 *357:31 la_data_out[61] 36.9482 
*END

*D_NET *358 0.363009
*CONN
*P la_data_out[62] O
*I *739:la_data_out_o[62] O *D ntt_wb_bridge
*CAP
1 la_data_out[62] 0.00137152
2 *739:la_data_out_o[62] 0.0003524
3 *358:31 0.0090269
4 *358:29 0.00765538
5 *358:27 0.0113431
6 *358:25 0.016188
7 *358:13 0.00620707
8 *358:7 0.0114813
9 *358:5 0.0104715
10 *358:7 *359:13 0.000224391
11 *358:7 *360:17 0.000187407
12 *358:7 *361:13 0.000159155
13 *358:7 *362:13 0.000120934
14 *358:7 *363:13 9.39182e-05
15 *358:7 *364:17 3.22498e-05
16 *358:7 *364:19 0.00547166
17 *358:7 *365:17 8.15165e-06
18 *358:7 *365:19 0.00650153
19 *358:7 *367:13 0.00034813
20 *358:7 *368:17 0.000344214
21 *358:7 *368:19 0.00106234
22 *358:7 *369:7 0.000346371
23 *358:7 *370:15 0.00439803
24 *358:7 *371:21 0.0014498
25 *358:7 *372:15 0.00243058
26 *358:7 *375:13 0.000507625
27 *358:7 *380:13 0.0105659
28 *358:13 *386:21 0.000152614
29 *358:13 *688:21 0.000100169
30 *358:25 *740:mem_slot[0] 0.00453779
31 *358:25 *398:19 0.000758396
32 *358:25 *647:11 0.0106786
33 *358:25 *649:11 0.0183301
34 *358:25 *661:41 4.73713e-05
35 *358:25 *674:15 0.000908615
36 *358:25 *735:17 0.00154529
37 *358:27 *359:27 0.0683105
38 *358:27 *664:27 0
39 *358:27 *704:19 4.01782e-05
40 *69:17 *358:31 0.00102877
41 *70:20 *358:31 0.000406026
42 *102:27 *358:25 0.000645832
43 *279:15 *358:7 0.00136043
44 *281:13 *358:13 0.00010514
45 *281:23 *358:31 0.00229996
46 *352:19 *358:25 0.000155895
47 *352:23 *358:27 0.0686953
48 *352:27 *358:31 0.0186445
49 *353:11 *358:7 0.0166638
50 *354:15 *358:7 0.000966699
51 *354:25 *358:25 0.00207688
52 *357:21 *358:13 0.00074137
53 *357:31 *358:31 0.0354598
*RES
1 *739:la_data_out_o[62] *358:5 1.29733 
2 *358:5 *358:7 65.1672 
3 *358:7 *358:13 39.3864 
4 *358:13 *358:25 48.8464 
5 *358:25 *358:27 881.206 
6 *358:27 *358:29 8 
7 *358:29 *358:31 69.1787 
8 *358:31 la_data_out[62] 37.6525 
*END

*D_NET *359 0.348843
*CONN
*P la_data_out[63] O
*I *739:la_data_out_o[63] O *D ntt_wb_bridge
*CAP
1 la_data_out[63] 0.000766301
2 *739:la_data_out_o[63] 0.000640439
3 *359:31 0.00935163
4 *359:29 0.00858533
5 *359:27 0.026092
6 *359:25 0.026092
7 *359:23 0.00574092
8 *359:15 0.0136676
9 *359:13 0.00856716
10 *359:15 *363:15 0.000298741
11 *359:15 *391:15 0.00443296
12 *359:15 *397:15 0.00025876
13 *359:15 *728:15 0.000113547
14 *359:23 *373:17 0.00107088
15 *359:23 *376:21 0.000146661
16 *359:23 *379:23 0.00102218
17 *359:23 *382:15 0
18 *359:23 *384:23 0.00117184
19 *359:23 *386:25 0.000112764
20 *359:23 *711:15 0.0050951
21 *359:27 *378:19 0
22 *359:27 *383:29 0
23 *359:27 *664:27 0
24 *359:31 *360:85 0.000104089
25 *359:31 *361:23 0.0296874
26 *359:31 *362:23 0.000399274
27 *359:31 *364:27 0.000590884
28 *359:31 *365:27 0.00455717
29 *359:31 *368:49 0.00319253
30 *359:31 *373:31 0.00171785
31 *278:15 *359:15 0.00312487
32 *281:17 *359:15 0.000761195
33 *282:17 *359:15 0.00465428
34 *284:23 *359:31 0.000104089
35 *353:19 *359:23 0
36 *354:15 *359:15 0.0447741
37 *354:31 *359:31 0.00108778
38 *356:19 *359:15 0.0375979
39 *356:29 *359:23 0.00291489
40 *356:39 *359:31 0.0305545
41 *357:25 *359:23 0.00125867
42 *358:7 *359:13 0.000224391
43 *358:27 *359:27 0.0683105
*RES
1 *739:la_data_out_o[63] *359:13 22.159 
2 *359:13 *359:15 85.2357 
3 *359:15 *359:23 48.2328 
4 *359:23 *359:25 8 
5 *359:25 *359:27 885.432 
6 *359:27 *359:29 8 
7 *359:29 *359:31 65.8299 
8 *359:31 la_data_out[63] 24.9754 
*END

*D_NET *360 0.279579
*CONN
*P la_data_out[64] O
*I *739:la_data_out_o[64] O *D ntt_wb_bridge
*CAP
1 la_data_out[64] 0.000733858
2 *739:la_data_out_o[64] 0.000827104
3 *360:87 0.0102772
4 *360:85 0.00988872
5 *360:79 0.0152774
6 *360:77 0.0149321
7 *360:75 0.00120175
8 *360:63 0.00647965
9 *360:41 0.0121816
10 *360:29 0.00958367
11 *360:19 0.01623
12 *360:17 0.0143771
13 *360:19 *362:15 0.00594085
14 *360:19 *689:31 0.0411925
15 *360:19 *728:15 0
16 *360:29 *376:15 0.00138539
17 *360:29 *382:15 0.000747447
18 *360:29 *389:23 0.00121519
19 *360:29 *394:15 0.00121519
20 *360:29 *716:15 0.00105256
21 *360:29 *733:23 0.00105256
22 *360:41 *363:39 0.013552
23 *360:41 *731:41 7.80835e-05
24 *360:41 *731:47 0.00628792
25 *360:41 *737:20 2.8667e-05
26 *360:41 *737:26 0
27 *360:63 *363:59 0.00668556
28 *360:63 *731:41 2.77108e-05
29 *360:63 *737:20 0.00076305
30 *360:75 *363:65 0.000254281
31 *360:75 *363:69 2.11157e-05
32 *360:75 *671:21 0
33 *360:75 *719:11 2.33476e-05
34 *360:79 *364:23 0.0438431
35 *360:79 *369:15 0
36 *360:79 *709:11 0.00157516
37 *360:79 *716:11 0.00179702
38 *360:79 *729:11 0
39 *360:79 *731:11 0
40 *360:79 *733:15 4.82745e-05
41 *360:85 *364:27 0.00114089
42 *360:85 *378:23 0
43 *360:85 *379:31 0.000323913
44 *360:87 *363:75 0.0229815
45 *360:87 *364:27 0.000154692
46 *360:87 *371:39 0
47 *360:87 *373:33 0
48 *360:87 *374:31 0
49 *360:87 *375:29 0
50 *360:87 *378:23 7.76579e-05
51 *277:17 *360:19 0.00255769
52 *354:21 *360:29 0.000556957
53 *354:31 *360:87 0.00865797
54 *357:25 *360:29 0.002059
55 *358:7 *360:17 0.000187407
56 *359:31 *360:85 0.000104089
*RES
1 *739:la_data_out_o[64] *360:17 32.5081 
2 *360:17 *360:19 450.846 
3 *360:19 *360:29 49.7287 
4 *360:29 *360:41 47.9877 
5 *360:41 *360:63 47.0421 
6 *360:63 *360:75 47.2401 
7 *360:75 *360:77 15 
8 *360:77 *360:79 561.109 
9 *360:79 *360:85 27.7911 
10 *360:85 *360:87 303.392 
11 *360:87 la_data_out[64] 31.095 
*END

*D_NET *361 0.350292
*CONN
*P la_data_out[65] O
*I *739:la_data_out_o[65] O *D ntt_wb_bridge
*CAP
1 la_data_out[65] 0.000831554
2 *739:la_data_out_o[65] 0.00200244
3 *361:23 0.00753275
4 *361:21 0.0067012
5 *361:19 0.0162059
6 *361:17 0.0162059
7 *361:15 0.0109724
8 *361:13 0.0129748
9 *361:15 *367:15 0.0482654
10 *361:15 *398:19 0.00012142
11 *361:15 *664:15 0.0342595
12 *361:15 *668:15 0.00016734
13 *361:15 *677:27 2.64181e-05
14 *361:15 *695:23 0.00731501
15 *361:15 *704:23 0.0110075
16 *361:15 *712:15 0.00063709
17 *361:15 *717:15 0.00922926
18 *361:15 *727:31 0.00145183
19 *361:15 *735:17 0.00246295
20 *361:19 la_data_out[82] 0.0233626
21 *361:19 *365:23 0
22 *361:19 *376:27 0.0690798
23 *361:19 *379:27 5.96035e-05
24 *361:19 *668:19 0.000213249
25 *361:19 *699:11 0.00317983
26 *361:19 *733:19 0
27 *361:23 *362:23 0.0279341
28 *361:23 *370:29 0.00302475
29 *361:23 *372:23 0.00187388
30 *354:25 *361:15 0.00334736
31 *358:7 *361:13 0.000159155
32 *359:31 *361:23 0.0296874
*RES
1 *739:la_data_out_o[65] *361:13 47.2967 
2 *361:13 *361:15 98.0299 
3 *361:15 *361:17 8 
4 *361:17 *361:19 895.996 
5 *361:19 *361:21 8 
6 *361:21 *361:23 56.6421 
7 *361:23 la_data_out[65] 25.6796 
*END

*D_NET *362 0.349173
*CONN
*P la_data_out[66] O
*I *739:la_data_out_o[66] O *D ntt_wb_bridge
*CAP
1 la_data_out[66] 0.000860134
2 *739:la_data_out_o[66] 0.0010458
3 *362:23 0.011604
4 *362:21 0.0107439
5 *362:19 0.0110136
6 *362:17 0.0110136
7 *362:15 0.0134175
8 *362:13 0.0144633
9 *362:15 *374:15 0.00216558
10 *362:15 *385:15 0.000521138
11 *362:15 *387:15 0.000767905
12 *362:15 *390:15 0.0340998
13 *362:15 *689:31 0.0102241
14 *362:15 *726:15 0.00260283
15 *362:15 *729:15 0.00885576
16 *362:15 *736:15 0.00211281
17 *362:19 *373:21 1.28759e-05
18 *362:19 *374:19 0.0683264
19 *362:19 *375:17 0.0676852
20 *362:19 *710:19 0.000227346
21 *362:23 *368:47 0.000120171
22 *362:23 *371:37 0.00156895
23 *362:23 *374:29 0.00110513
24 *362:23 *376:45 0.000510799
25 *137:13 *362:23 0
26 *277:17 *362:15 0.0243949
27 *357:15 *362:15 0.0153143
28 *358:7 *362:13 0.000120934
29 *359:31 *362:23 0.000399274
30 *360:19 *362:15 0.00594085
31 *361:23 *362:23 0.0279341
*RES
1 *739:la_data_out_o[66] *362:13 25.3556 
2 *362:13 *362:15 98.2875 
3 *362:15 *362:17 8 
4 *362:17 *362:19 873.459 
5 *362:19 *362:21 8 
6 *362:21 *362:23 54.8389 
7 *362:23 la_data_out[66] 26.3839 
*END

*D_NET *363 0.276969
*CONN
*P la_data_out[67] O
*I *739:la_data_out_o[67] O *D ntt_wb_bridge
*CAP
1 la_data_out[67] 0.000750897
2 *739:la_data_out_o[67] 0.000561076
3 *363:75 0.00398176
4 *363:73 0.00323086
5 *363:71 0.0141909
6 *363:69 0.0156163
7 *363:65 0.00169289
8 *363:59 0.00531784
9 *363:39 0.0119271
10 *363:25 0.00728132
11 *363:15 0.0108078
12 *363:13 0.0109644
13 *363:15 *364:19 0
14 *363:15 *370:15 0
15 *363:15 *372:15 0.0015295
16 *363:15 *391:15 0.00510147
17 *363:15 *393:15 0.000658248
18 *363:15 *395:15 0.000897301
19 *363:15 *397:15 0.0217751
20 *363:15 *530:15 1.89135e-05
21 *363:15 *728:15 0.00698691
22 *363:25 *380:13 0.000272618
23 *363:25 *391:21 0
24 *363:25 *393:21 3.73755e-05
25 *363:39 *666:15 3.76422e-06
26 *363:39 *693:11 0.000323096
27 *363:39 *696:11 0.00014756
28 *363:39 *737:20 0.00119794
29 *363:39 *737:26 0.00320539
30 *363:59 *739:mem_rdata_i[13] 2.27706e-06
31 *363:59 *693:11 0.000305409
32 *363:59 *696:11 0.000138351
33 *363:59 *701:12 0.00121787
34 *363:59 *711:11 0.000107313
35 *363:59 *737:20 0.00134927
36 *363:65 *739:mem_rdata_i[2] 0
37 *363:69 *701:12 0.00049723
38 *363:69 *711:11 0.000352141
39 *363:69 *719:11 0.00128444
40 *363:71 *697:11 0
41 *363:71 *701:8 0.000530308
42 *363:71 *711:11 0.00178593
43 *363:75 *364:27 0.0212421
44 *76:19 *363:71 0.0328346
45 *79:17 *363:71 0.0033412
46 *79:23 *363:71 0.000242562
47 *114:17 *363:71 0.00928131
48 *278:15 *363:15 0.0177822
49 *279:15 *363:25 0.000137281
50 *281:17 *363:15 0.000411122
51 *298:19 *363:25 5.6895e-05
52 *354:15 *363:15 0.00257956
53 *356:19 *363:15 0.00403638
54 *356:31 *363:69 0
55 *356:31 *363:71 0
56 *356:35 *363:71 0
57 *356:39 *363:75 0.00508802
58 *358:7 *363:13 9.39182e-05
59 *359:15 *363:15 0.000298741
60 *360:41 *363:39 0.013552
61 *360:63 *363:59 0.00668556
62 *360:75 *363:65 0.000254281
63 *360:75 *363:69 2.11157e-05
64 *360:87 *363:75 0.0229815
*RES
1 *739:la_data_out_o[67] *363:13 28.5498 
2 *363:13 *363:15 486.579 
3 *363:15 *363:25 35.0186 
4 *363:25 *363:39 45.1243 
5 *363:39 *363:59 46.5979 
6 *363:59 *363:65 16.6141 
7 *363:65 *363:69 44.7636 
8 *363:69 *363:71 517.992 
9 *363:71 *363:73 15 
10 *363:73 *363:75 245.506 
11 *363:75 la_data_out[67] 31.4471 
*END

*D_NET *364 0.296189
*CONN
*P la_data_out[68] O
*I *739:la_data_out_o[68] O *D ntt_wb_bridge
*CAP
1 la_data_out[68] 0.000781567
2 *739:la_data_out_o[68] 0.000543242
3 *364:27 0.0040162
4 *364:25 0.00323463
5 *364:23 0.0194462
6 *364:21 0.0194462
7 *364:19 0.00745611
8 *364:17 0.00799936
9 *364:19 *365:19 0.0454855
10 *364:19 *370:15 0.0422131
11 *364:23 *739:busy_i 7.6745e-05
12 *364:23 *739:mem_rdata_i[11] 0.000215048
13 *364:23 *739:mem_rdata_i[12] 5.67049e-05
14 *364:23 *739:mem_rdata_i[13] 4.60289e-05
15 *364:23 *739:mem_rdata_i[2] 4.60289e-05
16 *364:23 *739:mem_rdata_i[3] 2.26212e-05
17 *364:23 *372:19 0
18 *364:23 *647:31 0.000158665
19 *364:23 *661:43 0.000531256
20 *364:23 *675:39 4.94016e-05
21 *364:23 *689:35 0.0101858
22 *364:23 *716:11 0.00134049
23 *364:23 *734:11 0.0319647
24 *364:27 *365:27 0.0210075
25 *364:27 *379:31 2.50118e-05
26 *279:15 *364:19 0.00215146
27 *298:19 *364:19 0.00086134
28 *353:11 *364:19 0.000596253
29 *356:39 *364:27 0.00375645
30 *358:7 *364:17 3.22498e-05
31 *358:7 *364:19 0.00547166
32 *359:31 *364:27 0.000590884
33 *360:79 *364:23 0.0438431
34 *360:85 *364:27 0.00114089
35 *360:87 *364:27 0.000154692
36 *363:15 *364:19 0
37 *363:75 *364:27 0.0212421
*RES
1 *739:la_data_out_o[68] *364:17 26.0886 
2 *364:17 *364:19 506.112 
3 *364:19 *364:21 15 
4 *364:21 *364:23 868.881 
5 *364:23 *364:25 15 
6 *364:25 *364:27 242.647 
7 *364:27 la_data_out[68] 31.7993 
*END

*D_NET *365 0.321735
*CONN
*P la_data_out[69] O
*I *739:la_data_out_o[69] O *D ntt_wb_bridge
*CAP
1 la_data_out[69] 0.000812237
2 *739:la_data_out_o[69] 0.00038517
3 *365:27 0.00437421
4 *365:25 0.00356198
5 *365:23 0.0114371
6 *365:21 0.0114371
7 *365:19 0.00841839
8 *365:17 0.00880356
9 *365:17 *367:13 0
10 *365:19 *368:19 0.0209927
11 *365:19 *370:15 0.000499726
12 *365:19 *380:13 0.000814261
13 *365:19 *530:15 2.69815e-05
14 *365:23 *739:mem_rdata_i[30] 0.000824084
15 *365:23 *371:27 0.00420891
16 *365:23 *381:29 0.0677832
17 *365:23 *733:19 0.0594738
18 *365:27 *368:47 1.12268e-05
19 *365:27 *368:49 0.0179721
20 *365:27 *379:31 0.000193095
21 *102:23 *365:23 0.0119719
22 *284:23 *365:27 0.000623479
23 *288:19 *365:19 0.000812491
24 *292:23 *365:27 0.000541752
25 *298:19 *365:19 0.000432412
26 *299:15 *365:19 0.00739162
27 *301:19 *365:19 0.000371524
28 *358:7 *365:17 8.15165e-06
29 *358:7 *365:19 0.00650153
30 *359:31 *365:27 0.00455717
31 *361:19 *365:23 0
32 *364:19 *365:19 0.0454855
33 *364:27 *365:27 0.0210075
*RES
1 *739:la_data_out_o[69] *365:17 27.4461 
2 *365:17 *365:19 510.876 
3 *365:19 *365:21 15 
4 *365:21 *365:23 868.177 
5 *365:23 *365:25 15 
6 *365:25 *365:27 236.454 
7 *365:27 la_data_out[69] 32.1514 
*END

*D_NET *366 0.153987
*CONN
*P la_data_out[6] O
*I *739:la_data_out_o[6] O *D ntt_wb_bridge
*CAP
1 la_data_out[6] 0.0387674
2 *739:la_data_out_o[6] 0.00243906
3 *366:29 0.0387674
4 *366:27 0.0120866
5 *366:25 0.013778
6 *366:21 0.00413037
7 *366:21 *399:19 0.00324721
8 *366:25 *388:25 0.000661906
9 *366:25 *399:25 0
10 *126:29 *366:27 0.0303763
11 *272:25 *366:25 0.000328876
12 *294:19 *366:25 0.000148435
13 *310:17 *366:21 0.000461965
14 *316:19 *366:21 0.000816621
15 *317:15 *366:21 0.000928006
16 *318:15 *366:21 0.000356243
17 *320:15 *366:21 0.000350014
18 *324:19 *366:25 0.000141169
19 *327:27 *366:25 0
20 *333:15 *366:21 0.00427348
21 *335:23 *366:25 0.000161888
22 *337:17 *366:21 0.00163827
23 *351:33 *366:25 0.000127524
24 *355:13 *366:21 0
*RES
1 *739:la_data_out_o[6] *366:21 45.5194 
2 *366:21 *366:25 13.1333 
3 *366:25 *366:27 58.66 
4 *366:27 *366:29 8 
5 *366:29 la_data_out[6] 860.005 
*END

*D_NET *367 0.258969
*CONN
*P la_data_out[70] O
*I *739:la_data_out_o[70] O *D ntt_wb_bridge
*CAP
1 la_data_out[70] 0.000623608
2 *739:la_data_out_o[70] 0.0023847
3 *367:23 0.00861743
4 *367:19 0.0310357
5 *367:17 0.0230419
6 *367:15 0.0105394
7 *367:13 0.0129241
8 *367:15 *668:15 0.0135443
9 *367:15 *696:15 0.00844696
10 *367:15 *712:15 0.00975558
11 *367:15 *719:15 0.00414655
12 *367:15 *727:23 0.00214794
13 *367:15 *727:31 0.00566085
14 *367:19 *370:19 0.00020159
15 *367:19 *371:27 0
16 *367:19 *373:31 0
17 *367:19 *374:29 0
18 *367:19 *375:27 6.02477e-05
19 *367:19 *647:23 0.00387776
20 *367:19 *649:15 0
21 *367:23 *369:21 0.0162889
22 *367:23 *371:39 0.0024934
23 *367:23 *373:33 0.00097272
24 *367:23 *374:31 0.000772074
25 *367:23 *375:29 0.000180268
26 *281:19 *367:19 0
27 *282:19 *367:19 0.0191371
28 *292:17 *367:19 0
29 *354:31 *367:23 0.00200094
30 *357:27 *367:19 0.0315017
31 *358:7 *367:13 0.00034813
32 *361:15 *367:15 0.0482654
33 *365:17 *367:13 0
*RES
1 *739:la_data_out_o[70] *367:13 48.7477 
2 *367:13 *367:15 89.0139 
3 *367:15 *367:17 8 
4 *367:17 *367:19 900.222 
5 *367:19 *367:23 46.7819 
6 *367:23 la_data_out[70] 22.1582 
*END

*D_NET *368 0.259326
*CONN
*P la_data_out[71] O
*I *739:la_data_out_o[71] O *D ntt_wb_bridge
*CAP
1 la_data_out[71] 0.000855967
2 *739:la_data_out_o[71] 0.000522661
3 *368:49 0.00380846
4 *368:47 0.00372448
5 *368:39 0.0188185
6 *368:37 0.0180465
7 *368:35 0.0016339
8 *368:33 0.00256739
9 *368:25 0.00138895
10 *368:19 0.0144943
11 *368:17 0.0145615
12 *368:19 *371:21 0.000826576
13 *368:19 *380:13 0.00942073
14 *368:33 *391:23 6.08617e-05
15 *368:35 *391:23 0.0047828
16 *368:39 *375:17 0.0672578
17 *368:39 *378:19 0
18 *368:39 *710:19 0.0309114
19 *368:47 *370:27 0.000286737
20 *368:47 *376:41 0.000123357
21 *368:49 *370:27 5.05713e-05
22 *368:49 *370:29 0.014315
23 *284:13 *368:19 0
24 *284:23 *368:47 0.00103061
25 *293:13 *368:19 0
26 *297:13 *368:33 0.00170521
27 *297:13 *368:35 0.00228036
28 *298:29 *368:35 0.000414334
29 *299:15 *368:19 0.00135904
30 *301:19 *368:25 0.000382897
31 *358:7 *368:17 0.000344214
32 *358:7 *368:19 0.00106234
33 *359:31 *368:49 0.00319253
34 *362:23 *368:47 0.000120171
35 *365:19 *368:19 0.0209927
36 *365:27 *368:47 1.12268e-05
37 *365:27 *368:49 0.0179721
*RES
1 *739:la_data_out_o[71] *368:17 25.9953 
2 *368:17 *368:19 422.261 
3 *368:19 *368:25 37.8921 
4 *368:25 *368:33 28.9171 
5 *368:33 *368:35 53.505 
6 *368:35 *368:37 15 
7 *368:37 *368:39 858.317 
8 *368:39 *368:47 37.4543 
9 *368:47 *368:49 192.146 
10 *368:49 la_data_out[71] 32.5036 
*END

*D_NET *369 0.300484
*CONN
*P la_data_out[72] O
*I *739:la_data_out_o[72] O *D ntt_wb_bridge
*CAP
1 la_data_out[72] 0.000665818
2 *739:la_data_out_o[72] 0.000172165
3 *369:21 0.0037764
4 *369:15 0.0163626
5 *369:13 0.0151188
6 *369:7 0.0109907
7 *369:5 0.00929614
8 *369:7 *370:13 0.000487866
9 *369:7 *371:21 0.00151041
10 *369:7 *371:23 0.000966192
11 *369:7 *372:13 0.000211559
12 *369:7 *373:15 0.000291838
13 *369:7 *374:13 0.000281523
14 *369:7 *375:11 2.33764e-05
15 *369:7 *375:13 0.0389921
16 *369:7 *376:13 0.000162173
17 *369:7 *378:13 9.82905e-05
18 *369:7 *381:13 0.000992703
19 *369:7 *381:27 0.000404748
20 *369:7 *383:13 0.0325713
21 *369:13 *371:23 0.00279246
22 *369:13 *375:13 0.000865259
23 *369:13 *392:21 0.000112764
24 *369:15 *372:19 0.0674601
25 *369:15 *373:31 0
26 *369:15 *661:43 0.00337335
27 *369:15 *735:11 0.0578606
28 *369:21 *375:29 0.000582107
29 *284:17 *369:15 0
30 *288:23 *369:13 0.000130187
31 *293:13 *369:7 0.00100148
32 *302:17 *369:15 0
33 *354:31 *369:21 0.0162935
34 *358:7 *369:7 0.000346371
35 *360:79 *369:15 0
36 *367:23 *369:21 0.0162889
*RES
1 *739:la_data_out_o[72] *369:5 0.662667 
2 *369:5 *369:7 80.7856 
3 *369:7 *369:13 13.8184 
4 *369:13 *369:15 865.712 
5 *369:15 *369:21 46.968 
6 *369:21 la_data_out[72] 14.8625 
*END

*D_NET *370 0.303978
*CONN
*P la_data_out[73] O
*I *739:la_data_out_o[73] O *D ntt_wb_bridge
*CAP
1 la_data_out[73] 0.000899725
2 *739:la_data_out_o[73] 0.000816055
3 *370:29 0.00337373
4 *370:27 0.00280493
5 *370:19 0.013772
6 *370:17 0.0134411
7 *370:15 0.00659171
8 *370:13 0.00740776
9 *370:15 *372:15 0.041268
10 *370:15 *530:15 0.000405167
11 *370:19 *371:27 0.0665564
12 *370:19 *733:19 0.0001913
13 *370:27 *376:41 0.000422411
14 *370:29 *372:23 0.0108359
15 *370:29 *376:41 2.39778e-06
16 *279:15 *370:15 0.00248564
17 *298:19 *370:15 0.000753233
18 *353:11 *370:15 0.000191477
19 *357:27 *370:19 0.0662814
20 *358:7 *370:15 0.00439803
21 *361:23 *370:29 0.00302475
22 *363:15 *370:15 0
23 *364:19 *370:15 0.0422131
24 *365:19 *370:15 0.000499726
25 *367:19 *370:19 0.00020159
26 *368:47 *370:27 0.000286737
27 *368:49 *370:27 5.05713e-05
28 *368:49 *370:29 0.014315
29 *369:7 *370:13 0.000487866
*RES
1 *739:la_data_out_o[73] *370:13 29.3848 
2 *370:13 *370:15 473.715 
3 *370:15 *370:17 15 
4 *370:17 *370:19 866.416 
5 *370:19 *370:27 25.295 
6 *370:27 *370:29 153.079 
7 *370:29 la_data_out[73] 32.8557 
*END

*D_NET *371 0.287811
*CONN
*P la_data_out[74] O
*I *739:la_data_out_o[74] O *D ntt_wb_bridge
*CAP
1 la_data_out[74] 0.000572084
2 *739:la_data_out_o[74] 0.0020169
3 *371:39 0.00483246
4 *371:37 0.00559538
5 *371:27 0.013684
6 *371:25 0.012349
7 *371:23 0.0159009
8 *371:21 0.0179178
9 *371:21 *375:13 0.00137552
10 *371:21 *378:13 0.000164186
11 *371:23 *375:13 0.000156407
12 *371:23 *378:13 1.68715e-05
13 *371:23 *379:13 0.000106406
14 *371:23 *380:11 0.000212358
15 *371:23 *381:11 0.000206459
16 *371:23 *381:13 0.0344275
17 *371:23 *381:27 0.000190523
18 *371:23 *382:13 0.0005772
19 *371:23 *383:11 0.000194661
20 *371:23 *384:13 0.00045785
21 *371:23 *385:13 0.000398175
22 *371:23 *386:15 0.000291172
23 *371:23 *387:13 0.000278825
24 *371:23 *389:13 0.000219151
25 *371:23 *390:13 0.000159476
26 *371:23 *391:13 9.9801e-05
27 *371:23 *392:11 4.45089e-05
28 *371:23 *393:13 0.000359078
29 *371:23 *394:13 0.000597179
30 *371:23 *395:13 0.000571026
31 *371:23 *396:13 0.000494245
32 *371:23 *397:13 0.000451677
33 *371:23 *398:13 0.000392002
34 *371:23 *529:13 0.000169765
35 *371:23 *530:13 0.000134783
36 *371:23 *531:17 0.000648141
37 *371:27 *739:mem_rdata_i[30] 0.000936704
38 *371:27 *733:19 0.0590787
39 *371:37 la_data_out[81] 0
40 *371:39 *373:33 0.00842776
41 *102:23 *371:27 0.00678353
42 *137:13 *371:37 0
43 *273:13 *371:23 0.000304636
44 *274:13 *371:23 0.000177996
45 *275:13 *371:23 0.000212977
46 *276:13 *371:23 0.000153303
47 *277:15 *371:23 7.71426e-05
48 *278:13 *371:23 0.00011087
49 *279:13 *371:23 0.000684203
50 *280:13 *371:23 0.000336865
51 *281:13 *371:23 0.000564853
52 *282:13 *371:23 0.000505178
53 *284:11 *371:23 0.000194896
54 *285:11 *371:23 0.000176965
55 *285:13 *371:23 0.00184623
56 *286:11 *371:23 8.06172e-05
57 *286:13 *371:23 0.0020175
58 *287:11 *371:23 0.000119943
59 *287:13 *371:23 0.00139253
60 *288:19 *371:23 0.000112148
61 *289:11 *371:23 6.29208e-05
62 *289:13 *371:23 0.000230791
63 *290:11 *371:23 7.07859e-05
64 *290:13 *371:23 0.000110183
65 *291:11 *371:23 5.09072e-05
66 *292:11 *371:23 0.000158285
67 *292:13 *371:23 0.00138793
68 *293:11 *371:23 0.000197611
69 *295:13 *371:23 0.000322038
70 *296:13 *371:23 0.000499005
71 *297:11 *371:23 0.000110381
72 *298:19 *371:23 0.000379655
73 *298:31 *371:23 0.000491437
74 *299:13 *371:23 0.000316287
75 *300:13 *371:23 0.000260306
76 *301:19 *371:23 0.000200631
77 *302:11 *371:23 2.96653e-05
78 *358:7 *371:21 0.0014498
79 *360:87 *371:39 0
80 *362:23 *371:37 0.00156895
81 *365:23 *371:27 0.00420891
82 *367:19 *371:27 0
83 *367:23 *371:39 0.0024934
84 *368:19 *371:21 0.000826576
85 *369:7 *371:21 0.00151041
86 *369:7 *371:23 0.000966192
87 *369:13 *371:23 0.00279246
88 *370:19 *371:27 0.0665564
*RES
1 *739:la_data_out_o[74] *371:21 49.8749 
2 *371:21 *371:23 76.4773 
3 *371:23 *371:25 8 
4 *371:25 *371:27 860.782 
5 *371:27 *371:37 40.3688 
6 *371:37 *371:39 126.875 
7 *371:39 la_data_out[74] 27.9257 
*END

*D_NET *372 0.232308
*CONN
*P la_data_out[75] O
*I *739:la_data_out_o[75] O *D ntt_wb_bridge
*CAP
1 la_data_out[75] 0.000940751
2 *739:la_data_out_o[75] 0.000529715
3 *372:23 0.0036925
4 *372:21 0.00275174
5 *372:19 0.0201651
6 *372:17 0.0201651
7 *372:15 0.00864133
8 *372:13 0.00917104
9 *372:15 *393:15 0.0137723
10 *372:15 *530:15 0.0033318
11 *372:19 *739:busy_i 0.000215048
12 *372:19 *739:mem_rdata_i[12] 0.000186305
13 *372:19 *739:mem_rdata_i[13] 0.000131661
14 *372:19 *739:mem_rdata_i[2] 0.000131661
15 *372:19 *739:mem_rdata_i[3] 7.57449e-05
16 *372:19 *658:13 0.000298434
17 *372:19 *661:43 0.0029416
18 *372:19 *675:39 0.000158835
19 *372:19 *695:13 0.000242843
20 *372:19 *704:13 0.000131661
21 *372:19 *710:13 0.000103385
22 *372:19 *714:13 0.000214959
23 *372:19 *715:13 0.000186631
24 *372:19 *734:11 0.0107018
25 *372:19 *735:11 0.00017767
26 *372:23 *376:41 0.000320276
27 *372:23 *376:45 0.00261908
28 *279:15 *372:15 0.00354554
29 *353:11 *372:15 0.00115369
30 *358:7 *372:15 0.00243058
31 *361:23 *372:23 0.00187388
32 *363:15 *372:15 0.0015295
33 *364:23 *372:19 0
34 *369:7 *372:13 0.000211559
35 *369:15 *372:19 0.0674601
36 *370:15 *372:15 0.041268
37 *370:29 *372:23 0.0108359
*RES
1 *739:la_data_out_o[75] *372:13 29.1769 
2 *372:13 *372:15 452.752 
3 *372:15 *372:17 15 
4 *372:17 *372:19 868.177 
5 *372:19 *372:21 15 
6 *372:21 *372:23 115.917 
7 *372:23 la_data_out[75] 33.2079 
*END

*D_NET *373 0.217988
*CONN
*P la_data_out[76] O
*I *739:la_data_out_o[76] O *D ntt_wb_bridge
*CAP
1 la_data_out[76] 0.000597126
2 *739:la_data_out_o[76] 0.00168283
3 *373:33 0.00235566
4 *373:31 0.0024941
5 *373:21 0.028885
6 *373:19 0.0281494
7 *373:17 0.00998555
8 *373:15 0.0116684
9 *373:15 *702:29 0.000130159
10 *373:17 *379:15 0.00499018
11 *373:17 *386:21 0.0153522
12 *373:17 *649:11 0.00176555
13 *373:17 *675:27 0.00335022
14 *373:17 *676:23 0.001962
15 *373:17 *678:11 0.0011812
16 *373:17 *687:11 0.0250788
17 *373:17 *702:31 2.81221e-05
18 *373:17 *725:23 0.00349656
19 *373:21 *374:19 0.0355259
20 *373:21 *375:17 0
21 *373:21 *531:21 0
22 *373:21 *674:21 0.00119388
23 *373:21 *690:23 0.000610944
24 *373:21 *710:19 0
25 *373:31 *381:33 0.000120171
26 *373:33 *374:31 0.00771151
27 *105:19 *373:21 0
28 *292:23 *373:31 0.000104089
29 *302:17 *373:31 4.5745e-05
30 *353:19 *373:17 0.00119625
31 *354:31 *373:31 0.00172537
32 *356:29 *373:17 0.014107
33 *359:23 *373:17 0.00107088
34 *359:31 *373:31 0.00171785
35 *360:87 *373:33 0
36 *362:19 *373:21 1.28759e-05
37 *367:19 *373:31 0
38 *367:23 *373:33 0.00097272
39 *369:7 *373:15 0.000291838
40 *369:15 *373:31 0
41 *371:39 *373:33 0.00842776
*RES
1 *739:la_data_out_o[76] *373:15 41.0831 
2 *373:15 *373:17 83.8619 
3 *373:17 *373:19 8 
4 *373:19 *373:21 888.249 
5 *373:21 *373:31 37.4571 
6 *373:31 *373:33 101.148 
7 *373:33 la_data_out[76] 28.2779 
*END

*D_NET *374 0.267771
*CONN
*P la_data_out[77] O
*I *739:la_data_out_o[77] O *D ntt_wb_bridge
*CAP
1 la_data_out[77] 0.000622168
2 *739:la_data_out_o[77] 0.00106686
3 *374:31 0.00220324
4 *374:29 0.00237672
5 *374:19 0.0141903
6 *374:17 0.0133947
7 *374:15 0.0105118
8 *374:13 0.0115786
9 *374:15 *378:15 0.0412318
10 *374:15 *385:15 0.0357878
11 *374:15 *657:23 0
12 *374:15 *716:23 0
13 *374:15 *737:34 0.00738111
14 *374:29 la_data_out[82] 0
15 *374:29 *375:27 0
16 *374:29 *381:29 0.000193336
17 *374:31 *375:29 0.00641872
18 *374:31 *378:23 0.000171247
19 *275:15 *374:15 0.00457374
20 *354:31 *374:31 0.000180621
21 *360:87 *374:31 0
22 *362:15 *374:15 0.00216558
23 *362:19 *374:19 0.0683264
24 *362:23 *374:29 0.00110513
25 *367:19 *374:29 0
26 *367:23 *374:31 0.000772074
27 *369:7 *374:13 0.000281523
28 *373:21 *374:19 0.0355259
29 *373:33 *374:31 0.00771151
*RES
1 *739:la_data_out_o[77] *374:13 30.5792 
2 *374:13 *374:15 82.7456 
3 *374:15 *374:17 8 
4 *374:17 *374:19 875.572 
5 *374:19 *374:29 38.72 
6 *374:29 *374:31 90.19 
7 *374:31 la_data_out[77] 28.63 
*END

*D_NET *375 0.274753
*CONN
*P la_data_out[78] O
*I *739:la_data_out_o[78] O *D ntt_wb_bridge
*CAP
1 la_data_out[78] 0.000651154
2 *739:la_data_out_o[78] 0.000386308
3 *375:29 0.00214107
4 *375:27 0.00215591
5 *375:17 0.011719
6 *375:15 0.011053
7 *375:13 0.0101356
8 *375:11 0.0105219
9 *375:13 *380:13 0.00478203
10 *375:13 *381:27 0.00386854
11 *375:13 *392:13 0.0269273
12 *375:13 *531:17 0.000103237
13 *375:17 *378:19 0
14 *375:17 *710:19 0.000193634
15 *375:27 *378:23 0.00037871
16 *375:29 *378:23 0.00294262
17 *279:15 *375:13 7.30313e-05
18 *284:13 *375:13 0.00110297
19 *298:31 *375:13 0
20 *354:31 *375:27 0.00151227
21 *358:7 *375:13 0.000507625
22 *360:87 *375:29 0
23 *362:19 *375:17 0.0676852
24 *367:19 *375:27 6.02477e-05
25 *367:23 *375:29 0.000180268
26 *368:39 *375:17 0.0672578
27 *369:7 *375:11 2.33764e-05
28 *369:7 *375:13 0.0389921
29 *369:13 *375:13 0.000865259
30 *369:21 *375:29 0.000582107
31 *371:21 *375:13 0.00137552
32 *371:23 *375:13 0.000156407
33 *373:21 *375:17 0
34 *374:29 *375:27 0
35 *374:31 *375:29 0.00641872
*RES
1 *739:la_data_out_o[78] *375:11 20.7515 
2 *375:11 *375:13 81.6293 
3 *375:13 *375:15 8 
4 *375:15 *375:17 867.825 
5 *375:17 *375:27 34.915 
6 *375:27 *375:29 68.7507 
7 *375:29 la_data_out[78] 28.9821 
*END

*D_NET *376 0.274347
*CONN
*P la_data_out[79] O
*I *739:la_data_out_o[79] O *D ntt_wb_bridge
*CAP
1 la_data_out[79] 0.00100189
2 *739:la_data_out_o[79] 0.00132002
3 *376:45 0.00180692
4 *376:41 0.00218181
5 *376:27 0.012733
6 *376:25 0.0113562
7 *376:23 0.00282751
8 *376:21 0.00304493
9 *376:15 0.00865204
10 *376:13 0.00975464
11 *376:15 *378:15 0
12 *376:15 *382:15 0
13 *376:15 *384:19 0.0196292
14 *376:15 *389:23 0.00130132
15 *376:15 *394:15 0.00115028
16 *376:15 *657:23 0.00708296
17 *376:15 *676:31 0.00499397
18 *376:15 *711:15 0.00816837
19 *376:15 *716:15 0.00240386
20 *376:15 *725:15 0.00619626
21 *376:15 *733:23 0.00181708
22 *376:23 *379:23 0.00786424
23 *376:23 *675:27 0
24 *376:27 *379:27 0.0690552
25 *376:27 *668:19 1.12487e-05
26 *376:27 *699:11 0.00317983
27 *357:25 *376:15 0.0120422
28 *359:23 *376:21 0.000146661
29 *360:29 *376:15 0.00138539
30 *361:19 *376:27 0.0690798
31 *362:23 *376:45 0.000510799
32 *368:47 *376:41 0.000123357
33 *369:7 *376:13 0.000162173
34 *370:27 *376:41 0.000422411
35 *370:29 *376:41 2.39778e-06
36 *372:23 *376:41 0.000320276
37 *372:23 *376:45 0.00261908
*RES
1 *739:la_data_out_o[79] *376:13 35.997 
2 *376:13 *376:15 63.2539 
3 *376:15 *376:21 26.1382 
4 *376:21 *376:23 86.3786 
5 *376:23 *376:25 15 
6 *376:25 *376:27 883.671 
7 *376:27 *376:41 46.9311 
8 *376:41 *376:45 43.0161 
9 *376:45 la_data_out[79] 18.56 
*END

*D_NET *377 0.131699
*CONN
*P la_data_out[7] O
*I *739:la_data_out_o[7] O *D ntt_wb_bridge
*CAP
1 la_data_out[7] 0.0393569
2 *739:la_data_out_o[7] 0.000995617
3 *377:29 0.0393569
4 *377:27 0.0114464
5 *377:25 0.0116493
6 *377:19 0.00280686
7 *377:17 0.00374356
8 *377:13 0.00213521
9 *118:71 la_data_out[7] 0.00166218
10 *283:13 *377:19 0
11 *294:13 *377:17 0
12 *294:13 *377:19 0
13 *305:21 *377:27 0.00596364
14 *308:13 *377:27 0.00272876
15 *309:13 *377:13 0.000102752
16 *310:17 *377:13 0.00049394
17 *312:13 *377:17 0.000547998
18 *312:13 *377:19 0.000530809
19 *314:13 *377:27 0.00102129
20 *326:15 *377:19 0.000284623
21 *328:15 *377:17 0.00326827
22 *328:15 *377:19 0.00152367
23 *333:15 *377:27 0
24 *338:31 *377:25 0
25 *344:29 *377:27 0.00208065
*RES
1 *739:la_data_out_o[7] *377:13 29.7045 
2 *377:13 *377:17 36.3743 
3 *377:17 *377:19 57.3164 
4 *377:19 *377:25 26.8425 
5 *377:25 *377:27 51.576 
6 *377:27 *377:29 8 
7 *377:29 la_data_out[7] 880.43 
*END

*D_NET *378 0.214827
*CONN
*P la_data_out[80] O
*I *739:la_data_out_o[80] O *D ntt_wb_bridge
*CAP
1 la_data_out[80] 0.000681823
2 *739:la_data_out_o[80] 0.00103988
3 *378:23 0.00216844
4 *378:21 0.00148662
5 *378:19 0.0348902
6 *378:17 0.0348902
7 *378:15 0.0104826
8 *378:13 0.0115225
9 *378:15 *382:15 0.0381445
10 *378:15 *385:15 0.000134983
11 *378:15 *396:15 0.00473746
12 *378:19 *662:31 0.000550082
13 *378:19 *664:27 0.0168363
14 *378:19 *710:19 0.00413721
15 *378:23 *379:31 7.74553e-05
16 *274:15 *378:15 0.00383451
17 *276:15 *378:15 0.0033855
18 *302:23 *378:23 0.000493693
19 *354:31 *378:23 0.000251726
20 *359:27 *378:19 0
21 *360:85 *378:23 0
22 *360:87 *378:23 7.76579e-05
23 *368:39 *378:19 0
24 *369:7 *378:13 9.82905e-05
25 *371:21 *378:13 0.000164186
26 *371:23 *378:13 1.68715e-05
27 *374:15 *378:15 0.0412318
28 *374:31 *378:23 0.000171247
29 *375:17 *378:19 0
30 *375:27 *378:23 0.00037871
31 *375:29 *378:23 0.00294262
32 *376:15 *378:15 0
*RES
1 *739:la_data_out_o[80] *378:13 30.9587 
2 *378:13 *378:15 79.4827 
3 *378:15 *378:17 8 
4 *378:17 *378:19 881.03 
5 *378:19 *378:21 15 
6 *378:21 *378:23 49.6936 
7 *378:23 la_data_out[80] 29.3343 
*END

*D_NET *379 0.227562
*CONN
*P la_data_out[81] O
*I *739:la_data_out_o[81] O *D ntt_wb_bridge
*CAP
1 la_data_out[81] 0.000782382
2 *739:la_data_out_o[81] 0.00147889
3 *379:31 0.00128968
4 *379:27 0.023124
5 *379:25 0.0226167
6 *379:23 0.00173072
7 *379:21 0.0017512
8 *379:15 0.00575774
9 *379:13 0.00721615
10 *379:13 *725:21 8.83425e-05
11 *379:15 *386:21 0.0153522
12 *379:15 *389:21 0.00564899
13 *379:15 *678:11 0.00687071
14 *379:15 *702:23 0.00242171
15 *379:15 *711:15 0.0103136
16 *379:23 *384:23 0.00920322
17 *379:23 *675:27 0
18 *379:23 *711:15 0.000189711
19 *379:27 *668:19 0.0150959
20 *379:27 *699:11 0.00387942
21 *379:31 *381:33 0.000450329
22 *105:19 *379:27 0
23 *292:23 *379:31 0.00031819
24 *302:23 *379:31 0.00107034
25 *354:21 *379:21 2.11157e-05
26 *356:29 *379:15 0.00717313
27 *359:23 *379:23 0.00102218
28 *360:85 *379:31 0.000323913
29 *361:19 *379:27 5.96035e-05
30 *364:27 *379:31 2.50118e-05
31 *365:27 *379:31 0.000193095
32 *371:23 *379:13 0.000106406
33 *371:37 la_data_out[81] 0
34 *373:17 *379:15 0.00499018
35 *376:23 *379:23 0.00786424
36 *376:27 *379:27 0.0690552
37 *378:23 *379:31 7.74553e-05
*RES
1 *739:la_data_out_o[81] *379:13 40.4454 
2 *379:13 *379:15 58.2736 
3 *379:15 *379:21 23.3211 
4 *379:21 *379:23 101.148 
5 *379:23 *379:25 15 
6 *379:25 *379:27 886.841 
7 *379:27 *379:31 36.1079 
8 *379:31 la_data_out[81] 31.095 
*END

*D_NET *380 0.177753
*CONN
*P la_data_out[82] O
*I *739:la_data_out_o[82] O *D ntt_wb_bridge
*CAP
1 la_data_out[82] 0.0296028
2 *739:la_data_out_o[82] 0.000452561
3 *380:15 0.0296028
4 *380:13 0.00963073
5 *380:11 0.0100833
6 la_data_out[82] *381:29 0
7 *380:13 *381:27 0.00386854
8 *380:13 *392:13 0.0269273
9 *380:13 *529:15 0.000251555
10 *380:13 *531:17 0.00157347
11 *102:23 la_data_out[82] 0.005476
12 *279:15 *380:13 0.00260497
13 *288:19 *380:13 0.00442546
14 *298:19 *380:13 0.00114922
15 *301:19 *380:13 0.00267374
16 *358:7 *380:13 0.0105659
17 *361:19 la_data_out[82] 0.0233626
18 *363:25 *380:13 0.000272618
19 *365:19 *380:13 0.000814261
20 *368:19 *380:13 0.00942073
21 *371:23 *380:11 0.000212358
22 *374:29 la_data_out[82] 0
23 *375:13 *380:13 0.00478203
*RES
1 *739:la_data_out_o[82] *380:11 22.5857 
2 *380:11 *380:13 73.7296 
3 *380:13 *380:15 8 
4 *380:15 la_data_out[82] 883.951 
*END

*D_NET *381 0.22905
*CONN
*P la_data_out[83] O
*I *739:la_data_out_o[83] O *D ntt_wb_bridge
*CAP
1 la_data_out[83] 0.000742919
2 *739:la_data_out_o[83] 0.00027141
3 *381:33 0.00111108
4 *381:29 0.0252103
5 *381:27 0.0269653
6 *381:13 0.0079095
7 *381:11 0.00605775
8 *381:13 *383:13 0.032579
9 *381:27 *391:21 6.37532e-05
10 *381:27 *397:23 0
11 la_data_out[82] *381:29 0
12 *102:23 *381:29 0.012917
13 *292:23 *381:33 0.00190542
14 *302:23 *381:33 0.000810629
15 *354:27 la_data_out[83] 0
16 *365:23 *381:29 0.0677832
17 *369:7 *381:13 0.000992703
18 *369:7 *381:27 0.000404748
19 *371:23 *381:11 0.000206459
20 *371:23 *381:13 0.0344275
21 *371:23 *381:27 0.000190523
22 *373:31 *381:33 0.000120171
23 *374:29 *381:29 0.000193336
24 *375:13 *381:27 0.00386854
25 *379:31 *381:33 0.000450329
26 *380:13 *381:27 0.00386854
*RES
1 *739:la_data_out_o[83] *381:11 19.0419 
2 *381:11 *381:13 63.5544 
3 *381:13 *381:27 34.9248 
4 *381:27 *381:29 866.945 
5 *381:29 *381:33 35.6314 
6 *381:33 la_data_out[83] 31.4471 
*END

*D_NET *382 0.157454
*CONN
*P la_data_out[84] O
*I *739:la_data_out_o[84] O *D ntt_wb_bridge
*CAP
1 la_data_out[84] 0.0397568
2 *739:la_data_out_o[84] 0.0012618
3 *382:17 0.0397568
4 *382:15 0.0157684
5 *382:13 0.0170302
6 la_data_out[84] *646:59 0
7 la_data_out[84] *658:27 0
8 la_data_out[84] *663:97 0.000838823
9 la_data_out[84] *673:55 0
10 la_data_out[84] *682:103 0
11 *382:15 *384:19 0.00263905
12 *382:15 *385:15 0.000620113
13 *382:15 *396:15 0.00012144
14 *382:15 *702:21 6.07327e-06
15 *382:15 *737:26 4.51815e-05
16 *274:15 *382:15 0.000140203
17 *357:25 *382:15 0
18 *359:23 *382:15 0
19 *360:29 *382:15 0.000747447
20 *371:23 *382:13 0.0005772
21 *376:15 *382:15 0
22 *378:15 *382:15 0.0381445
*RES
1 *739:la_data_out_o[84] *382:13 34.25 
2 *382:13 *382:15 77.336 
3 *382:15 *382:17 8 
4 *382:17 la_data_out[84] 895.924 
*END

*D_NET *383 0.191704
*CONN
*P la_data_out[85] O
*I *739:la_data_out_o[85] O *D ntt_wb_bridge
*CAP
1 la_data_out[85] 0.000778322
2 *739:la_data_out_o[85] 0.000305193
3 *383:39 0.00171442
4 *383:35 0.00104869
5 *383:29 0.00341257
6 *383:27 0.00334807
7 *383:25 0.028562
8 *383:23 0.0285139
9 *383:21 0.00191499
10 *383:19 0.00193415
11 *383:13 0.00555325
12 *383:11 0.00583928
13 *383:19 *392:19 2.26497e-05
14 *383:21 *392:21 0.00637011
15 *383:25 *688:27 0.0204838
16 *383:25 *704:19 0.000361157
17 *383:25 *706:11 0.00676245
18 *383:25 *707:11 0
19 *284:13 *383:13 0.00111338
20 *284:13 *383:21 0.00383255
21 *284:25 *383:35 0.000137565
22 *284:25 *383:39 0.00301771
23 *293:13 *383:21 0.00133265
24 *352:23 *383:29 0
25 *353:23 *383:25 0
26 *353:23 *383:29 0
27 *354:27 *383:25 0
28 *354:27 *383:29 0
29 *359:27 *383:29 0
30 *369:7 *383:13 0.0325713
31 *371:23 *383:11 0.000194661
32 *381:13 *383:13 0.032579
*RES
1 *739:la_data_out_o[85] *383:11 19.7013 
2 *383:11 *383:13 60.1627 
3 *383:13 *383:19 23.3211 
4 *383:19 *383:21 71.6093 
5 *383:21 *383:23 15 
6 *383:23 *383:25 797.386 
7 *383:25 *383:27 1.09786 
8 *383:27 *383:29 66.7104 
9 *383:29 *383:35 18.2625 
10 *383:35 *383:39 47.3039 
11 *383:39 la_data_out[85] 17.1514 
*END

*D_NET *384 0.175439
*CONN
*P la_data_out[86] O
*I *739:la_data_out_o[86] O *D ntt_wb_bridge
*CAP
1 la_data_out[86] 0.0402023
2 *739:la_data_out_o[86] 0.00140773
3 *384:25 0.0402023
4 *384:23 0.00625971
5 *384:21 0.00625971
6 *384:19 0.00689389
7 *384:13 0.00830162
8 la_data_out[86] *673:47 0
9 *384:19 *389:23 0.00247386
10 *384:19 *394:15 0.0024804
11 *384:19 *676:31 0.000195309
12 *384:19 *716:15 0.00369416
13 *384:19 *733:23 0.0039416
14 *384:23 *386:25 0.00470717
15 *384:23 *675:27 0
16 *384:23 *702:23 0.0137454
17 *384:23 *711:15 0.00136608
18 *115:25 la_data_out[86] 0
19 *279:19 la_data_out[86] 0
20 *356:25 *384:19 0.000206693
21 *359:23 *384:23 0.00117184
22 *371:23 *384:13 0.00045785
23 *376:15 *384:19 0.0196292
24 *379:23 *384:23 0.00920322
25 *382:15 *384:19 0.00263905
*RES
1 *739:la_data_out_o[86] *384:13 37.5549 
2 *384:13 *384:19 48.5462 
3 *384:19 *384:21 15 
4 *384:21 *384:23 244.076 
5 *384:23 *384:25 15 
6 *384:25 la_data_out[86] 902.439 
*END

*D_NET *385 0.203088
*CONN
*P la_data_out[87] O
*I *739:la_data_out_o[87] O *D ntt_wb_bridge
*CAP
1 la_data_out[87] 0.0347173
2 *739:la_data_out_o[87] 0.00109832
3 *385:17 0.0347173
4 *385:15 0.0120771
5 *385:13 0.0131755
6 la_data_out[87] *660:15 0.011463
7 la_data_out[87] *663:87 0.00367604
8 la_data_out[87] *715:19 0.00133763
9 *385:15 *387:15 0.0421305
10 *385:15 *396:15 0.000119639
11 *273:15 *385:15 0.00496225
12 *275:15 *385:15 0.000880803
13 *276:15 *385:15 0.000352695
14 *280:15 *385:15 0.0049177
15 *362:15 *385:15 0.000521138
16 *371:23 *385:13 0.000398175
17 *374:15 *385:15 0.0357878
18 *378:15 *385:15 0.000134983
19 *382:15 *385:15 0.000620113
*RES
1 *739:la_data_out_o[87] *385:13 31.8123 
2 *385:13 *385:15 83.3467 
3 *385:15 *385:17 8 
4 *385:17 la_data_out[87] 893.811 
*END

*D_NET *386 0.178235
*CONN
*P la_data_out[88] O
*I *739:la_data_out_o[88] O *D ntt_wb_bridge
*CAP
1 la_data_out[88] 0.0398473
2 *739:la_data_out_o[88] 0.00167868
3 *386:27 0.0398473
4 *386:25 0.00743221
5 *386:23 0.00743221
6 *386:21 0.00276075
7 *386:15 0.00443942
8 la_data_out[88] *684:15 0
9 la_data_out[88] *692:11 0
10 *386:15 *657:21 2.26497e-05
11 *386:25 *389:23 0
12 *386:25 *657:15 0.000209279
13 *386:25 *673:45 0.000294933
14 *386:25 *676:31 0.000484094
15 *386:25 *678:19 0.0161034
16 *386:25 *702:23 0.0170084
17 *386:25 *711:15 0.00356564
18 *114:35 la_data_out[88] 0.0011401
19 *358:13 *386:21 0.000152614
20 *359:23 *386:25 0.000112764
21 *371:23 *386:15 0.000291172
22 *373:17 *386:21 0.0153522
23 *379:15 *386:21 0.0153522
24 *384:23 *386:25 0.00470717
*RES
1 *739:la_data_out_o[88] *386:15 42.0996 
2 *386:15 *386:21 38.4738 
3 *386:21 *386:23 15 
4 *386:23 *386:25 316.494 
5 *386:25 *386:27 15 
6 *386:27 la_data_out[88] 901.734 
*END

*D_NET *387 0.202413
*CONN
*P la_data_out[89] O
*I *739:la_data_out_o[89] O *D ntt_wb_bridge
*CAP
1 la_data_out[89] 0.0395862
2 *739:la_data_out_o[89] 0.00103366
3 *387:17 0.0395862
4 *387:15 0.0120795
5 *387:13 0.0131131
6 *387:15 *390:15 0.0456232
7 *387:15 *726:15 0.00024288
8 *387:15 *736:15 0.000282171
9 *273:15 *387:15 0.000127564
10 *275:15 *387:15 0.000112629
11 *280:15 *387:15 0.000251423
12 *296:15 *387:15 0.00280053
13 *300:15 *387:15 0.00439669
14 *362:15 *387:15 0.000767905
15 *371:23 *387:13 0.000278825
16 *385:15 *387:15 0.0421305
*RES
1 *739:la_data_out_o[89] *387:13 30.8915 
2 *387:13 *387:15 87.3824 
3 *387:15 *387:17 8 
4 *387:17 la_data_out[89] 893.107 
*END

*D_NET *388 0.139047
*CONN
*P la_data_out[8] O
*I *739:la_data_out_o[8] O *D ntt_wb_bridge
*CAP
1 la_data_out[8] 0.0377763
2 *739:la_data_out_o[8] 0.00314614
3 *388:29 0.0377763
4 *388:27 0.0141603
5 *388:25 0.0166963
6 *388:21 0.00568219
7 *388:25 *399:25 0.000199704
8 *388:27 *632:7 0.00359413
9 *126:25 *388:25 0.00166673
10 *272:25 *388:25 0
11 *305:13 *388:21 0.000107542
12 *307:13 *388:21 0.000100317
13 *309:13 *388:21 0.000115816
14 *310:17 *388:21 0.000581315
15 *312:13 *388:21 0.00244732
16 *317:19 *388:25 0.000461041
17 *318:19 *388:25 0.000520376
18 *319:19 *388:25 0.000359763
19 *321:15 *388:21 0.0008183
20 *321:19 *388:25 0.00039609
21 *324:15 *388:21 0.00123541
22 *324:19 *388:25 0.000204593
23 *325:15 *388:21 0.00103331
24 *326:15 *388:21 0.00025876
25 *326:19 *388:25 0.000161888
26 *327:15 *388:21 0.00103675
27 *328:15 *388:21 0.000290445
28 *333:15 *388:21 0.0020267
29 *335:23 *388:25 0.000204593
30 *337:17 *388:21 0.00307478
31 *344:19 *388:21 0.00225152
32 *366:25 *388:25 0.000661906
*RES
1 *739:la_data_out_o[8] *388:21 46.1369 
2 *388:21 *388:25 16.8144 
3 *388:25 *388:27 51.5331 
4 *388:27 *388:29 8 
5 *388:29 la_data_out[8] 837.468 
*END

*D_NET *389 0.191737
*CONN
*P la_data_out[90] O
*I *739:la_data_out_o[90] O *D ntt_wb_bridge
*CAP
1 la_data_out[90] 0.0343479
2 *739:la_data_out_o[90] 0.00157934
3 *389:25 0.0343479
4 *389:23 0.00862659
5 *389:21 0.00982471
6 *389:13 0.00277746
7 *389:21 *711:15 0.00564899
8 *389:23 *394:15 0.0408278
9 *389:23 *676:31 0.000169444
10 *389:23 *716:15 0.0256957
11 *76:35 la_data_out[90] 0.00409546
12 *78:57 la_data_out[90] 0.0129376
13 *360:29 *389:23 0.00121519
14 *371:23 *389:13 0.000219151
15 *376:15 *389:23 0.00130132
16 *379:15 *389:21 0.00564899
17 *384:19 *389:23 0.00247386
18 *386:25 *389:23 0
*RES
1 *739:la_data_out_o[90] *389:13 39.939 
2 *389:13 *389:21 36.2319 
3 *389:21 *389:23 438.459 
4 *389:23 *389:25 15 
5 *389:25 la_data_out[90] 899.621 
*END

*D_NET *390 0.205742
*CONN
*P la_data_out[91] O
*I *739:la_data_out_o[91] O *D ntt_wb_bridge
*CAP
1 la_data_out[91] 0.0403195
2 *739:la_data_out_o[91] 0.000950127
3 *390:17 0.0403195
4 *390:15 0.0106583
5 *390:13 0.0116084
6 la_data_out[91] *658:51 0
7 la_data_out[91] *663:65 0.00110541
8 *390:15 *726:15 0.00628975
9 *390:15 *736:15 0.00545516
10 *115:41 la_data_out[91] 0
11 *273:15 *390:15 0.000189547
12 *275:15 *390:15 0.000366994
13 *277:17 *390:15 0.0081018
14 *280:15 *390:15 0.000232281
15 *296:15 *390:15 0.000263083
16 *362:15 *390:15 0.0340998
17 *371:23 *390:13 0.000159476
18 *387:15 *390:15 0.0456232
*RES
1 *739:la_data_out_o[91] *390:13 29.9707 
2 *390:13 *390:15 91.504 
3 *390:15 *390:17 8 
4 *390:17 la_data_out[91] 892.403 
*END

*D_NET *391 0.182245
*CONN
*P la_data_out[92] O
*I *739:la_data_out_o[92] O *D ntt_wb_bridge
*CAP
1 la_data_out[92] 0.0382963
2 *739:la_data_out_o[92] 0.000689216
3 *391:29 0.0382963
4 *391:27 0.00472981
5 *391:25 0.0047534
6 *391:23 0.00254495
7 *391:21 0.0032544
8 *391:15 0.00451625
9 *391:13 0.00447243
10 la_data_out[92] *663:55 0.0071569
11 *391:15 *728:15 0.0266253
12 *391:21 *395:21 0.000751696
13 *391:21 *397:23 0
14 *391:23 *393:23 0.00128391
15 *391:23 *395:23 6.22059e-06
16 *391:27 *393:23 0.00131114
17 *114:59 la_data_out[92] 0
18 *278:15 *391:15 0.0175629
19 *297:13 *391:23 0.000336994
20 *297:13 *391:27 0.00833102
21 *298:31 *391:27 0.00278419
22 *359:15 *391:15 0.00443296
23 *363:15 *391:15 0.00510147
24 *363:25 *391:21 0
25 *368:33 *391:23 6.08617e-05
26 *368:35 *391:23 0.0047828
27 *371:23 *391:13 9.9801e-05
28 *381:27 *391:21 6.37532e-05
*RES
1 *739:la_data_out_o[92] *391:13 33.1649 
2 *391:13 *391:15 291.243 
3 *391:15 *391:21 42.47 
4 *391:21 *391:23 66.6068 
5 *391:23 *391:25 0.497143 
6 *391:25 *391:27 160.94 
7 *391:27 *391:29 15 
8 *391:29 la_data_out[92] 876.732 
*END

*D_NET *392 0.190972
*CONN
*P la_data_out[93] O
*I *739:la_data_out_o[93] O *D ntt_wb_bridge
*CAP
1 la_data_out[93] 0.0396446
2 *739:la_data_out_o[93] 0.000359774
3 *392:23 0.0396446
4 *392:21 0.00504305
5 *392:19 0.00520918
6 *392:13 0.00474494
7 *392:11 0.00493858
8 la_data_out[93] *682:81 0.000883861
9 la_data_out[93] *714:51 0
10 *77:53 la_data_out[93] 0.000435214
11 *284:13 *392:21 2.18506e-05
12 *288:23 *392:21 0.0230768
13 *293:13 *392:21 0.00656474
14 *369:13 *392:21 0.000112764
15 *371:23 *392:11 4.45089e-05
16 *375:13 *392:13 0.0269273
17 *380:13 *392:13 0.0269273
18 *383:19 *392:19 2.26497e-05
19 *383:21 *392:21 0.00637011
*RES
1 *739:la_data_out_o[93] *392:11 21.2579 
2 *392:11 *392:13 49.7728 
3 *392:13 *392:19 25.4339 
4 *392:19 *392:21 255.034 
5 *392:21 *392:23 15 
6 *392:23 la_data_out[93] 880.958 
*END

*D_NET *393 0.178991
*CONN
*P la_data_out[94] O
*I *739:la_data_out_o[94] O *D ntt_wb_bridge
*CAP
1 la_data_out[94] 0.0395992
2 *739:la_data_out_o[94] 0.00066081
3 *393:25 0.0395992
4 *393:23 0.00765657
5 *393:21 0.00821507
6 *393:15 0.0047649
7 *393:13 0.00486722
8 *393:15 *395:15 0.0233854
9 *393:15 *530:15 0.000702404
10 *393:21 *395:21 5.39868e-05
11 *393:23 *395:23 0.024233
12 *393:23 *667:41 0.000681963
13 *281:17 *393:15 0.00331347
14 *297:13 *393:23 0
15 *298:19 *393:21 0.000579193
16 *298:31 *393:23 0.000546746
17 *301:19 *393:21 0.000695578
18 *353:11 *393:15 0.000981424
19 *354:15 *393:15 0.00103229
20 *363:15 *393:15 0.000658248
21 *363:25 *393:21 3.73755e-05
22 *371:23 *393:13 0.000359078
23 *372:15 *393:15 0.0137723
24 *391:23 *393:23 0.00128391
25 *391:27 *393:23 0.00131114
*RES
1 *739:la_data_out_o[94] *393:13 31.8746 
2 *393:13 *393:15 274.568 
3 *393:15 *393:21 42.1179 
4 *393:21 *393:23 262.657 
5 *393:23 *393:25 15 
6 *393:25 la_data_out[94] 874.971 
*END

*D_NET *394 0.184004
*CONN
*P la_data_out[95] O
*I *739:la_data_out_o[95] O *D ntt_wb_bridge
*CAP
1 la_data_out[95] 0.0398577
2 *739:la_data_out_o[95] 0.00167744
3 *394:17 0.0398577
4 *394:15 0.0128137
5 *394:13 0.0144912
6 la_data_out[95] *685:109 0
7 *394:15 *663:53 0
8 *394:15 *716:15 0.000770898
9 *394:15 *733:23 0.028265
10 *274:15 *394:15 0
11 *276:15 *394:15 0
12 *360:29 *394:15 0.00121519
13 *371:23 *394:13 0.000597179
14 *376:15 *394:15 0.00115028
15 *384:19 *394:15 0.0024804
16 *389:23 *394:15 0.0408278
*RES
1 *739:la_data_out_o[95] *394:13 44.6924 
2 *394:13 *394:15 545.179 
3 *394:15 *394:17 15 
4 *394:17 la_data_out[95] 899.269 
*END

*D_NET *395 0.206359
*CONN
*P la_data_out[96] O
*I *739:la_data_out_o[96] O *D ntt_wb_bridge
*CAP
1 la_data_out[96] 0.0358037
2 *739:la_data_out_o[96] 0.000752918
3 *395:25 0.0358037
4 *395:23 0.0054076
5 *395:21 0.00595796
6 *395:15 0.00370416
7 *395:13 0.00390671
8 la_data_out[96] *658:59 0.00174981
9 la_data_out[96] *685:101 0.00293681
10 la_data_out[96] *714:59 0.00423317
11 la_data_out[96] *715:43 0
12 *395:15 *397:15 0.0217758
13 *395:23 *397:25 0.0277401
14 *395:23 *667:41 0.000880798
15 *77:69 la_data_out[96] 0.000491412
16 *281:17 *395:15 0.00287003
17 *297:13 *395:23 0
18 *301:19 *395:21 0.000716446
19 *353:11 *395:15 0.000607199
20 *354:15 *395:15 0.00112167
21 *363:15 *395:15 0.000897301
22 *371:23 *395:13 0.000571026
23 *391:21 *395:21 0.000751696
24 *391:23 *395:23 6.22059e-06
25 *393:15 *395:15 0.0233854
26 *393:21 *395:21 5.39868e-05
27 *393:23 *395:23 0.024233
*RES
1 *739:la_data_out_o[96] *395:13 32.6113 
2 *395:13 *395:15 255.987 
3 *395:15 *395:21 42.8221 
4 *395:21 *395:23 300.295 
5 *395:23 *395:25 15 
6 *395:25 la_data_out[96] 874.619 
*END

*D_NET *396 0.206286
*CONN
*P la_data_out[97] O
*I *739:la_data_out_o[97] O *D ntt_wb_bridge
*CAP
1 la_data_out[97] 0.0280435
2 *739:la_data_out_o[97] 0.00136972
3 *396:17 0.0280435
4 *396:15 0.00954666
5 *396:13 0.0109164
6 *396:15 *733:23 0
7 *396:15 *737:34 0.0241202
8 *274:15 *396:15 0.04771
9 *275:15 *396:15 0.0158913
10 *286:17 la_data_out[97] 0.0351714
11 *371:23 *396:13 0.000494245
12 *378:15 *396:15 0.00473746
13 *382:15 *396:15 0.00012144
14 *385:15 *396:15 0.000119639
*RES
1 *739:la_data_out_o[97] *396:13 40.6023 
2 *396:13 *396:15 567.571 
3 *396:15 *396:17 15 
4 *396:17 la_data_out[97] 895.396 
*END

*D_NET *397 0.207832
*CONN
*P la_data_out[98] O
*I *739:la_data_out_o[98] O *D ntt_wb_bridge
*CAP
1 la_data_out[98] 0.038122
2 *739:la_data_out_o[98] 0.000748992
3 *397:27 0.038122
4 *397:25 0.0060295
5 *397:23 0.00699844
6 *397:15 0.00381936
7 *397:13 0.00359941
8 la_data_out[98] *714:77 0.00222778
9 *397:23 *530:13 0
10 *397:25 *667:41 0.0011029
11 *114:73 la_data_out[98] 0
12 *278:23 *397:25 0.0304141
13 *281:17 *397:15 0.000464746
14 *297:13 *397:25 0
15 *301:23 *397:25 0.00039519
16 *354:15 *397:15 0.0037858
17 *359:15 *397:15 0.00025876
18 *363:15 *397:15 0.0217751
19 *371:23 *397:13 0.000451677
20 *381:27 *397:23 0
21 *391:21 *397:23 0
22 *395:15 *397:15 0.0217758
23 *395:23 *397:25 0.0277401
*RES
1 *739:la_data_out_o[98] *397:13 32.7469 
2 *397:13 *397:15 238.359 
3 *397:15 *397:23 43.6714 
4 *397:23 *397:25 340.315 
5 *397:25 *397:27 15 
6 *397:27 la_data_out[98] 874.267 
*END

*D_NET *398 0.178484
*CONN
*P la_data_out[99] O
*I *739:la_data_out_o[99] O *D ntt_wb_bridge
*CAP
1 la_data_out[99] 0.039424
2 *739:la_data_out_o[99] 0.00214647
3 *398:25 0.039424
4 *398:23 0.0155669
5 *398:21 0.0155669
6 *398:19 0.00370642
7 *398:13 0.00585289
8 la_data_out[99] *685:85 0.0033864
9 la_data_out[99] *714:85 0
10 *398:19 *740:mem_slot[0] 0
11 *398:19 *647:11 0.0175654
12 *398:19 *661:23 0.000746686
13 *398:19 *661:31 0.000242899
14 *398:19 *664:15 0.000382259
15 *398:19 *688:15 0.000964982
16 *398:19 *710:31 0.00283049
17 *398:19 *735:17 0.00995697
18 *398:23 *646:55 0.000897636
19 *398:23 *662:27 0.00877871
20 *398:23 *663:43 0
21 *398:23 *675:27 0.00800056
22 *398:23 *679:61 0.000128607
23 *398:23 *688:23 0.000200243
24 *353:19 *398:23 0.00144223
25 *358:25 *398:19 0.000758396
26 *361:15 *398:19 0.00012142
27 *371:23 *398:13 0.000392002
*RES
1 *739:la_data_out_o[99] *398:13 47.9997 
2 *398:13 *398:19 46.7604 
3 *398:19 *398:21 15 
4 *398:21 *398:23 396.534 
5 *398:23 *398:25 15 
6 *398:25 la_data_out[99] 906.312 
*END

*D_NET *399 0.146573
*CONN
*P la_data_out[9] O
*I *739:la_data_out_o[9] O *D ntt_wb_bridge
*CAP
1 la_data_out[9] 0.0384726
2 *739:la_data_out_o[9] 0.00346179
3 *399:29 0.0384726
4 *399:27 0.00967055
5 *399:25 0.0125142
6 *399:19 0.0063054
7 *399:19 *728:15 0.0002208
8 *126:25 *399:25 0.000141419
9 *126:29 *399:27 0
10 *129:23 *399:27 0.023946
11 *305:13 *399:19 0.000120607
12 *306:13 *399:19 0.000110331
13 *307:13 *399:19 0.000111633
14 *309:13 *399:19 0.000128881
15 *310:17 *399:19 0.00064099
16 *316:19 *399:19 0.000328165
17 *317:15 *399:19 0.000370573
18 *333:15 *399:19 0.000221937
19 *337:17 *399:19 0.000163512
20 *338:15 *399:19 0.00104837
21 *339:15 *399:19 0.00178664
22 *339:29 *399:19 0.00230172
23 *341:37 *399:19 0.00136415
24 *343:31 *399:25 0.000110158
25 *348:39 *399:25 0.000121281
26 *350:31 *399:25 0.000141169
27 *355:15 *399:19 0.000850192
28 *366:21 *399:19 0.00324721
29 *366:25 *399:25 0
30 *388:25 *399:25 0.000199704
*RES
1 *739:la_data_out_o[9] *399:19 43.7415 
2 *399:19 *399:25 22.6565 
3 *399:25 *399:27 47.5832 
4 *399:27 *399:29 8 
5 *399:29 la_data_out[9] 852.963 
*END

*D_NET *529 0.189981
*CONN
*P user_irq[0] O
*I *739:user_irq_o[0] O *D ntt_wb_bridge
*CAP
1 user_irq[0] 0.00236689
2 *739:user_irq_o[0] 0.000593572
3 *529:25 0.00236689
4 *529:23 0.0332877
5 *529:21 0.0332877
6 *529:19 0.0331369
7 *529:17 0.0331369
8 *529:15 0.00750272
9 *529:13 0.00809629
10 *529:19 *682:87 0.00900609
11 *529:19 *715:27 0.00618159
12 *100:31 user_irq[0] 0.000934623
13 *114:51 *529:19 0
14 *128:25 user_irq[0] 0
15 *279:15 *529:15 0.00040082
16 *293:13 *529:15 0
17 *299:15 *529:15 0.0192611
18 *371:23 *529:13 0.000169765
19 *380:13 *529:15 0.000251555
*RES
1 *739:user_irq_o[0] *529:13 29.0661 
2 *529:13 *529:15 213.109 
3 *529:15 *529:17 15 
4 *529:17 *529:19 825.568 
5 *529:19 *529:21 15 
6 *529:21 *529:23 690.014 
7 *529:23 *529:25 15 
8 *529:25 user_irq[0] 59.0564 
*END

*D_NET *530 0.180585
*CONN
*P user_irq[1] O
*I *739:user_irq_o[1] O *D ntt_wb_bridge
*CAP
1 user_irq[1] 0.00285112
2 *739:user_irq_o[1] 0.000751255
3 *530:25 0.00285112
4 *530:23 0.0363449
5 *530:21 0.0363449
6 *530:19 0.0330255
7 *530:17 0.0330255
8 *530:15 0.00664639
9 *530:13 0.00739764
10 *530:15 *728:15 0
11 *530:19 *670:15 0.0126185
12 *530:19 *682:95 0.0022518
13 *278:15 *530:15 6.22449e-05
14 *279:15 *530:15 0.000806776
15 *299:15 *530:15 0.000987654
16 *363:15 *530:15 1.89135e-05
17 *365:19 *530:15 2.69815e-05
18 *370:15 *530:15 0.000405167
19 *371:23 *530:13 0.000134783
20 *372:15 *530:15 0.0033318
21 *393:15 *530:15 0.000702404
22 *397:23 *530:13 0
*RES
1 *739:user_irq_o[1] *530:13 31.1155 
2 *530:13 *530:15 147.838 
3 *530:15 *530:17 15 
4 *530:17 *530:19 820.638 
5 *530:19 *530:21 15 
6 *530:21 *530:23 753.379 
7 *530:23 *530:25 15 
8 *530:25 user_irq[1] 66.0993 
*END

*D_NET *531 0.186614
*CONN
*P user_irq[2] O
*I *739:user_irq_o[2] O *D ntt_wb_bridge
*CAP
1 user_irq[2] 0.0364906
2 *739:user_irq_o[2] 0.0030556
3 *531:25 0.0364906
4 *531:23 0.0467613
5 *531:21 0.0481111
6 *531:17 0.00440545
7 *531:17 *693:11 0.000190324
8 *531:21 *703:11 0.000520393
9 *531:23 *655:115 0.00034564
10 *531:23 *721:109 0.000133985
11 *105:19 *531:21 0.00315203
12 *278:21 *531:17 0.000448522
13 *279:15 *531:17 0.00365688
14 *286:13 *531:17 0.000107295
15 *287:13 *531:17 0.000117123
16 *289:13 *531:17 0.000117123
17 *290:13 *531:17 0.000101448
18 *298:31 *531:17 8.40788e-05
19 *371:23 *531:17 0.000648141
20 *373:21 *531:21 0
21 *375:13 *531:17 0.000103237
22 *380:13 *531:17 0.00157347
*RES
1 *739:user_irq_o[2] *531:17 39.1262 
2 *531:17 *531:21 48.9936 
3 *531:21 *531:23 153.586 
4 *531:23 *531:25 8 
5 *531:25 user_irq[2] 844.511 
*END

*D_NET *540 0.817784
*CONN
*P wb_clk_i I
*I *739:wb_clk_i I *D ntt_wb_bridge
*I *740:clk I *D ntt_engine_256
*CAP
1 wb_clk_i 0.0040782
2 *739:wb_clk_i 3.89108e-05
3 *740:clk 0.00163103
4 *540:215 0.0238241
5 *540:193 0.0841213
6 *540:191 0.0824902
7 *540:189 0.0673507
8 *540:187 0.0680087
9 *540:181 0.00294175
10 *540:167 0.00462309
11 *540:155 0.00440238
12 *540:137 0.00449676
13 *540:135 0.00381021
14 *540:121 0.00280599
15 *540:115 0.00243931
16 *540:109 0.00360812
17 *540:93 0.00406469
18 *540:91 0.00176441
19 *540:85 0.00474564
20 *540:83 0.00587309
21 *540:77 0.00781695
22 *540:75 0.00639157
23 *540:73 0.00192264
24 *540:67 0.00353739
25 *540:53 0.00324947
26 *540:51 0.00188504
27 *540:47 0.00182892
28 *540:35 0.00306207
29 *540:25 0.00737943
30 *540:23 0.00589597
31 *540:21 0.00202889
32 *540:15 0.00253508
33 *540:9 0.0605812
34 *540:7 0.0362898
35 *540:5 0.0040782
36 *740:clk *658:135 0.000389314
37 *740:clk *663:11 0.00240539
38 *740:clk *685:21 0.000446606
39 *740:clk *714:147 0.00101816
40 *540:9 *541:9 0
41 *540:15 *578:13 0
42 *540:21 *548:13 0
43 *540:21 *578:13 0
44 *540:21 *641:9 0
45 *540:21 *642:9 0.000306386
46 *540:25 wbs_dat_o[31] 0.00754074
47 *540:35 wbs_dat_o[30] 0
48 *540:35 *559:9 0.00171861
49 *540:35 *560:9 0
50 *540:35 *567:5 0
51 *540:47 wbs_dat_o[29] 0.00227667
52 *540:47 *562:11 0.00180346
53 *540:47 *563:11 0
54 *540:51 *576:9 0
55 *540:53 *597:5 0.00184882
56 *540:67 wbs_dat_o[28] 0
57 *540:67 *604:9 0.00104945
58 *540:67 *605:9 0.000920322
59 *540:67 *606:9 0
60 *540:73 wbs_dat_o[27] 0
61 *540:73 *579:9 0.00020943
62 *540:73 *580:9 0
63 *540:77 wbs_dat_o[27] 0
64 *540:77 *595:5 0
65 *540:83 *542:7 0
66 *540:83 *608:7 0.000778334
67 *540:85 wbs_dat_o[25] 0
68 *540:91 *613:7 0.000343011
69 *540:93 wbs_dat_o[25] 0
70 *540:109 *618:7 0
71 *540:109 *620:13 0.00319778
72 *540:115 *622:7 0
73 *540:167 *675:19 0.000414555
74 *540:167 *676:21 0.00144401
75 *540:167 *737:42 0.00474186
76 *540:181 *656:25 0.000131664
77 *540:181 *691:23 0.000350227
78 *540:181 *709:15 0.000708615
79 *540:187 *734:39 0.000632192
80 *540:189 *717:35 0.00788705
81 *540:189 *736:27 0.00919417
82 *540:193 *734:65 0.00182261
83 *540:215 *541:9 0
84 io_out[37] *540:9 0
85 *80:131 *540:93 0.00248155
86 *116:43 *540:15 0
87 *116:43 *540:21 0
88 *116:129 *540:167 0.000793191
89 *116:149 *540:193 0.0366111
90 *118:37 *540:215 0
91 *118:129 *540:121 0.00132663
92 *118:135 *540:121 0.00103286
93 *119:25 *540:189 0.194883
94 *120:23 *540:193 0.00147544
*RES
1 wb_clk_i *540:5 94.4468 
2 *540:5 *540:7 8 
3 *540:7 *540:9 118.037 
4 *540:9 *540:15 19.3307 
5 *540:15 *540:21 46.0086 
6 *540:21 *540:23 8 
7 *540:23 *540:25 186.781 
8 *540:25 *540:35 47.7165 
9 *540:35 *540:47 49.0938 
10 *540:47 *540:51 8.91467 
11 *540:51 *540:53 48.7407 
12 *540:53 *540:67 45.1561 
13 *540:67 *540:73 46.1119 
14 *540:73 *540:75 8 
15 *540:75 *540:77 143.115 
16 *540:77 *540:83 21.208 
17 *540:83 *540:85 99.4493 
18 *540:85 *540:91 17.344 
19 *540:91 *540:93 43.1064 
20 *540:93 *540:109 44.6717 
21 *540:109 *540:115 19.2331 
22 *540:115 *540:121 42.4872 
23 *540:121 *540:135 39.4131 
24 *540:135 *540:137 55.7836 
25 *540:137 *540:155 48.1866 
26 *540:155 *540:167 46.3274 
27 *540:167 *540:181 44.0387 
28 *540:181 *540:187 18.3315 
29 *540:187 *540:189 2474.3 
30 *540:189 *540:191 8 
31 *540:191 *540:193 294.665 
32 *540:193 *740:clk 44.9445 
33 *540:9 *540:215 79.4397 
34 *540:215 *739:wb_clk_i 0.0914667 
*END

*D_NET *541 0.13071
*CONN
*P wb_rst_i I
*I *739:wb_rst_i I *D ntt_wb_bridge
*CAP
1 wb_rst_i 0.00449963
2 *739:wb_rst_i 3.96481e-05
3 *541:9 0.059871
4 *541:7 0.0598313
5 *541:5 0.00449963
6 io_out[37] *541:9 0.000239137
7 *118:37 *541:9 0.00172964
8 *130:41 *541:9 0
9 *540:9 *541:9 0
10 *540:215 *541:9 0
*RES
1 wb_rst_i *541:5 100.785 
2 *541:5 *541:7 8 
3 *541:7 *541:9 196.39 
4 *541:9 *739:wb_rst_i 0.0914667 
*END

*D_NET *542 0.178353
*CONN
*P wbs_ack_o O
*I *739:wbs_ack_o O *D ntt_wb_bridge
*CAP
1 wbs_ack_o 0.00116405
2 *739:wbs_ack_o 3.89108e-05
3 *542:11 0.0256468
4 *542:9 0.0244827
5 *542:7 0.0575104
6 *542:5 0.0575493
7 wbs_ack_o *575:11 0.000391254
8 *542:7 *600:9 0
9 *542:7 *608:7 0
10 *542:11 *575:13 0.00370335
11 *542:11 *644:5 0
12 *122:25 *542:11 0
13 *123:27 *542:11 0.00786584
14 *540:83 *542:7 0
*RES
1 *739:wbs_ack_o *542:5 0.0914667 
2 *542:5 *542:7 193.471 
3 *542:7 *542:9 8 
4 *542:9 *542:11 591.745 
5 *542:11 wbs_ack_o 34.8346 
*END

*D_NET *543 0.130224
*CONN
*P wbs_adr_i[0] I
*I *739:wbs_adr_i[0] I *D ntt_wb_bridge
*CAP
1 wbs_adr_i[0] 0.00696738
2 *739:wbs_adr_i[0] 3.96481e-05
3 *543:9 0.0581448
4 *543:7 0.0581052
5 *543:5 0.00696738
6 *543:9 *554:9 0
7 *543:9 *643:9 0
*RES
1 wbs_adr_i[0] *543:5 157.833 
2 *543:5 *543:7 8 
3 *543:7 *543:9 190.809 
4 *543:9 *739:wbs_adr_i[0] 0.0914667 
*END

*D_NET *544 0.115008
*CONN
*P wbs_adr_i[10] I
*I *739:wbs_adr_i[10] I *D ntt_wb_bridge
*CAP
1 wbs_adr_i[10] 0.0102293
2 *739:wbs_adr_i[10] 3.96481e-05
3 *544:9 0.0467712
4 *544:7 0.0467315
5 *544:5 0.0102293
6 *544:9 *545:9 0
7 *544:9 *574:9 0
8 io_oeb[36] *544:9 0
9 *125:25 *544:5 0.00100724
*RES
1 wbs_adr_i[10] *544:5 228.261 
2 *544:5 *544:7 8 
3 *544:7 *544:9 153.285 
4 *544:9 *739:wbs_adr_i[10] 0.0914667 
*END

*D_NET *545 0.130701
*CONN
*P wbs_adr_i[11] I
*I *739:wbs_adr_i[11] I *D ntt_wb_bridge
*CAP
1 wbs_adr_i[11] 0.0105718
2 *739:wbs_adr_i[11] 3.96481e-05
3 *545:9 0.0337073
4 *545:7 0.0336676
5 *545:5 0.0105718
6 *545:9 *546:9 0
7 io_oeb[36] *545:9 0.0421429
8 *83:25 *545:5 0
9 *544:9 *545:9 0
*RES
1 wbs_adr_i[11] *545:5 235.304 
2 *545:5 *545:7 8 
3 *545:7 *545:9 150.022 
4 *545:9 *739:wbs_adr_i[11] 0.0914667 
*END

*D_NET *546 0.111799
*CONN
*P wbs_adr_i[12] I
*I *739:wbs_adr_i[12] I *D ntt_wb_bridge
*CAP
1 wbs_adr_i[12] 0.0109319
2 *739:wbs_adr_i[12] 3.89108e-05
3 *546:9 0.0445934
4 *546:7 0.0445545
5 *546:5 0.0109319
6 *546:9 *547:9 0
7 *85:25 *546:5 0.0007482
8 *545:9 *546:9 0
*RES
1 wbs_adr_i[12] *546:5 242.347 
2 *546:5 *546:7 8 
3 *546:7 *546:9 146.673 
4 *546:9 *739:wbs_adr_i[12] 0.0914667 
*END

*D_NET *547 0.110969
*CONN
*P wbs_adr_i[13] I
*I *739:wbs_adr_i[13] I *D ntt_wb_bridge
*CAP
1 wbs_adr_i[13] 0.0112466
2 *739:wbs_adr_i[13] 3.96481e-05
3 *547:9 0.0435644
4 *547:7 0.0435247
5 *547:5 0.0112466
6 *547:9 *548:17 0
7 *84:27 *547:5 0
8 *84:29 *547:5 0
9 *86:33 *547:5 0
10 *87:57 *547:5 0.00134726
11 *121:27 *547:5 0
12 *546:9 *547:9 0
*RES
1 wbs_adr_i[13] *547:5 249.39 
2 *547:5 *547:7 8 
3 *547:7 *547:9 143.41 
4 *547:9 *739:wbs_adr_i[13] 0.0914667 
*END

*D_NET *548 0.108834
*CONN
*P wbs_adr_i[14] I
*I *739:wbs_adr_i[14] I *D ntt_wb_bridge
*CAP
1 wbs_adr_i[14] 0.000681881
2 *739:wbs_adr_i[14] 3.89108e-05
3 *548:17 0.024178
4 *548:15 0.0241391
5 *548:13 0.0106098
6 *548:11 0.0106098
7 *548:9 0.0178365
8 *548:7 0.0185184
9 *548:17 *549:9 0
10 *116:43 *548:13 0.00222132
11 *540:21 *548:13 0
12 *547:9 *548:17 0
*RES
1 wbs_adr_i[14] *548:7 23.5668 
2 *548:7 *548:9 60.0768 
3 *548:9 *548:11 8 
4 *548:11 *548:13 241.011 
5 *548:13 *548:15 8 
6 *548:15 *548:17 80.0408 
7 *548:17 *739:wbs_adr_i[14] 0.0914667 
*END

*D_NET *549 0.107096
*CONN
*P wbs_adr_i[15] I
*I *739:wbs_adr_i[15] I *D ntt_wb_bridge
*CAP
1 wbs_adr_i[15] 0.0120009
2 *739:wbs_adr_i[15] 3.96481e-05
3 *549:9 0.0399168
4 *549:7 0.0398772
5 *549:5 0.0120009
6 *549:9 *550:9 0
7 *118:63 *549:9 0.00326087
8 *548:17 *549:9 0
*RES
1 wbs_adr_i[15] *549:5 263.475 
2 *549:5 *549:7 8 
3 *549:7 *549:9 136.799 
4 *549:9 *739:wbs_adr_i[15] 0.0914667 
*END

*D_NET *550 0.105514
*CONN
*P wbs_adr_i[16] I
*I *739:wbs_adr_i[16] I *D ntt_wb_bridge
*CAP
1 wbs_adr_i[16] 0.0123207
2 *739:wbs_adr_i[16] 3.96481e-05
3 *550:9 0.0404363
4 *550:7 0.0403967
5 *550:5 0.0123207
6 *550:9 *551:9 0
7 *118:63 *550:9 0
8 *549:9 *550:9 0
*RES
1 wbs_adr_i[16] *550:5 270.518 
2 *550:5 *550:7 8 
3 *550:7 *550:9 133.45 
4 *550:9 *739:wbs_adr_i[16] 0.0914667 
*END

*D_NET *551 0.103375
*CONN
*P wbs_adr_i[17] I
*I *739:wbs_adr_i[17] I *D ntt_wb_bridge
*CAP
1 wbs_adr_i[17] 0.0126388
2 *739:wbs_adr_i[17] 3.89108e-05
3 *551:9 0.0390488
4 *551:7 0.0390099
5 *551:5 0.0126388
6 *551:9 *552:9 0
7 *550:9 *551:9 0
*RES
1 wbs_adr_i[17] *551:5 277.561 
2 *551:5 *551:7 8 
3 *551:7 *551:9 130.187 
4 *551:9 *739:wbs_adr_i[17] 0.0914667 
*END

*D_NET *552 0.102348
*CONN
*P wbs_adr_i[18] I
*I *739:wbs_adr_i[18] I *D ntt_wb_bridge
*CAP
1 wbs_adr_i[18] 0.0129535
2 *739:wbs_adr_i[18] 3.96481e-05
3 *552:9 0.0377363
4 *552:7 0.0376967
5 *552:5 0.0129535
6 *552:9 *553:9 0
7 *118:71 *552:9 0.000968132
8 *551:9 *552:9 0
*RES
1 wbs_adr_i[18] *552:5 284.604 
2 *552:5 *552:7 8 
3 *552:7 *552:9 126.838 
4 *552:9 *739:wbs_adr_i[18] 0.0914667 
*END

*D_NET *553 0.101709
*CONN
*P wbs_adr_i[19] I
*I *739:wbs_adr_i[19] I *D ntt_wb_bridge
*CAP
1 wbs_adr_i[19] 0.0132734
2 *739:wbs_adr_i[19] 3.96481e-05
3 *553:9 0.0375811
4 *553:7 0.0375415
5 *553:5 0.0132734
6 *553:9 *555:9 0
7 *118:71 *553:9 0
8 *552:9 *553:9 0
*RES
1 wbs_adr_i[19] *553:5 291.647 
2 *553:5 *553:7 8 
3 *553:7 *553:9 123.575 
4 *553:9 *739:wbs_adr_i[19] 0.0914667 
*END

*D_NET *554 0.129091
*CONN
*P wbs_adr_i[1] I
*I *739:wbs_adr_i[1] I *D ntt_wb_bridge
*CAP
1 wbs_adr_i[1] 0.00730028
2 *739:wbs_adr_i[1] 3.96481e-05
3 *554:9 0.0572454
4 *554:7 0.0572057
5 *554:5 0.00730028
6 *554:9 *565:9 0
7 *80:63 *554:9 0
8 *543:9 *554:9 0
*RES
1 wbs_adr_i[1] *554:5 164.875 
2 *554:5 *554:7 8 
3 *554:7 *554:9 186.43 
4 *554:9 *739:wbs_adr_i[1] 0.0914667 
*END

*D_NET *555 0.102936
*CONN
*P wbs_adr_i[20] I
*I *739:wbs_adr_i[20] I *D ntt_wb_bridge
*CAP
1 wbs_adr_i[20] 0.0135639
2 *739:wbs_adr_i[20] 3.89108e-05
3 *555:9 0.0337347
4 *555:7 0.0336958
5 *555:5 0.0135639
6 io_out[36] *555:9 0.00833924
7 *553:9 *555:9 0
*RES
1 wbs_adr_i[20] *555:5 297.985 
2 *555:5 *555:7 8 
3 *555:7 *555:9 120.226 
4 *555:9 *739:wbs_adr_i[20] 0.0914667 
*END

*D_NET *556 0.101383
*CONN
*P wbs_adr_i[21] I
*I *739:wbs_adr_i[21] I *D ntt_wb_bridge
*CAP
1 wbs_adr_i[21] 0.0138882
2 *739:wbs_adr_i[21] 3.96481e-05
3 *556:9 0.0302112
4 *556:7 0.0301715
5 *556:5 0.0138882
6 *556:9 *557:9 0
7 io_out[36] *556:9 0.0090745
8 *80:73 *556:9 0.00348558
9 *116:69 *556:9 0.000624532
10 *118:79 *556:9 0
*RES
1 wbs_adr_i[21] *556:5 305.028 
2 *556:5 *556:7 8 
3 *556:7 *556:9 116.878 
4 *556:9 *739:wbs_adr_i[21] 0.0914667 
*END

*D_NET *557 0.0988727
*CONN
*P wbs_adr_i[22] I
*I *739:wbs_adr_i[22] I *D ntt_wb_bridge
*CAP
1 wbs_adr_i[22] 0.014516
2 *739:wbs_adr_i[22] 3.89108e-05
3 *557:9 0.0340476
4 *557:7 0.0340087
5 *557:5 0.014516
6 *118:79 *557:9 0.00174535
7 *556:9 *557:9 0
*RES
1 wbs_adr_i[22] *557:5 312.071 
2 *557:5 *557:7 8 
3 *557:7 *557:9 113.615 
4 *557:9 *739:wbs_adr_i[22] 0.0914667 
*END

*D_NET *558 0.0970244
*CONN
*P wbs_adr_i[23] I
*I *739:wbs_adr_i[23] I *D ntt_wb_bridge
*CAP
1 wbs_adr_i[23] 0.0148699
2 *739:wbs_adr_i[23] 3.96481e-05
3 *558:9 0.0336424
4 *558:7 0.0336027
5 *558:5 0.0148699
6 *558:9 *559:9 0
*RES
1 wbs_adr_i[23] *558:5 319.818 
2 *558:5 *558:7 8 
3 *558:7 *558:9 110.266 
4 *558:9 *739:wbs_adr_i[23] 0.0914667 
*END

*D_NET *559 0.0967423
*CONN
*P wbs_adr_i[24] I
*I *739:wbs_adr_i[24] I *D ntt_wb_bridge
*CAP
1 wbs_adr_i[24] 0.0151925
2 *739:wbs_adr_i[24] 3.96481e-05
3 *559:9 0.0323193
4 *559:7 0.0322797
5 *559:5 0.0151925
6 *559:9 *560:9 0
7 *540:35 *559:9 0.00171861
8 *558:9 *559:9 0
*RES
1 wbs_adr_i[24] *559:5 326.861 
2 *559:5 *559:7 8 
3 *559:7 *559:9 107.003 
4 *559:9 *739:wbs_adr_i[24] 0.0914667 
*END

*D_NET *560 0.093683
*CONN
*P wbs_adr_i[25] I
*I *739:wbs_adr_i[25] I *D ntt_wb_bridge
*CAP
1 wbs_adr_i[25] 0.0155152
2 *739:wbs_adr_i[25] 3.89108e-05
3 *560:9 0.0313263
4 *560:7 0.0312874
5 *560:5 0.0155152
6 *560:9 *561:9 0
7 *540:35 *560:9 0
8 *559:9 *560:9 0
*RES
1 wbs_adr_i[25] *560:5 333.904 
2 *560:5 *560:7 8 
3 *560:7 *560:9 103.654 
4 *560:9 *739:wbs_adr_i[25] 0.0914667 
*END

*D_NET *561 0.09227
*CONN
*P wbs_adr_i[26] I
*I *739:wbs_adr_i[26] I *D ntt_wb_bridge
*CAP
1 wbs_adr_i[26] 0.0158379
2 *739:wbs_adr_i[26] 3.96481e-05
3 *561:9 0.0302971
4 *561:7 0.0302575
5 *561:5 0.0158379
6 *561:9 *562:11 0
7 *561:9 *562:13 0
8 *560:9 *561:9 0
*RES
1 wbs_adr_i[26] *561:5 340.947 
2 *561:5 *561:7 8 
3 *561:7 *561:9 100.391 
4 *561:9 *739:wbs_adr_i[26] 0.0914667 
*END

*D_NET *562 0.0916352
*CONN
*P wbs_adr_i[27] I
*I *739:wbs_adr_i[27] I *D ntt_wb_bridge
*CAP
1 wbs_adr_i[27] 0.0157865
2 *739:wbs_adr_i[27] 3.96481e-05
3 *562:13 0.0252434
4 *562:11 0.0290897
5 *562:5 0.0196725
6 *562:11 *563:11 0
7 *562:13 *563:11 0
8 *562:13 *563:13 0
9 *540:47 *562:11 0.00180346
10 *561:9 *562:11 0
11 *561:9 *562:13 0
*RES
1 wbs_adr_i[27] *562:5 347.285 
2 *562:5 *562:11 21.9347 
3 *562:11 *562:13 83.3467 
4 *562:13 *739:wbs_adr_i[27] 0.0914667 
*END

*D_NET *563 0.0892056
*CONN
*P wbs_adr_i[28] I
*I *739:wbs_adr_i[28] I *D ntt_wb_bridge
*CAP
1 wbs_adr_i[28] 0.0161064
2 *739:wbs_adr_i[28] 3.96481e-05
3 *563:13 0.0247616
4 *563:11 0.0279489
5 *563:5 0.0193334
6 *563:13 *564:9 0
7 *118:87 *563:13 0.00101569
8 *540:47 *563:11 0
9 *562:11 *563:11 0
10 *562:13 *563:11 0
11 *562:13 *563:13 0
*RES
1 wbs_adr_i[28] *563:5 354.328 
2 *563:5 *563:11 18.6717 
3 *563:11 *563:13 83.3467 
4 *563:13 *739:wbs_adr_i[28] 0.0914667 
*END

*D_NET *564 0.0876869
*CONN
*P wbs_adr_i[29] I
*I *739:wbs_adr_i[29] I *D ntt_wb_bridge
*CAP
1 wbs_adr_i[29] 0.0164571
2 *739:wbs_adr_i[29] 3.96481e-05
3 *564:9 0.0268797
4 *564:7 0.0268401
5 *564:5 0.0164571
6 *564:9 *566:9 0
7 *118:87 *564:9 0.00101331
8 *563:13 *564:9 0
*RES
1 wbs_adr_i[29] *564:5 362.075 
2 *564:5 *564:7 8 
3 *564:7 *564:9 90.4307 
4 *564:9 *739:wbs_adr_i[29] 0.0914667 
*END

*D_NET *565 0.127944
*CONN
*P wbs_adr_i[2] I
*I *739:wbs_adr_i[2] I *D ntt_wb_bridge
*CAP
1 wbs_adr_i[2] 0.00783495
2 *739:wbs_adr_i[2] 3.96481e-05
3 *565:9 0.0559342
4 *565:7 0.0558945
5 *565:5 0.00783495
6 *565:9 *568:9 0
7 *80:63 *565:9 0.000405384
8 *554:9 *565:9 0
*RES
1 wbs_adr_i[2] *565:5 171.918 
2 *565:5 *565:7 8 
3 *565:7 *565:9 182.05 
4 *565:9 *739:wbs_adr_i[2] 0.0914667 
*END

*D_NET *566 0.0861607
*CONN
*P wbs_adr_i[30] I
*I *739:wbs_adr_i[30] I *D ntt_wb_bridge
*CAP
1 wbs_adr_i[30] 0.0167996
2 *739:wbs_adr_i[30] 3.96481e-05
3 *566:9 0.0262807
4 *566:7 0.026241
5 *566:5 0.0167996
6 *566:9 *567:9 0
7 *564:9 *566:9 0
*RES
1 wbs_adr_i[30] *566:5 369.118 
2 *566:5 *566:7 8 
3 *566:7 *566:9 87.0819 
4 *566:9 *739:wbs_adr_i[30] 0.0914667 
*END

*D_NET *567 0.0849973
*CONN
*P wbs_adr_i[31] I
*I *739:wbs_adr_i[31] I *D ntt_wb_bridge
*CAP
1 wbs_adr_i[31] 0.0171116
2 *739:wbs_adr_i[31] 3.96481e-05
3 *567:9 0.0253871
4 *567:7 0.0253474
5 *567:5 0.0171116
6 *567:9 *576:9 0
7 *540:35 *567:5 0
8 *566:9 *567:9 0
*RES
1 wbs_adr_i[31] *567:5 376.161 
2 *567:5 *567:7 8 
3 *567:7 *567:9 83.8189 
4 *567:9 *739:wbs_adr_i[31] 0.0914667 
*END

*D_NET *568 0.126153
*CONN
*P wbs_adr_i[3] I
*I *739:wbs_adr_i[3] I *D ntt_wb_bridge
*CAP
1 wbs_adr_i[3] 0.00797402
2 *739:wbs_adr_i[3] 3.96481e-05
3 *568:9 0.0533025
4 *568:7 0.0532629
5 *568:5 0.00797402
6 *568:9 *569:9 0
7 *80:63 *568:9 0.00359961
8 *565:9 *568:9 0
*RES
1 wbs_adr_i[3] *568:5 178.961 
2 *568:5 *568:7 8 
3 *568:7 *568:9 177.585 
4 *568:9 *739:wbs_adr_i[3] 0.0914667 
*END

*D_NET *569 0.122648
*CONN
*P wbs_adr_i[4] I
*I *739:wbs_adr_i[4] I *D ntt_wb_bridge
*CAP
1 wbs_adr_i[4] 0.00831829
2 *739:wbs_adr_i[4] 3.96481e-05
3 *569:9 0.0530059
4 *569:7 0.0529662
5 *569:5 0.00831829
6 *569:9 *570:9 0
7 *80:63 *569:9 0
8 *568:9 *569:9 0
*RES
1 wbs_adr_i[4] *569:5 186.004 
2 *569:5 *569:7 8 
3 *569:7 *569:9 173.206 
4 *569:9 *739:wbs_adr_i[4] 0.0914667 
*END

*D_NET *570 0.121168
*CONN
*P wbs_adr_i[5] I
*I *739:wbs_adr_i[5] I *D ntt_wb_bridge
*CAP
1 wbs_adr_i[5] 0.00863865
2 *739:wbs_adr_i[5] 3.96481e-05
3 *570:9 0.0519452
4 *570:7 0.0519056
5 *570:5 0.00863865
6 *570:5 *602:13 0
7 *570:9 *571:9 0
8 *569:9 *570:9 0
*RES
1 wbs_adr_i[5] *570:5 193.047 
2 *570:5 *570:7 8 
3 *570:7 *570:9 169.857 
4 *570:9 *739:wbs_adr_i[5] 0.0914667 
*END

*D_NET *571 0.11918
*CONN
*P wbs_adr_i[6] I
*I *739:wbs_adr_i[6] I *D ntt_wb_bridge
*CAP
1 wbs_adr_i[6] 0.00895627
2 *739:wbs_adr_i[6] 3.89108e-05
3 *571:9 0.0506335
4 *571:7 0.0505946
5 *571:5 0.00895627
6 *571:9 *572:9 0
7 *570:9 *571:9 0
*RES
1 wbs_adr_i[6] *571:5 200.09 
2 *571:5 *571:7 8 
3 *571:7 *571:9 166.594 
4 *571:9 *739:wbs_adr_i[6] 0.0914667 
*END

*D_NET *572 0.11798
*CONN
*P wbs_adr_i[7] I
*I *739:wbs_adr_i[7] I *D ntt_wb_bridge
*CAP
1 wbs_adr_i[7] 0.00926241
2 *739:wbs_adr_i[7] 3.96481e-05
3 *572:9 0.0497278
4 *572:7 0.0496881
5 *572:5 0.00926241
6 *572:9 *573:9 0
7 *571:9 *572:9 0
*RES
1 wbs_adr_i[7] *572:5 207.133 
2 *572:5 *572:7 8 
3 *572:7 *572:9 163.246 
4 *572:9 *739:wbs_adr_i[7] 0.0914667 
*END

*D_NET *573 0.119091
*CONN
*P wbs_adr_i[8] I
*I *739:wbs_adr_i[8] I *D ntt_wb_bridge
*CAP
1 wbs_adr_i[8] 0.00959364
2 *739:wbs_adr_i[8] 3.96481e-05
3 *573:9 0.0492057
4 *573:7 0.049166
5 *573:5 0.00959364
6 *573:9 *574:9 0
7 *127:19 *573:5 0.00149245
8 *572:9 *573:9 0
*RES
1 wbs_adr_i[8] *573:5 214.175 
2 *573:5 *573:7 8 
3 *573:7 *573:9 159.983 
4 *573:9 *739:wbs_adr_i[8] 0.0914667 
*END

*D_NET *574 0.115604
*CONN
*P wbs_adr_i[9] I
*I *739:wbs_adr_i[9] I *D ntt_wb_bridge
*CAP
1 wbs_adr_i[9] 0.0099032
2 *739:wbs_adr_i[9] 3.89108e-05
3 *574:9 0.047899
4 *574:7 0.0478601
5 *574:5 0.0099032
6 *544:9 *574:9 0
7 *573:9 *574:9 0
*RES
1 wbs_adr_i[9] *574:5 221.218 
2 *574:5 *574:7 8 
3 *574:7 *574:9 156.634 
4 *574:9 *739:wbs_adr_i[9] 0.0914667 
*END

*D_NET *575 0.133799
*CONN
*P wbs_cyc_i I
*I *739:wbs_cyc_i I *D ntt_wb_bridge
*CAP
1 wbs_cyc_i 0.000887147
2 *739:wbs_cyc_i 3.89108e-05
3 *575:17 0.0574716
4 *575:15 0.0574327
5 *575:13 0.00185671
6 *575:11 0.00274386
7 *575:13 *644:5 0.00244558
8 *575:17 *644:9 0
9 wbs_ack_o *575:11 0.000391254
10 *80:49 *575:17 0.00608182
11 *88:29 *575:13 0.000746225
12 *542:11 *575:13 0.00370335
*RES
1 wbs_cyc_i *575:11 33.1857 
2 *575:11 *575:13 92.4064 
3 *575:13 *575:15 8 
4 *575:15 *575:17 193.299 
5 *575:17 *739:wbs_cyc_i 0.0914667 
*END

*D_NET *576 0.149472
*CONN
*P wbs_dat_i[0] I
*I *739:wbs_dat_i[0] I *D ntt_wb_bridge
*CAP
1 wbs_dat_i[0] 0.016745
2 *739:wbs_dat_i[0] 3.96481e-05
3 *576:9 0.0575287
4 *576:7 0.0574891
5 *576:5 0.016745
6 *576:9 *587:9 0
7 *80:81 *576:9 0.00092453
8 *540:51 *576:9 0
9 *567:9 *576:9 0
*RES
1 wbs_dat_i[0] *576:5 383.204 
2 *576:5 *576:7 8 
3 *576:7 *576:9 189.778 
4 *576:9 *739:wbs_dat_i[0] 0.0914667 
*END

*D_NET *577 0.138913
*CONN
*P wbs_dat_i[10] I
*I *739:wbs_dat_i[10] I *D ntt_wb_bridge
*CAP
1 wbs_dat_i[10] 0.0201242
2 *739:wbs_dat_i[10] 3.96481e-05
3 *577:9 0.0461813
4 *577:7 0.0461416
5 *577:5 0.0201242
6 *577:9 *578:17 0
7 *577:9 *607:9 0
8 *116:77 *577:9 0.000574277
9 *124:27 *577:5 0.00572789
*RES
1 wbs_dat_i[10] *577:5 453.633 
2 *577:5 *577:7 8 
3 *577:7 *577:9 152.255 
4 *577:9 *739:wbs_dat_i[10] 0.0914667 
*END

*D_NET *578 0.134713
*CONN
*P wbs_dat_i[11] I
*I *739:wbs_dat_i[11] I *D ntt_wb_bridge
*CAP
1 wbs_dat_i[11] 0.00101095
2 *739:wbs_dat_i[11] 3.89108e-05
3 *578:17 0.0238327
4 *578:15 0.0237938
5 *578:13 0.0189869
6 *578:11 0.0189869
7 *578:9 0.0213442
8 *578:7 0.0223551
9 *578:17 *579:9 0
10 *116:33 *578:13 0
11 *118:97 *578:13 0.00436319
12 *540:15 *578:13 0
13 *540:21 *578:13 0
14 *577:9 *578:17 0
*RES
1 wbs_dat_i[11] *578:7 31.3139 
2 *578:7 *578:9 70.1232 
3 *578:9 *578:11 8 
4 *578:11 *578:13 437.506 
5 *578:13 *578:15 8 
6 *578:15 *578:17 78.8387 
7 *578:17 *739:wbs_dat_i[11] 0.0914667 
*END

*D_NET *579 0.129921
*CONN
*P wbs_dat_i[12] I
*I *739:wbs_dat_i[12] I *D ntt_wb_bridge
*CAP
1 wbs_dat_i[12] 0.0208103
2 *739:wbs_dat_i[12] 3.96481e-05
3 *579:9 0.0440456
4 *579:7 0.044006
5 *579:5 0.0208103
6 *579:9 *580:9 0
7 *80:111 *579:9 0
8 *540:73 *579:9 0.00020943
9 *578:17 *579:9 0
*RES
1 wbs_dat_i[12] *579:5 467.718 
2 *579:5 *579:7 8 
3 *579:7 *579:9 145.643 
4 *579:9 *739:wbs_dat_i[12] 0.0914667 
*END

*D_NET *580 0.131528
*CONN
*P wbs_dat_i[13] I
*I *739:wbs_dat_i[13] I *D ntt_wb_bridge
*CAP
1 wbs_dat_i[13] 0.0212135
2 *739:wbs_dat_i[13] 3.96481e-05
3 *580:9 0.0423395
4 *580:7 0.0422998
5 *580:5 0.0212135
6 *580:9 *581:9 0
7 *80:111 *580:9 0.00273183
8 *84:29 *580:5 0
9 *93:23 *580:5 0.0016899
10 *120:17 *580:5 0
11 *540:73 *580:9 0
12 *579:9 *580:9 0
*RES
1 wbs_dat_i[13] *580:5 474.761 
2 *580:5 *580:7 8 
3 *580:7 *580:9 142.294 
4 *580:9 *739:wbs_dat_i[13] 0.0914667 
*END

*D_NET *581 0.135788
*CONN
*P wbs_dat_i[14] I
*I *739:wbs_dat_i[14] I *D ntt_wb_bridge
*CAP
1 wbs_dat_i[14] 0.0156571
2 *739:wbs_dat_i[14] 3.89108e-05
3 *581:9 0.0416034
4 *581:7 0.0415645
5 *581:5 0.0156571
6 *581:9 *582:9 0
7 *80:111 *581:9 0
8 *81:21 *581:5 0
9 *81:23 *581:5 0.0178874
10 *94:85 *581:5 0.00337981
11 *119:25 *581:5 0
12 *580:9 *581:9 0
*RES
1 wbs_dat_i[14] *581:5 481.804 
2 *581:5 *581:7 8 
3 *581:7 *581:9 138.945 
4 *581:9 *739:wbs_dat_i[14] 0.0914667 
*END

*D_NET *582 0.125594
*CONN
*P wbs_dat_i[15] I
*I *739:wbs_dat_i[15] I *D ntt_wb_bridge
*CAP
1 wbs_dat_i[15] 0.0219202
2 *739:wbs_dat_i[15] 3.96481e-05
3 *582:9 0.0401349
4 *582:7 0.0400952
5 *582:5 0.0219202
6 *582:9 *583:9 0
7 *80:111 *582:9 0.00148405
8 *581:9 *582:9 0
*RES
1 wbs_dat_i[15] *582:5 488.847 
2 *582:5 *582:7 8 
3 *582:7 *582:9 135.682 
4 *582:9 *739:wbs_dat_i[15] 0.0914667 
*END

*D_NET *583 0.124394
*CONN
*P wbs_dat_i[16] I
*I *739:wbs_dat_i[16] I *D ntt_wb_bridge
*CAP
1 wbs_dat_i[16] 0.0222513
2 *739:wbs_dat_i[16] 3.96481e-05
3 *583:9 0.0395468
4 *583:7 0.0395072
5 *583:5 0.0222513
6 *583:9 *584:9 0
7 *118:103 *583:9 0.00079787
8 *582:9 *583:9 0
*RES
1 wbs_dat_i[16] *583:5 495.89 
2 *583:5 *583:7 8 
3 *583:7 *583:9 132.334 
4 *583:9 *739:wbs_dat_i[16] 0.0914667 
*END

*D_NET *584 0.164905
*CONN
*P wbs_dat_i[17] I
*I *739:wbs_dat_i[17] I *D ntt_wb_bridge
*CAP
1 wbs_dat_i[17] 0.022574
2 *739:wbs_dat_i[17] 3.89108e-05
3 *584:9 0.0267537
4 *584:7 0.0267148
5 *584:5 0.022574
6 *584:9 *585:9 0
7 io_out[35] *584:9 0.0662495
8 *118:103 *584:9 0
9 *583:9 *584:9 0
*RES
1 wbs_dat_i[17] *584:5 502.932 
2 *584:5 *584:7 8 
3 *584:7 *584:9 129.071 
4 *584:9 *739:wbs_dat_i[17] 0.0914667 
*END

*D_NET *585 0.120937
*CONN
*P wbs_dat_i[18] I
*I *739:wbs_dat_i[18] I *D ntt_wb_bridge
*CAP
1 wbs_dat_i[18] 0.0229131
2 *739:wbs_dat_i[18] 3.96481e-05
3 *585:9 0.0375556
4 *585:7 0.037516
5 *585:5 0.0229131
6 *585:9 *586:9 0
7 io_out[35] *585:9 0
8 *584:9 *585:9 0
*RES
1 wbs_dat_i[18] *585:5 509.975 
2 *585:5 *585:7 8 
3 *585:7 *585:9 125.722 
4 *585:9 *739:wbs_dat_i[18] 0.0914667 
*END

*D_NET *586 0.123995
*CONN
*P wbs_dat_i[19] I
*I *739:wbs_dat_i[19] I *D ntt_wb_bridge
*CAP
1 wbs_dat_i[19] 0.0232461
2 *739:wbs_dat_i[19] 3.96481e-05
3 *586:9 0.0370014
4 *586:7 0.0369618
5 *586:5 0.0232461
6 *586:9 *588:9 0
7 *96:27 *586:5 0.00350009
8 *585:9 *586:9 0
*RES
1 wbs_dat_i[19] *586:5 517.018 
2 *586:5 *586:7 8 
3 *586:7 *586:9 122.459 
4 *586:9 *739:wbs_dat_i[19] 0.0914667 
*END

*D_NET *587 0.146689
*CONN
*P wbs_dat_i[1] I
*I *739:wbs_dat_i[1] I *D ntt_wb_bridge
*CAP
1 wbs_dat_i[1] 0.0175073
2 *739:wbs_dat_i[1] 3.89108e-05
3 *587:9 0.0558373
4 *587:7 0.0557984
5 *587:5 0.0175073
6 *587:9 *598:9 0
7 *80:81 *587:9 0
8 *576:9 *587:9 0
*RES
1 wbs_dat_i[1] *587:5 390.247 
2 *587:5 *587:7 8 
3 *587:7 *587:9 185.313 
4 *587:9 *739:wbs_dat_i[1] 0.0914667 
*END

*D_NET *588 0.118693
*CONN
*P wbs_dat_i[20] I
*I *739:wbs_dat_i[20] I *D ntt_wb_bridge
*CAP
1 wbs_dat_i[20] 0.0235656
2 *739:wbs_dat_i[20] 3.89108e-05
3 *588:9 0.0357807
4 *588:7 0.0357418
5 *588:5 0.0235656
6 *588:9 *589:9 0
7 *586:9 *588:9 0
*RES
1 wbs_dat_i[20] *588:5 524.061 
2 *588:5 *588:7 8 
3 *588:7 *588:9 119.11 
4 *588:9 *739:wbs_dat_i[20] 0.0914667 
*END

*D_NET *589 0.117609
*CONN
*P wbs_dat_i[21] I
*I *739:wbs_dat_i[21] I *D ntt_wb_bridge
*CAP
1 wbs_dat_i[21] 0.0238917
2 *739:wbs_dat_i[21] 3.96481e-05
3 *589:9 0.0349127
4 *589:7 0.0348731
5 *589:5 0.0238917
6 *589:9 *590:9 0
7 *588:9 *589:9 0
*RES
1 wbs_dat_i[21] *589:5 531.104 
2 *589:5 *589:7 8 
3 *589:7 *589:9 115.847 
4 *589:9 *739:wbs_dat_i[21] 0.0914667 
*END

*D_NET *590 0.116798
*CONN
*P wbs_dat_i[22] I
*I *739:wbs_dat_i[22] I *D ntt_wb_bridge
*CAP
1 wbs_dat_i[22] 0.0242246
2 *739:wbs_dat_i[22] 3.96481e-05
3 *590:9 0.0341745
4 *590:7 0.0341348
5 *590:5 0.0242246
6 *590:9 *591:9 0
7 *589:9 *590:9 0
*RES
1 wbs_dat_i[22] *590:5 538.147 
2 *590:5 *590:7 8 
3 *590:7 *590:9 112.498 
4 *590:9 *739:wbs_dat_i[22] 0.0914667 
*END

*D_NET *591 0.115368
*CONN
*P wbs_dat_i[23] I
*I *739:wbs_dat_i[23] I *D ntt_wb_bridge
*CAP
1 wbs_dat_i[23] 0.0245558
2 *739:wbs_dat_i[23] 3.96481e-05
3 *591:9 0.0331282
4 *591:7 0.0330885
5 *591:5 0.0245558
6 *591:9 *592:9 0
7 *116:89 *591:5 0
8 *590:9 *591:9 0
*RES
1 wbs_dat_i[23] *591:5 545.19 
2 *591:5 *591:7 8 
3 *591:7 *591:9 109.15 
4 *591:9 *739:wbs_dat_i[23] 0.0914667 
*END

*D_NET *592 0.114111
*CONN
*P wbs_dat_i[24] I
*I *739:wbs_dat_i[24] I *D ntt_wb_bridge
*CAP
1 wbs_dat_i[24] 0.024897
2 *739:wbs_dat_i[24] 3.96481e-05
3 *592:9 0.0317391
4 *592:7 0.0316994
5 *592:5 0.024897
6 *592:9 *593:9 0
7 *118:111 *592:9 0.000838499
8 *591:9 *592:9 0
*RES
1 wbs_dat_i[24] *592:5 552.232 
2 *592:5 *592:7 8 
3 *592:7 *592:9 105.887 
4 *592:9 *739:wbs_dat_i[24] 0.0914667 
*END

*D_NET *593 0.112472
*CONN
*P wbs_dat_i[25] I
*I *739:wbs_dat_i[25] I *D ntt_wb_bridge
*CAP
1 wbs_dat_i[25] 0.02523
2 *739:wbs_dat_i[25] 3.96481e-05
3 *593:9 0.031006
4 *593:7 0.0309664
5 *593:5 0.02523
6 *593:9 *594:9 0
7 *118:111 *593:9 0
8 *592:9 *593:9 0
*RES
1 wbs_dat_i[25] *593:5 559.275 
2 *593:5 *593:7 8 
3 *593:7 *593:9 102.538 
4 *593:9 *739:wbs_dat_i[25] 0.0914667 
*END

*D_NET *594 0.111017
*CONN
*P wbs_dat_i[26] I
*I *739:wbs_dat_i[26] I *D ntt_wb_bridge
*CAP
1 wbs_dat_i[26] 0.0255611
2 *739:wbs_dat_i[26] 3.96481e-05
3 *594:9 0.0298888
4 *594:7 0.0298491
5 *594:5 0.0255611
6 *594:9 *595:9 0
7 *341:53 *594:9 0.000117269
8 *593:9 *594:9 0
*RES
1 wbs_dat_i[26] *594:5 566.318 
2 *594:5 *594:7 8 
3 *594:7 *594:9 99.2749 
4 *594:9 *739:wbs_dat_i[26] 0.0914667 
*END

*D_NET *595 0.10904
*CONN
*P wbs_dat_i[27] I
*I *739:wbs_dat_i[27] I *D ntt_wb_bridge
*CAP
1 wbs_dat_i[27] 0.0258906
2 *739:wbs_dat_i[27] 3.89108e-05
3 *595:9 0.0285708
4 *595:7 0.0285319
5 *595:5 0.0258906
6 *595:9 *596:9 0
7 *283:23 *595:9 0
8 *341:53 *595:9 0.000117269
9 *342:41 *595:9 0
10 *540:77 *595:5 0
11 *594:9 *595:9 0
*RES
1 wbs_dat_i[27] *595:5 573.361 
2 *595:5 *595:7 8 
3 *595:7 *595:9 95.9261 
4 *595:9 *739:wbs_dat_i[27] 0.0914667 
*END

*D_NET *596 0.107638
*CONN
*P wbs_dat_i[28] I
*I *739:wbs_dat_i[28] I *D ntt_wb_bridge
*CAP
1 wbs_dat_i[28] 0.0262742
2 *739:wbs_dat_i[28] 3.96481e-05
3 *596:9 0.0274921
4 *596:7 0.0274525
5 *596:5 0.0262742
6 *596:9 *597:9 0
7 *80:115 *596:5 0
8 *283:23 *596:9 3.06395e-05
9 *342:41 *596:9 7.46912e-05
10 *595:9 *596:9 0
*RES
1 wbs_dat_i[28] *596:5 580.404 
2 *596:5 *596:7 8 
3 *596:7 *596:9 92.6632 
4 *596:9 *739:wbs_dat_i[28] 0.0914667 
*END

*D_NET *597 0.108462
*CONN
*P wbs_dat_i[29] I
*I *739:wbs_dat_i[29] I *D ntt_wb_bridge
*CAP
1 wbs_dat_i[29] 0.0265609
2 *739:wbs_dat_i[29] 3.96481e-05
3 *597:9 0.0267459
4 *597:7 0.0267063
5 *597:5 0.0265609
6 *597:9 *599:9 0
7 *540:53 *597:5 0.00184882
8 *596:9 *597:9 0
*RES
1 wbs_dat_i[29] *597:5 587.447 
2 *597:5 *597:7 8 
3 *597:7 *597:9 89.3144 
4 *597:9 *739:wbs_dat_i[29] 0.0914667 
*END

*D_NET *598 0.143813
*CONN
*P wbs_dat_i[2] I
*I *739:wbs_dat_i[2] I *D ntt_wb_bridge
*CAP
1 wbs_dat_i[2] 0.0174277
2 *739:wbs_dat_i[2] 3.96481e-05
3 *598:9 0.0544788
4 *598:7 0.0544392
5 *598:5 0.0174277
6 *598:9 *601:9 0
7 *587:9 *598:9 0
*RES
1 wbs_dat_i[2] *598:5 397.29 
2 *598:5 *598:7 8 
3 *598:7 *598:9 180.934 
4 *598:9 *739:wbs_dat_i[2] 0.0914667 
*END

*D_NET *599 0.105207
*CONN
*P wbs_dat_i[30] I
*I *739:wbs_dat_i[30] I *D ntt_wb_bridge
*CAP
1 wbs_dat_i[30] 0.0266948
2 *739:wbs_dat_i[30] 3.89108e-05
3 *599:9 0.0256036
4 *599:7 0.0255646
5 *599:5 0.0266948
6 *599:9 *600:9 0
7 *116:59 *599:5 0.00061071
8 *597:9 *599:9 0
*RES
1 wbs_dat_i[30] *599:5 594.49 
2 *599:5 *599:7 8 
3 *599:7 *599:9 86.0515 
4 *599:9 *739:wbs_dat_i[30] 0.0914667 
*END

*D_NET *600 0.108821
*CONN
*P wbs_dat_i[31] I
*I *739:wbs_dat_i[31] I *D ntt_wb_bridge
*CAP
1 wbs_dat_i[31] 0.0255042
2 *739:wbs_dat_i[31] 3.96481e-05
3 *600:9 0.0247136
4 *600:7 0.0246739
5 *600:5 0.0255042
6 *116:49 *600:5 0.00391875
7 *118:105 *600:5 0.00446706
8 *542:7 *600:9 0
9 *599:9 *600:9 0
*RES
1 wbs_dat_i[31] *600:5 601.532 
2 *600:5 *600:7 8 
3 *600:7 *600:9 82.7027 
4 *600:9 *739:wbs_dat_i[31] 0.0914667 
*END

*D_NET *601 0.142661
*CONN
*P wbs_dat_i[3] I
*I *739:wbs_dat_i[3] I *D ntt_wb_bridge
*CAP
1 wbs_dat_i[3] 0.0177685
2 *739:wbs_dat_i[3] 3.89108e-05
3 *601:9 0.0528897
4 *601:7 0.0528508
5 *601:5 0.0177685
6 *601:9 *602:17 0
7 *118:95 *601:9 0.00134459
8 *598:9 *601:9 0
*RES
1 wbs_dat_i[3] *601:5 404.332 
2 *601:5 *601:7 8 
3 *601:7 *601:9 176.469 
4 *601:9 *739:wbs_dat_i[3] 0.0914667 
*END

*D_NET *602 0.139914
*CONN
*P wbs_dat_i[4] I
*I *739:wbs_dat_i[4] I *D ntt_wb_bridge
*CAP
1 wbs_dat_i[4] 0.0013627
2 *739:wbs_dat_i[4] 3.96481e-05
3 *602:17 0.0511765
4 *602:15 0.0511369
5 *602:13 0.0174178
6 *602:11 0.0187804
7 *602:13 wbs_dat_o[4] 0
8 *602:17 *603:9 0
9 *570:5 *602:13 0
10 *601:9 *602:17 0
*RES
1 wbs_dat_i[4] *602:11 34.1303 
2 *602:11 *602:13 395.249 
3 *602:13 *602:15 8 
4 *602:15 *602:17 170.287 
5 *602:17 *739:wbs_dat_i[4] 0.0914667 
*END

*D_NET *603 0.13931
*CONN
*P wbs_dat_i[5] I
*I *739:wbs_dat_i[5] I *D ntt_wb_bridge
*CAP
1 wbs_dat_i[5] 0.0184416
2 *739:wbs_dat_i[5] 3.96481e-05
3 *603:9 0.0512135
4 *603:7 0.0511739
5 *603:5 0.0184416
6 *603:9 *604:9 0
7 *602:17 *603:9 0
*RES
1 wbs_dat_i[5] *603:5 418.418 
2 *603:5 *603:7 8 
3 *603:7 *603:9 168.741 
4 *603:9 *739:wbs_dat_i[5] 0.0914667 
*END

*D_NET *604 0.138322
*CONN
*P wbs_dat_i[6] I
*I *739:wbs_dat_i[6] I *D ntt_wb_bridge
*CAP
1 wbs_dat_i[6] 0.0187728
2 *739:wbs_dat_i[6] 3.89108e-05
3 *604:9 0.0493761
4 *604:7 0.0493372
5 *604:5 0.0187728
6 *604:9 *605:9 0
7 *80:95 *604:9 0.000974813
8 *540:67 *604:9 0.00104945
9 *603:9 *604:9 0
*RES
1 wbs_dat_i[6] *604:5 425.461 
2 *604:5 *604:7 8 
3 *604:7 *604:9 165.478 
4 *604:9 *739:wbs_dat_i[6] 0.0914667 
*END

*D_NET *605 0.136592
*CONN
*P wbs_dat_i[7] I
*I *739:wbs_dat_i[7] I *D ntt_wb_bridge
*CAP
1 wbs_dat_i[7] 0.0190989
2 *739:wbs_dat_i[7] 3.96481e-05
3 *605:9 0.0487372
4 *605:7 0.0486975
5 *605:5 0.0190989
6 *605:9 *606:9 0
7 io_oeb[35] *605:9 0
8 *80:95 *605:9 0
9 *540:67 *605:9 0.000920322
10 *604:9 *605:9 0
*RES
1 wbs_dat_i[7] *605:5 432.504 
2 *605:5 *605:7 8 
3 *605:7 *605:9 162.129 
4 *605:9 *739:wbs_dat_i[7] 0.0914667 
*END

*D_NET *606 0.137033
*CONN
*P wbs_dat_i[8] I
*I *739:wbs_dat_i[8] I *D ntt_wb_bridge
*CAP
1 wbs_dat_i[8] 0.0194528
2 *739:wbs_dat_i[8] 3.96481e-05
3 *606:9 0.0459
4 *606:7 0.0458603
5 *606:5 0.0194528
6 *606:9 *607:9 0
7 io_oeb[35] *606:9 0.005278
8 *80:95 *606:9 0.00104912
9 *540:67 *606:9 0
10 *605:9 *606:9 0
*RES
1 wbs_dat_i[8] *606:5 439.547 
2 *606:5 *606:7 8 
3 *606:7 *606:9 158.866 
4 *606:9 *739:wbs_dat_i[8] 0.0914667 
*END

*D_NET *607 0.133891
*CONN
*P wbs_dat_i[9] I
*I *739:wbs_dat_i[9] I *D ntt_wb_bridge
*CAP
1 wbs_dat_i[9] 0.0197754
2 *739:wbs_dat_i[9] 3.89108e-05
3 *607:9 0.0471701
4 *607:7 0.0471311
5 *607:5 0.0197754
6 *80:95 *607:9 0
7 *577:9 *607:9 0
8 *606:9 *607:9 0
*RES
1 wbs_dat_i[9] *607:5 446.59 
2 *607:5 *607:7 8 
3 *607:7 *607:9 155.518 
4 *607:9 *739:wbs_dat_i[9] 0.0914667 
*END

*D_NET *608 0.166303
*CONN
*P wbs_dat_o[0] O
*I *739:wbs_dat_o[0] O *D ntt_wb_bridge
*CAP
1 wbs_dat_o[0] 0.0268031
2 *739:wbs_dat_o[0] 3.96481e-05
3 *608:9 0.0268031
4 *608:7 0.0559197
5 *608:5 0.0559593
6 *608:7 *619:7 0
7 *540:83 *608:7 0.000778334
8 *542:7 *608:7 0
*RES
1 *739:wbs_dat_o[0] *608:5 0.0914667 
2 *608:5 *608:7 188.662 
3 *608:7 *608:9 8 
4 *608:9 wbs_dat_o[0] 615.618 
*END

*D_NET *609 0.152455
*CONN
*P wbs_dat_o[10] O
*I *739:wbs_dat_o[10] O *D ntt_wb_bridge
*CAP
1 wbs_dat_o[10] 0.0310381
2 *739:wbs_dat_o[10] 3.89108e-05
3 *609:9 0.0310381
4 *609:7 0.0451504
5 *609:5 0.0451893
6 *609:7 *610:7 0
7 *609:7 *639:7 0
8 *80:127 *609:7 0
9 *118:119 *609:7 0
*RES
1 *739:wbs_dat_o[10] *609:5 0.0914667 
2 *609:5 *609:7 151.138 
3 *609:7 *609:9 8 
4 *609:9 wbs_dat_o[10] 686.047 
*END

*D_NET *610 0.195195
*CONN
*P wbs_dat_o[11] O
*I *739:wbs_dat_o[11] O *D ntt_wb_bridge
*CAP
1 wbs_dat_o[11] 0.00253496
2 *739:wbs_dat_o[11] 3.96481e-05
3 *610:17 0.00253496
4 *610:15 0.0090193
5 *610:13 0.0090193
6 *610:11 0.0287093
7 *610:9 0.0287093
8 *610:7 0.0233206
9 *610:5 0.0233603
10 *610:7 *611:7 0
11 *80:101 *610:11 0
12 *82:21 *610:15 0.0333754
13 *86:29 *610:15 0.000201825
14 *87:53 *610:15 0.0343697
15 *95:79 *610:15 0
16 *116:33 *610:11 0
17 *609:7 *610:7 0
*RES
1 *739:wbs_dat_o[11] *610:5 0.0914667 
2 *610:5 *610:7 77.5507 
3 *610:7 *610:9 8 
4 *610:9 *610:11 640.341 
5 *610:11 *610:13 8 
6 *610:13 *610:15 70.2949 
7 *610:15 *610:17 8 
8 *610:17 wbs_dat_o[11] 52.8939 
*END

*D_NET *611 0.15065
*CONN
*P wbs_dat_o[12] O
*I *739:wbs_dat_o[12] O *D ntt_wb_bridge
*CAP
1 wbs_dat_o[12] 0.0317496
2 *739:wbs_dat_o[12] 3.96481e-05
3 *611:9 0.0317496
4 *611:7 0.0435359
5 *611:5 0.0435755
6 *611:7 *612:7 0
7 *610:7 *611:7 0
*RES
1 *739:wbs_dat_o[12] *611:5 0.0914667 
2 *611:5 *611:7 144.527 
3 *611:7 *611:9 8 
4 *611:9 wbs_dat_o[12] 700.133 
*END

*D_NET *612 0.157641
*CONN
*P wbs_dat_o[13] O
*I *739:wbs_dat_o[13] O *D ntt_wb_bridge
*CAP
1 wbs_dat_o[13] 0.0243088
2 *739:wbs_dat_o[13] 3.89108e-05
3 *612:9 0.0243088
4 *612:7 0.0419213
5 *612:5 0.0419603
6 *612:7 *613:7 0
7 *82:25 wbs_dat_o[13] 0.0249847
8 *120:17 wbs_dat_o[13] 0.000118771
9 *611:7 *612:7 0
*RES
1 *739:wbs_dat_o[13] *612:5 0.0914667 
2 *612:5 *612:7 141.178 
3 *612:7 *612:9 8 
4 *612:9 wbs_dat_o[13] 707.175 
*END

*D_NET *613 0.146336
*CONN
*P wbs_dat_o[14] O
*I *739:wbs_dat_o[14] O *D ntt_wb_bridge
*CAP
1 wbs_dat_o[14] 0.0321924
2 *739:wbs_dat_o[14] 3.96481e-05
3 *613:9 0.0321924
4 *613:7 0.0407646
5 *613:5 0.0408043
6 *613:7 *614:7 0
7 *119:25 wbs_dat_o[14] 0
8 *540:91 *613:7 0.000343011
9 *612:7 *613:7 0
*RES
1 *739:wbs_dat_o[14] *613:5 0.0914667 
2 *613:5 *613:7 137.915 
3 *613:7 *613:9 8 
4 *613:9 wbs_dat_o[14] 714.218 
*END

*D_NET *614 0.14476
*CONN
*P wbs_dat_o[15] O
*I *739:wbs_dat_o[15] O *D ntt_wb_bridge
*CAP
1 wbs_dat_o[15] 0.0321428
2 *739:wbs_dat_o[15] 3.96481e-05
3 *614:9 0.0321428
4 *614:7 0.0401977
5 *614:5 0.0402373
6 *614:7 *615:7 0
7 *613:7 *614:7 0
*RES
1 *739:wbs_dat_o[15] *614:5 0.0914667 
2 *614:5 *614:7 134.566 
3 *614:7 *614:9 8 
4 *614:9 wbs_dat_o[15] 721.261 
*END

*D_NET *615 0.144463
*CONN
*P wbs_dat_o[16] O
*I *739:wbs_dat_o[16] O *D ntt_wb_bridge
*CAP
1 wbs_dat_o[16] 0.0324854
2 *739:wbs_dat_o[16] 3.96481e-05
3 *615:9 0.0324854
4 *615:7 0.0375955
5 *615:5 0.0376351
6 *615:7 *616:7 0
7 *118:127 *615:7 0.00422194
8 *614:7 *615:7 0
*RES
1 *739:wbs_dat_o[16] *615:5 0.0914667 
2 *615:5 *615:7 131.217 
3 *615:7 *615:9 8 
4 *615:9 wbs_dat_o[16] 728.304 
*END

*D_NET *616 0.142053
*CONN
*P wbs_dat_o[17] O
*I *739:wbs_dat_o[17] O *D ntt_wb_bridge
*CAP
1 wbs_dat_o[17] 0.0328313
2 *739:wbs_dat_o[17] 3.96481e-05
3 *616:9 0.0328313
4 *616:7 0.0381553
5 *616:5 0.0381949
6 *616:7 *617:7 0
7 *118:127 *616:7 0
8 *615:7 *616:7 0
*RES
1 *739:wbs_dat_o[17] *616:5 0.0914667 
2 *616:5 *616:7 127.954 
3 *616:7 *616:9 8 
4 *616:9 wbs_dat_o[17] 735.347 
*END

*D_NET *617 0.141937
*CONN
*P wbs_dat_o[18] O
*I *739:wbs_dat_o[18] O *D ntt_wb_bridge
*CAP
1 wbs_dat_o[18] 0.0331739
2 *739:wbs_dat_o[18] 3.96481e-05
3 *617:9 0.0331739
4 *617:7 0.0364983
5 *617:5 0.036538
6 *617:7 *618:7 0
7 *80:139 *617:7 0.00206899
8 *116:111 *617:7 0.000444231
9 *616:7 *617:7 0
*RES
1 *739:wbs_dat_o[18] *617:5 0.0914667 
2 *617:5 *617:7 124.606 
3 *617:7 *617:9 8 
4 *617:9 wbs_dat_o[18] 742.39 
*END

*D_NET *618 0.139928
*CONN
*P wbs_dat_o[19] O
*I *739:wbs_dat_o[19] O *D ntt_wb_bridge
*CAP
1 wbs_dat_o[19] 0.0335151
2 *739:wbs_dat_o[19] 3.96481e-05
3 *618:9 0.0335151
4 *618:7 0.0364095
5 *618:5 0.0364491
6 *618:7 *620:7 0
7 *80:139 *618:7 0
8 *540:109 *618:7 0
9 *617:7 *618:7 0
*RES
1 *739:wbs_dat_o[19] *618:5 0.0914667 
2 *618:5 *618:7 121.343 
3 *618:7 *618:9 8 
4 *618:9 wbs_dat_o[19] 749.432 
*END

*D_NET *619 0.165193
*CONN
*P wbs_dat_o[1] O
*I *739:wbs_dat_o[1] O *D ntt_wb_bridge
*CAP
1 wbs_dat_o[1] 0.0271604
2 *739:wbs_dat_o[1] 3.96481e-05
3 *619:9 0.0271604
4 *619:7 0.0553966
5 *619:5 0.0554362
6 *619:7 *630:7 0
7 *608:7 *619:7 0
*RES
1 *739:wbs_dat_o[1] *619:5 0.0914667 
2 *619:5 *619:7 184.197 
3 *619:7 *619:9 8 
4 *619:9 wbs_dat_o[1] 622.661 
*END

*D_NET *620 0.14025
*CONN
*P wbs_dat_o[20] O
*I *739:wbs_dat_o[20] O *D ntt_wb_bridge
*CAP
1 wbs_dat_o[20] 0.0338885
2 *739:wbs_dat_o[20] 3.89108e-05
3 *620:13 0.0383484
4 *620:7 0.0345986
5 *620:5 0.0301776
6 *620:7 *621:7 0
7 *620:13 *621:7 0
8 *116:113 wbs_dat_o[20] 0
9 *540:109 *620:13 0.00319778
10 *618:7 *620:7 0
*RES
1 *739:wbs_dat_o[20] *620:5 0.0914667 
2 *620:5 *620:7 101.379 
3 *620:7 *620:13 24.8541 
4 *620:13 wbs_dat_o[20] 757.18 
*END

*D_NET *621 0.138385
*CONN
*P wbs_dat_o[21] O
*I *739:wbs_dat_o[21] O *D ntt_wb_bridge
*CAP
1 wbs_dat_o[21] 0.0335163
2 *739:wbs_dat_o[21] 3.96481e-05
3 *621:9 0.0335163
4 *621:7 0.0341219
5 *621:5 0.0341615
6 *621:7 *622:7 0
7 *80:147 *621:7 0.000985527
8 *116:105 wbs_dat_o[21] 0.00204346
9 *620:7 *621:7 0
10 *620:13 *621:7 0
*RES
1 *739:wbs_dat_o[21] *621:5 0.0914667 
2 *621:5 *621:7 114.731 
3 *621:7 *621:9 8 
4 *621:9 wbs_dat_o[21] 763.518 
*END

*D_NET *622 0.13639
*CONN
*P wbs_dat_o[22] O
*I *739:wbs_dat_o[22] O *D ntt_wb_bridge
*CAP
1 wbs_dat_o[22] 0.0345618
2 *739:wbs_dat_o[22] 3.96481e-05
3 *622:9 0.0345618
4 *622:7 0.0335934
5 *622:5 0.033633
6 *622:7 *623:7 0
7 *118:129 wbs_dat_o[22] 0
8 *540:115 *622:7 0
9 *621:7 *622:7 0
*RES
1 *739:wbs_dat_o[22] *622:5 0.0914667 
2 *622:5 *622:7 111.382 
3 *622:7 *622:9 8 
4 *622:9 wbs_dat_o[22] 770.561 
*END

*D_NET *623 0.134427
*CONN
*P wbs_dat_o[23] O
*I *739:wbs_dat_o[23] O *D ntt_wb_bridge
*CAP
1 wbs_dat_o[23] 0.0349227
2 *739:wbs_dat_o[23] 3.89108e-05
3 *623:9 0.0349227
4 *623:7 0.0322518
5 *623:5 0.0322907
6 *623:7 *624:7 0
7 *116:89 wbs_dat_o[23] 0
8 *622:7 *623:7 0
*RES
1 *739:wbs_dat_o[23] *623:5 0.0914667 
2 *623:5 *623:7 108.119 
3 *623:7 *623:9 8 
4 *623:9 wbs_dat_o[23] 777.604 
*END

*D_NET *624 0.133714
*CONN
*P wbs_dat_o[24] O
*I *739:wbs_dat_o[24] O *D ntt_wb_bridge
*CAP
1 wbs_dat_o[24] 0.0345115
2 *739:wbs_dat_o[24] 3.96481e-05
3 *624:9 0.0345115
4 *624:7 0.0312288
5 *624:5 0.0312684
6 *624:7 *625:7 0
7 *116:81 wbs_dat_o[24] 0.00215417
8 *623:7 *624:7 0
*RES
1 *739:wbs_dat_o[24] *624:5 0.0914667 
2 *624:5 *624:7 104.77 
3 *624:7 *624:9 8 
4 *624:9 wbs_dat_o[24] 783.943 
*END

*D_NET *625 0.132167
*CONN
*P wbs_dat_o[25] O
*I *739:wbs_dat_o[25] O *D ntt_wb_bridge
*CAP
1 wbs_dat_o[25] 0.0355709
2 *739:wbs_dat_o[25] 3.96481e-05
3 *625:9 0.0355709
4 *625:7 0.0304727
5 *625:5 0.0305124
6 *625:7 *626:7 0
7 *80:131 wbs_dat_o[25] 0
8 *540:85 wbs_dat_o[25] 0
9 *540:93 wbs_dat_o[25] 0
10 *624:7 *625:7 0
*RES
1 *739:wbs_dat_o[25] *625:5 0.0914667 
2 *625:5 *625:7 101.507 
3 *625:7 *625:9 8 
4 *625:9 wbs_dat_o[25] 790.985 
*END

*D_NET *626 0.136902
*CONN
*P wbs_dat_o[26] O
*I *739:wbs_dat_o[26] O *D ntt_wb_bridge
*CAP
1 wbs_dat_o[26] 0.0335354
2 *739:wbs_dat_o[26] 3.89108e-05
3 *626:9 0.0335354
4 *626:7 0.0291307
5 *626:5 0.0291696
6 *116:73 wbs_dat_o[26] 0.0114914
7 *625:7 *626:7 0
*RES
1 *739:wbs_dat_o[26] *626:5 0.0914667 
2 *626:5 *626:7 98.1587 
3 *626:7 *626:9 8 
4 *626:9 wbs_dat_o[26] 798.028 
*END

*D_NET *627 0.129357
*CONN
*P wbs_dat_o[27] O
*I *739:wbs_dat_o[27] O *D ntt_wb_bridge
*CAP
1 wbs_dat_o[27] 0.0362675
2 *739:wbs_dat_o[27] 3.96481e-05
3 *627:9 0.0362675
4 *627:7 0.0283716
5 *627:5 0.0284112
6 *627:7 *628:7 0
7 *540:73 wbs_dat_o[27] 0
8 *540:77 wbs_dat_o[27] 0
*RES
1 *739:wbs_dat_o[27] *627:5 0.0914667 
2 *627:5 *627:7 94.8099 
3 *627:7 *627:9 8 
4 *627:9 wbs_dat_o[27] 805.775 
*END

*D_NET *628 0.12987
*CONN
*P wbs_dat_o[28] O
*I *739:wbs_dat_o[28] O *D ntt_wb_bridge
*CAP
1 wbs_dat_o[28] 0.0347979
2 *739:wbs_dat_o[28] 3.96481e-05
3 *628:9 0.0347979
4 *628:7 0.0273616
5 *628:5 0.0274012
6 *628:7 *629:7 0
7 *116:65 wbs_dat_o[28] 0.0054721
8 *540:67 wbs_dat_o[28] 0
9 *627:7 *628:7 0
*RES
1 *739:wbs_dat_o[28] *628:5 0.0914667 
2 *628:5 *628:7 91.5469 
3 *628:7 *628:9 8 
4 *628:9 wbs_dat_o[28] 812.818 
*END

*D_NET *629 0.127451
*CONN
*P wbs_dat_o[29] O
*I *739:wbs_dat_o[29] O *D ntt_wb_bridge
*CAP
1 wbs_dat_o[29] 0.0364645
2 *739:wbs_dat_o[29] 3.89108e-05
3 *629:9 0.0364645
4 *629:7 0.0260838
5 *629:5 0.0261227
6 *629:7 *631:7 0
7 *118:113 wbs_dat_o[29] 0
8 *540:47 wbs_dat_o[29] 0.00227667
9 *628:7 *629:7 0
*RES
1 *739:wbs_dat_o[29] *629:5 0.0914667 
2 *629:5 *629:7 88.1981 
3 *629:7 *629:9 8 
4 *629:9 wbs_dat_o[29] 819.861 
*END

*D_NET *630 0.162219
*CONN
*P wbs_dat_o[2] O
*I *739:wbs_dat_o[2] O *D ntt_wb_bridge
*CAP
1 wbs_dat_o[2] 0.0275239
2 *739:wbs_dat_o[2] 3.89108e-05
3 *630:9 0.0275239
4 *630:7 0.0535464
5 *630:5 0.0535854
6 *630:7 *633:7 0
7 *619:7 *630:7 0
*RES
1 *739:wbs_dat_o[2] *630:5 0.0914667 
2 *630:5 *630:7 179.818 
3 *630:7 *630:9 8 
4 *630:9 wbs_dat_o[2] 629.704 
*END

*D_NET *631 0.125093
*CONN
*P wbs_dat_o[30] O
*I *739:wbs_dat_o[30] O *D ntt_wb_bridge
*CAP
1 wbs_dat_o[30] 0.0372757
2 *739:wbs_dat_o[30] 3.96481e-05
3 *631:9 0.0372757
4 *631:7 0.0252309
5 *631:5 0.0252705
6 *631:7 *632:7 0
7 *540:35 wbs_dat_o[30] 0
8 *629:7 *631:7 0
*RES
1 *739:wbs_dat_o[30] *631:5 0.0914667 
2 *631:5 *631:7 84.9352 
3 *631:7 *631:9 8 
4 *631:9 wbs_dat_o[30] 826.904 
*END

*D_NET *632 0.128146
*CONN
*P wbs_dat_o[31] O
*I *739:wbs_dat_o[31] O *D ntt_wb_bridge
*CAP
1 wbs_dat_o[31] 0.0351194
2 *739:wbs_dat_o[31] 3.89108e-05
3 *632:9 0.0351194
4 *632:7 0.0233471
5 *632:5 0.023386
6 *388:27 *632:7 0.00359413
7 *540:25 wbs_dat_o[31] 0.00754074
8 *631:7 *632:7 0
*RES
1 *739:wbs_dat_o[31] *632:5 0.0914667 
2 *632:5 *632:7 81.5864 
3 *632:7 *632:9 8 
4 *632:9 wbs_dat_o[31] 833.947 
*END

*D_NET *633 0.189622
*CONN
*P wbs_dat_o[3] O
*I *739:wbs_dat_o[3] O *D ntt_wb_bridge
*CAP
1 wbs_dat_o[3] 0.019565
2 *739:wbs_dat_o[3] 3.96481e-05
3 *633:9 0.019565
4 *633:7 0.0521788
5 *633:5 0.0522185
6 *633:7 *634:7 0
7 io_out[23] wbs_dat_o[3] 0.0460554
8 *630:7 *633:7 0
*RES
1 *739:wbs_dat_o[3] *633:5 0.0914667 
2 *633:5 *633:7 175.353 
3 *633:7 *633:9 8 
4 *633:9 wbs_dat_o[3] 636.747 
*END

*D_NET *634 0.159032
*CONN
*P wbs_dat_o[4] O
*I *739:wbs_dat_o[4] O *D ntt_wb_bridge
*CAP
1 wbs_dat_o[4] 0.0282344
2 *739:wbs_dat_o[4] 3.96481e-05
3 *634:9 0.0282344
4 *634:7 0.0512417
5 *634:5 0.0512814
6 *634:7 *635:7 0
7 *602:13 wbs_dat_o[4] 0
8 *633:7 *634:7 0
*RES
1 *739:wbs_dat_o[4] *634:5 0.0914667 
2 *634:5 *634:7 170.974 
3 *634:7 *634:9 8 
4 *634:9 wbs_dat_o[4] 643.79 
*END

*D_NET *635 0.15701
*CONN
*P wbs_dat_o[5] O
*I *739:wbs_dat_o[5] O *D ntt_wb_bridge
*CAP
1 wbs_dat_o[5] 0.028565
2 *739:wbs_dat_o[5] 3.89108e-05
3 *635:9 0.028565
4 *635:7 0.0499012
5 *635:5 0.0499401
6 *635:7 *636:7 0
7 *634:7 *635:7 0
*RES
1 *739:wbs_dat_o[5] *635:5 0.0914667 
2 *635:5 *635:7 167.711 
3 *635:7 *635:9 8 
4 *635:9 wbs_dat_o[5] 650.833 
*END

*D_NET *636 0.155944
*CONN
*P wbs_dat_o[6] O
*I *739:wbs_dat_o[6] O *D ntt_wb_bridge
*CAP
1 wbs_dat_o[6] 0.0289058
2 *739:wbs_dat_o[6] 3.96481e-05
3 *636:9 0.0289058
4 *636:7 0.0490263
5 *636:5 0.049066
6 *636:7 *637:7 0
7 *635:7 *636:7 0
*RES
1 *739:wbs_dat_o[6] *636:5 0.0914667 
2 *636:5 *636:7 164.362 
3 *636:7 *636:9 8 
4 *636:9 wbs_dat_o[6] 657.875 
*END

*D_NET *637 0.155782
*CONN
*P wbs_dat_o[7] O
*I *739:wbs_dat_o[7] O *D ntt_wb_bridge
*CAP
1 wbs_dat_o[7] 0.0292483
2 *739:wbs_dat_o[7] 3.96481e-05
3 *637:9 0.0292483
4 *637:7 0.0486029
5 *637:5 0.0486425
6 *637:7 *638:7 0
7 *80:127 *637:7 0
8 *636:7 *637:7 0
*RES
1 *739:wbs_dat_o[7] *637:5 0.0914667 
2 *637:5 *637:7 161.013 
3 *637:7 *637:9 8 
4 *637:9 wbs_dat_o[7] 664.918 
*END

*D_NET *638 0.153948
*CONN
*P wbs_dat_o[8] O
*I *739:wbs_dat_o[8] O *D ntt_wb_bridge
*CAP
1 wbs_dat_o[8] 0.029592
2 *739:wbs_dat_o[8] 3.89108e-05
3 *638:9 0.029592
4 *638:7 0.0471013
5 *638:5 0.0471402
6 *638:7 *639:7 0
7 *80:127 *638:7 0.000483624
8 *637:7 *638:7 0
*RES
1 *739:wbs_dat_o[8] *638:5 0.0914667 
2 *638:5 *638:7 157.75 
3 *638:7 *638:9 8 
4 *638:9 wbs_dat_o[8] 671.961 
*END

*D_NET *639 0.153015
*CONN
*P wbs_dat_o[9] O
*I *739:wbs_dat_o[9] O *D ntt_wb_bridge
*CAP
1 wbs_dat_o[9] 0.0299328
2 *739:wbs_dat_o[9] 3.96481e-05
3 *639:9 0.0299328
4 *639:7 0.0457146
5 *639:5 0.0457542
6 *80:127 *639:7 0.00164065
7 *609:7 *639:7 0
8 *638:7 *639:7 0
*RES
1 *739:wbs_dat_o[9] *639:5 0.0914667 
2 *639:5 *639:7 154.401 
3 *639:7 *639:9 8 
4 *639:9 wbs_dat_o[9] 679.004 
*END

*D_NET *640 0.125766
*CONN
*P wbs_sel_i[0] I
*I *739:wbs_sel_i[0] I *D ntt_wb_bridge
*CAP
1 wbs_sel_i[0] 0.00575735
2 *739:wbs_sel_i[0] 3.89108e-05
3 *640:9 0.0571255
4 *640:7 0.0570866
5 *640:5 0.00575735
6 *640:9 *641:9 0
7 *640:9 *645:9 0
*RES
1 wbs_sel_i[0] *640:5 129.661 
2 *640:5 *640:7 8 
3 *640:7 *640:9 187.546 
4 *640:9 *739:wbs_sel_i[0] 0.0914667 
*END

*D_NET *641 0.124746
*CONN
*P wbs_sel_i[1] I
*I *739:wbs_sel_i[1] I *D ntt_wb_bridge
*CAP
1 wbs_sel_i[1] 0.00608342
2 *739:wbs_sel_i[1] 3.96481e-05
3 *641:9 0.0557351
4 *641:7 0.0556955
5 *641:5 0.00608342
6 *641:9 *642:9 0
7 *132:23 *641:5 0.00110895
8 *540:21 *641:9 0
9 *640:9 *641:9 0
*RES
1 wbs_sel_i[1] *641:5 136.704 
2 *641:5 *641:7 8 
3 *641:7 *641:9 183.081 
4 *641:9 *739:wbs_sel_i[1] 0.0914667 
*END

*D_NET *642 0.122728
*CONN
*P wbs_sel_i[2] I
*I *739:wbs_sel_i[2] I *D ntt_wb_bridge
*CAP
1 wbs_sel_i[2] 0.00656627
2 *739:wbs_sel_i[2] 3.96481e-05
3 *642:9 0.0546447
4 *642:7 0.054605
5 *642:5 0.00656627
6 *642:9 *643:9 0
7 *118:53 *642:9 0
8 *540:21 *642:9 0.000306386
9 *641:9 *642:9 0
*RES
1 wbs_sel_i[2] *642:5 143.747 
2 *642:5 *642:7 8 
3 *642:7 *642:9 178.702 
4 *642:9 *739:wbs_sel_i[2] 0.0914667 
*END

*D_NET *643 0.119324
*CONN
*P wbs_sel_i[3] I
*I *739:wbs_sel_i[3] I *D ntt_wb_bridge
*CAP
1 wbs_sel_i[3] 0.00672419
2 *739:wbs_sel_i[3] 3.89108e-05
3 *643:9 0.0527934
4 *643:7 0.0527545
5 *643:5 0.00672419
6 *118:53 *643:9 0.000288887
7 *543:9 *643:9 0
8 *642:9 *643:9 0
*RES
1 wbs_sel_i[3] *643:5 150.79 
2 *643:5 *643:7 8 
3 *643:7 *643:9 174.322 
4 *643:9 *739:wbs_sel_i[3] 0.0914667 
*END

*D_NET *644 0.130916
*CONN
*P wbs_stb_i I
*I *739:wbs_stb_i I *D ntt_wb_bridge
*CAP
1 wbs_stb_i 0.0040743
2 *739:wbs_stb_i 3.96481e-05
3 *644:9 0.0581758
4 *644:7 0.0581361
5 *644:5 0.0040743
6 *644:9 *645:9 0
7 *80:49 *644:9 0
8 *118:47 *644:9 0.00397038
9 *542:11 *644:5 0
10 *575:13 *644:5 0.00244558
11 *575:17 *644:9 0
*RES
1 wbs_stb_i *644:5 115.575 
2 *644:5 *644:7 8 
3 *644:7 *644:9 193.041 
4 *644:9 *739:wbs_stb_i 0.0914667 
*END

*D_NET *645 0.128752
*CONN
*P wbs_we_i I
*I *739:wbs_we_i I *D ntt_wb_bridge
*CAP
1 wbs_we_i 0.00543922
2 *739:wbs_we_i 3.96481e-05
3 *645:9 0.058937
4 *645:7 0.0588973
5 *645:5 0.00543922
6 *118:47 *645:9 0
7 *640:9 *645:9 0
8 *644:9 *645:9 0
*RES
1 wbs_we_i *645:5 122.618 
2 *645:5 *645:7 8 
3 *645:7 *645:9 191.925 
4 *645:9 *739:wbs_we_i 0.0914667 
*END

*D_NET *646 0.751999
*CONN
*I *739:busy_i I *D ntt_wb_bridge
*I *740:busy O *D ntt_engine_256
*CAP
1 *739:busy_i 0.0017694
2 *740:busy 0.00059975
3 *646:63 0.0046973
4 *646:61 0.0029279
5 *646:59 0.0030627
6 *646:57 0.0030627
7 *646:55 0.00116843
8 *646:51 0.00228461
9 *646:47 0.0229517
10 *646:45 0.0218356
11 *646:43 0.0187598
12 *646:41 0.0187598
13 *646:39 0.00138117
14 *646:35 0.0461555
15 *646:33 0.0451693
16 *646:29 0.000722857
17 *646:19 0.00780186
18 *646:17 0.00774725
19 *646:11 0.0452274
20 *646:9 0.0455539
21 *739:busy_i *711:11 0.000112317
22 *739:busy_i *734:25 0
23 *646:11 *679:11 0.078676
24 *646:11 *685:13 0
25 *646:11 *714:155 0
26 *646:17 *740:slot_a[0] 0
27 *646:19 *648:23 0.0366191
28 *646:19 *658:135 0.0457919
29 *646:19 *663:11 0.00368708
30 *646:19 *671:15 0.00345135
31 *646:19 *732:15 0.00209334
32 *646:35 *658:123 0.0261947
33 *646:35 *673:15 0
34 *646:35 *685:37 0
35 *646:47 *655:129 0
36 *646:47 *663:35 0.0374392
37 *646:47 *694:165 0
38 *646:47 *703:15 0.0177877
39 *646:47 *715:63 0.000341592
40 *646:47 *723:131 0
41 *646:55 *679:61 0.00011061
42 la_data_out[84] *646:59 0
43 *76:95 *646:33 0.00106777
44 *76:103 *646:19 0
45 *77:171 *646:35 0.144902
46 *77:179 *646:29 0.000292127
47 *78:141 *646:29 0.000369411
48 *115:137 *646:43 0.0500535
49 *115:149 *646:33 0.000180268
50 *364:23 *739:busy_i 7.6745e-05
51 *372:19 *739:busy_i 0.000215048
52 *398:23 *646:55 0.000897636
*RES
1 *740:busy *646:9 21.1536 
2 *646:9 *646:11 205.106 
3 *646:11 *646:17 27.5468 
4 *646:17 *646:19 500.395 
5 *646:19 *646:29 40.0671 
6 *646:29 *646:33 26.5793 
7 *646:33 *646:35 1839.74 
8 *646:35 *646:39 35.6314 
9 *646:39 *646:41 15 
10 *646:41 *646:43 643.158 
11 *646:43 *646:45 15 
12 *646:45 *646:47 610.926 
13 *646:47 *646:51 38.3864 
14 *646:51 *646:55 47.5421 
15 *646:55 *646:57 15 
16 *646:57 *646:59 59.305 
17 *646:59 *646:61 15 
18 *646:61 *646:63 46.835 
19 *646:63 *739:busy_i 29.5343 
*END

*D_NET *647 0.336011
*CONN
*I *739:done_i I *D ntt_wb_bridge
*I *740:done O *D ntt_engine_256
*CAP
1 *739:done_i 0.00156842
2 *740:done 0.00125573
3 *647:31 0.00227242
4 *647:23 0.00216567
5 *647:21 0.00146166
6 *647:19 0.00203544
7 *647:17 0.00210344
8 *647:11 0.0236001
9 *647:9 0.0247878
10 *647:11 *649:11 0.0312939
11 *647:11 *661:31 0.00282447
12 *647:11 *662:19 0.121542
13 *647:11 *675:19 0.0707717
14 *647:11 *710:31 0.000343886
15 *647:19 *649:11 0.0013321
16 *647:19 *661:31 0.00222874
17 *647:19 *664:23 0.00851944
18 *647:31 *689:35 0.000160956
19 *354:21 *647:17 9.72298e-05
20 *357:27 *647:23 0.00336501
21 *358:25 *647:11 0.0106786
22 *364:23 *647:31 0.000158665
23 *367:19 *647:23 0.00387776
24 *398:19 *647:11 0.0175654
*RES
1 *740:done *647:9 31.7179 
2 *647:9 *647:11 256.969 
3 *647:11 *647:17 24.3775 
4 *647:17 *647:19 93.525 
5 *647:19 *647:21 15 
6 *647:21 *647:23 52.6143 
7 *647:23 *647:31 42.2318 
8 *647:31 *739:done_i 11.2779 
*END

*D_NET *648 0.79915
*CONN
*I *740:rst_n I *D ntt_engine_256
*I *739:engine_rst_n_o O *D ntt_wb_bridge
*CAP
1 *740:rst_n 0.000496737
2 *739:engine_rst_n_o 2.38341e-05
3 *648:23 0.00693944
4 *648:21 0.00727198
5 *648:11 0.0390919
6 *648:9 0.0382626
7 *648:7 0.0379852
8 *648:5 0.038009
9 *648:11 *659:111 0.0244824
10 *648:11 *705:11 0.00513632
11 *648:11 *732:11 0.260233
12 *648:21 *671:15 0.00145569
13 *648:21 *679:21 0.000352939
14 *648:21 *715:91 0
15 *648:23 *653:23 0.0278776
16 *648:23 *658:135 0.000387024
17 *648:23 *732:15 0.0084234
18 *76:103 *648:23 0.000225619
19 *77:41 *648:7 0
20 *78:135 *648:21 0
21 *104:23 *648:11 0.00299465
22 *113:17 *648:11 0.262882
23 *142:19 *648:11 0
24 *646:19 *648:23 0.0366191
*RES
1 *739:engine_rst_n_o *648:5 0.0914667 
2 *648:5 *648:7 125.894 
3 *648:7 *648:9 8 
4 *648:9 *648:11 3338.46 
5 *648:11 *648:21 35.5334 
6 *648:21 *648:23 407.968 
7 *648:23 *740:rst_n 24.5804 
*END

*D_NET *649 0.150319
*CONN
*I *739:mem_rvalid_i I *D ntt_wb_bridge
*I *740:mem_rvalid O *D ntt_engine_256
*CAP
1 *739:mem_rvalid_i 0.00170795
2 *740:mem_rvalid 0.00136204
3 *649:15 0.00388969
4 *649:13 0.00218173
5 *649:11 0.0185605
6 *649:9 0.0199226
7 *739:mem_rvalid_i *734:25 0
8 *649:9 *675:25 2.79482e-05
9 *649:11 *661:41 9.46487e-05
10 *649:11 *662:27 0.000407734
11 *649:11 *675:19 0.000122047
12 *649:11 *675:27 0.00353046
13 *649:11 *676:23 0.0147986
14 *649:11 *687:11 0.00100638
15 *649:15 *661:43 0.000456404
16 *649:15 *676:35 0.00495052
17 *649:15 *735:11 0.000142731
18 *281:19 *649:15 0
19 *282:19 *649:15 0
20 *284:17 *649:15 0.00181857
21 *352:19 *649:11 0.0218667
22 *353:19 *649:11 0.000749989
23 *358:25 *649:11 0.0183301
24 *367:19 *649:15 0
25 *373:17 *649:11 0.00176555
26 *647:11 *649:11 0.0312939
27 *647:19 *649:11 0.0013321
*RES
1 *740:mem_rvalid *649:9 33.1264 
2 *649:9 *649:11 143.024 
3 *649:11 *649:13 8 
4 *649:13 *649:15 72.6864 
5 *649:15 *739:mem_rvalid_i 11.8827 
*END

*D_NET *650 0.602952
*CONN
*I *740:mac_init I *D ntt_engine_256
*I *739:mac_init_o O *D ntt_wb_bridge
*CAP
1 *740:mac_init 0.00125146
2 *739:mac_init_o 0.000936448
3 *650:19 0.0140871
4 *650:17 0.0128356
5 *650:15 0.0281967
6 *650:13 0.0281967
7 *650:11 0.0461553
8 *650:9 0.0470917
9 *740:mac_init *736:27 0.000364411
10 *650:9 *728:9 0
11 *650:11 *702:11 0.0131603
12 *650:11 *727:11 0.000180595
13 *650:11 *729:11 0.00198937
14 *650:11 *734:27 0.00042352
15 *650:11 *736:11 0.00121901
16 *650:15 *683:15 0.178402
17 *650:15 *709:15 0.17781
18 *650:15 *718:15 0
19 *650:19 *656:27 0.00522396
20 *650:19 *701:22 0.024751
21 *650:19 *706:19 0.00391883
22 *650:19 *718:19 0.00455536
23 *650:19 *734:43 0.00445732
24 *650:19 *737:46 0.00511851
25 *79:17 *650:9 0.000287215
26 *116:137 *650:19 0.00234026
*RES
1 *739:mac_init_o *650:9 10.0739 
2 *650:9 *650:11 136.382 
3 *650:11 *650:13 8 
4 *650:13 *650:15 328.41 
5 *650:15 *650:17 8 
6 *650:17 *650:19 58.6992 
7 *650:19 *740:mac_init 10.8877 
*END

*D_NET *651 0.169024
*CONN
*I *740:mem_addr[0] I *D ntt_engine_256
*I *739:mem_addr_o[0] O *D ntt_wb_bridge
*CAP
1 *740:mem_addr[0] 0.000961133
2 *739:mem_addr_o[0] 0.00679498
3 *651:15 0.0215083
4 *651:13 0.0205471
5 *651:11 0.0291727
6 *651:9 0.0359677
7 *740:mem_addr[0] *652:119 0.000224633
8 *651:15 *652:119 0.000418236
9 *651:15 *660:11 0.0433673
10 *651:15 *670:13 0.000630755
11 *651:15 *674:15 0
12 *651:15 *699:15 0
13 *651:15 *723:121 0.000231905
14 *76:27 *651:11 0.00845812
15 *114:141 *651:15 0.000741147
*RES
1 *739:mem_addr_o[0] *651:9 28.7984 
2 *651:9 *651:11 698.092 
3 *651:11 *651:13 8 
4 *651:13 *651:15 99.9189 
5 *651:15 *740:mem_addr[0] 24.1986 
*END

*D_NET *652 0.356052
*CONN
*I *740:mem_addr[1] I *D ntt_engine_256
*I *739:mem_addr_o[1] O *D ntt_wb_bridge
*CAP
1 *740:mem_addr[1] 0.00159227
2 *739:mem_addr_o[1] 2.38341e-05
3 *652:123 0.0172781
4 *652:121 0.0156859
5 *652:119 0.00688003
6 *652:93 0.0140794
7 *652:81 0.0120326
8 *652:67 0.0147158
9 *652:57 0.0155989
10 *652:39 0.0115854
11 *652:25 0.0103994
12 *652:7 0.0318838
13 *652:5 0.0273774
14 *740:mem_addr[1] *654:11 0.000441607
15 *652:7 *694:17 0.00316107
16 *652:39 *724:7 0.000362021
17 *652:57 *659:31 0.00525969
18 *652:57 *705:7 0.000540112
19 *652:57 *723:45 0.000128263
20 *652:57 *723:61 0.000304949
21 *652:67 *694:79 0.00150654
22 *652:67 *721:63 0.0016547
23 *652:67 *723:61 0
24 *652:81 *659:63 6.99019e-05
25 *652:81 *659:73 0.000113665
26 *652:81 *721:77 0.000848994
27 *652:81 *723:91 0
28 *652:93 *655:99 0.000283549
29 *652:93 *659:73 0.00629096
30 *652:93 *723:91 0.0011629
31 *652:119 *659:107 0.000500954
32 *652:119 *674:15 0.000476279
33 *652:119 *681:23 0.000105479
34 *652:119 *690:17 0.000820515
35 *652:119 *703:15 0.00237426
36 *652:119 *708:15 8.8182e-06
37 *652:119 *721:141 0.00132125
38 *652:119 *723:121 6.31895e-05
39 *652:123 *653:11 0.0120179
40 *652:123 *659:111 0.064738
41 *652:123 *681:13 0.0481418
42 *652:123 *732:11 0.0137818
43 io_oeb[1] *652:39 0
44 la_data_out[114] *652:81 0.000270897
45 la_data_out[115] *652:119 0.000389041
46 *740:mem_addr[0] *652:119 0.000224633
47 *77:81 *652:25 5.64117e-05
48 *104:23 *652:123 0.00908037
49 *651:15 *652:119 0.000418236
*RES
1 *739:mem_addr_o[1] *652:5 0.0914667 
2 *652:5 *652:7 91.4181 
3 *652:7 *652:25 38.616 
4 *652:25 *652:39 44.9851 
5 *652:39 *652:57 48.5691 
6 *652:57 *652:67 49.5253 
7 *652:67 *652:81 47.4373 
8 *652:81 *652:93 45.4933 
9 *652:93 *652:119 48.5877 
10 *652:119 *652:121 8 
11 *652:121 *652:123 153.011 
12 *652:123 *740:mem_addr[1] 11.7128 
*END

*D_NET *653 0.721353
*CONN
*I *740:mem_addr[2] I *D ntt_engine_256
*I *739:mem_addr_o[2] O *D ntt_wb_bridge
*CAP
1 *740:mem_addr[2] 0.000526981
2 *739:mem_addr_o[2] 2.38341e-05
3 *653:23 0.00588768
4 *653:21 0.00584253
5 *653:11 0.0379941
6 *653:9 0.0375123
7 *653:7 0.0384089
8 *653:5 0.0384327
9 *653:11 *659:111 0.00120179
10 *653:11 *671:17 0.224348
11 *653:11 *732:11 0.251013
12 *653:21 *663:29 3.18198e-05
13 *653:21 *667:15 7.23298e-05
14 *653:21 *671:15 1.36509e-05
15 *653:21 *673:11 0.000514652
16 *653:21 *679:21 1.36134e-05
17 *653:21 *682:11 0.000693883
18 *653:21 *720:19 0.000195667
19 *653:21 *732:15 0.000437819
20 *653:23 *658:135 2.06822e-05
21 *653:23 *663:19 0.0187947
22 *653:23 *694:171 5.12254e-05
23 *653:23 *732:15 0.00543954
24 *104:23 *653:11 0.00410658
25 *113:17 *653:11 3.38806e-05
26 *115:45 *653:7 0.000495653
27 *142:19 *653:11 0.00935088
28 *648:23 *653:23 0.0278776
29 *652:123 *653:11 0.0120179
*RES
1 *739:mem_addr_o[2] *653:5 0.0914667 
2 *653:5 *653:7 126.065 
3 *653:7 *653:9 8 
4 *653:9 *653:11 3189.15 
5 *653:11 *653:21 34.6574 
6 *653:21 *653:23 306.489 
7 *653:23 *740:mem_addr[2] 24.9325 
*END

*D_NET *654 0.408533
*CONN
*I *740:mem_addr[3] I *D ntt_engine_256
*I *739:mem_addr_o[3] O *D ntt_wb_bridge
*CAP
1 *740:mem_addr[3] 0
2 *739:mem_addr_o[3] 2.30967e-05
3 *654:11 0.0627547
4 *654:9 0.0627547
5 *654:7 0.0361038
6 *654:5 0.0361269
7 *654:11 *740:mem_wdata[18] 0.000364411
8 *654:11 *740:mem_wdata[6] 0.000364411
9 *654:11 *740:start 0.000441607
10 *654:11 *663:31 0.0362277
11 *654:11 *666:9 0.000441607
12 *654:11 *666:11 0.0578492
13 *654:11 *667:19 0.0127927
14 *654:11 *672:11 0.000364411
15 *654:11 *690:9 0.000210019
16 *654:11 *700:11 0.050113
17 *740:mem_addr[1] *654:11 0.000441607
18 *78:55 *654:7 0.00270644
19 *112:69 *654:11 0.0484524
20 *137:17 *654:11 0
*RES
1 *739:mem_addr_o[3] *654:5 0.0914667 
2 *654:5 *654:7 123.189 
3 *654:7 *654:9 8 
4 *654:9 *654:11 356.167 
5 *654:11 *740:mem_addr[3] 8 
*END

*D_NET *655 0.541489
*CONN
*I *740:mem_addr[4] I *D ntt_engine_256
*I *739:mem_addr_o[4] O *D ntt_wb_bridge
*CAP
1 *740:mem_addr[4] 0.000759197
2 *739:mem_addr_o[4] 2.38341e-05
3 *655:139 0.00216958
4 *655:131 0.0283713
5 *655:129 0.0283191
6 *655:125 0.0021187
7 *655:121 0.00215515
8 *655:115 0.00599241
9 *655:99 0.00909992
10 *655:83 0.00869814
11 *655:65 0.0116291
12 *655:49 0.0108177
13 *655:31 0.0139189
14 *655:19 0.0186429
15 *655:7 0.0352709
16 *655:5 0.0271861
17 *740:mem_addr[4] *682:15 4.82774e-05
18 *740:mem_addr[4] *715:83 2.356e-05
19 *655:19 *721:19 0
20 *655:19 *723:45 0
21 *655:31 *723:45 0
22 *655:49 *671:21 4.97925e-05
23 *655:83 *672:27 0
24 *655:99 *681:25 0.00241854
25 *655:99 *721:101 0.000349634
26 *655:115 *659:107 0.000987704
27 *655:115 *680:25 0.00124382
28 *655:115 *680:37 0.00143416
29 *655:115 *694:149 0.00093406
30 *655:115 *721:119 0.000173453
31 *655:115 *723:121 0
32 *655:121 *680:25 0.000320629
33 *655:121 *694:161 0
34 *655:121 *721:129 0
35 *655:121 *721:135 0
36 *655:125 *700:11 0.000282337
37 *655:125 *721:135 0.000386584
38 *655:125 *723:127 0.000556976
39 *655:129 *694:165 0.00202129
40 *655:131 *679:39 0.141617
41 *655:131 *723:133 0.161109
42 la_data_out[107] *655:19 0.00208976
43 la_data_out[113] *655:99 0.00122579
44 *69:21 *655:131 0.0176513
45 *77:81 *655:7 0
46 *77:153 *655:115 0.000203991
47 *114:145 *655:131 0.000217847
48 *298:31 *655:115 0.000341778
49 *531:23 *655:115 0.00034564
50 *646:47 *655:129 0
51 *652:93 *655:99 0.000283549
*RES
1 *739:mem_addr_o[4] *655:5 0.0914667 
2 *655:5 *655:7 88.8421 
3 *655:7 *655:19 43.3504 
4 *655:19 *655:31 43.6197 
5 *655:31 *655:49 43.3232 
6 *655:49 *655:65 48.9872 
7 *655:65 *655:83 46.8923 
8 *655:83 *655:99 48.7627 
9 *655:99 *655:115 49.6605 
10 *655:115 *655:121 38.3671 
11 *655:121 *655:125 36.4496 
12 *655:125 *655:129 45.16 
13 *655:129 *655:131 2049.97 
14 *655:131 *655:139 37.9307 
15 *655:139 *740:mem_addr[4] 25.4503 
*END

*D_NET *656 0.712196
*CONN
*I *740:mem_addr[5] I *D ntt_engine_256
*I *739:mem_addr_o[5] O *D ntt_wb_bridge
*CAP
1 *740:mem_addr[5] 0.000931685
2 *739:mem_addr_o[5] 0.000546641
3 *656:35 0.0256837
4 *656:33 0.024814
5 *656:27 0.0284754
6 *656:25 0.0298389
7 *656:15 0.0856444
8 *656:13 0.0842189
9 *656:11 0.0112866
10 *656:9 0.0118333
11 *656:11 *657:11 0.0486918
12 *656:11 *718:11 0.000639774
13 *656:11 *719:11 0
14 *656:11 *728:11 0.048454
15 *656:15 *712:23 0.0455782
16 *656:15 *713:15 0.0101479
17 *656:15 *719:23 0.00142295
18 *656:15 *722:15 0.00210898
19 *656:25 *695:31 0
20 *656:25 *701:18 0.00348085
21 *656:25 *706:15 3.68218e-05
22 *656:25 *712:23 0.000801742
23 *656:25 *717:23 0.000105873
24 *656:27 *706:19 0.000308155
25 *656:27 *718:19 0.0508743
26 *656:27 *718:27 0.00723299
27 *656:27 *725:35 4.90054e-05
28 *656:27 *725:43 0.0045856
29 *656:27 *737:46 0.112396
30 *656:35 *689:11 0
31 *656:35 *706:27 0.00777642
32 *656:35 *734:43 0.00746977
33 *656:35 *737:46 0.00351563
34 *656:35 *737:54 0.0409995
35 *79:17 *656:9 0.000210019
36 *116:137 *656:35 0.00624592
37 *356:31 *656:11 0.000434343
38 *540:181 *656:25 0.000131664
39 *650:19 *656:27 0.00522396
*RES
1 *739:mem_addr_o[5] *656:9 9.30293 
2 *656:9 *656:11 658.476 
3 *656:11 *656:13 15 
4 *656:13 *656:15 1781.04 
5 *656:15 *656:25 39.5691 
6 *656:25 *656:27 1427.03 
7 *656:27 *656:33 16.0989 
8 *656:33 *656:35 116.2 
9 *656:35 *740:mem_addr[5] 10.5069 
*END

*D_NET *657 0.306991
*CONN
*I *740:mem_addr[6] I *D ntt_engine_256
*I *739:mem_addr_o[6] O *D ntt_wb_bridge
*CAP
1 *740:mem_addr[6] 0.00173887
2 *739:mem_addr_o[6] 0.000568886
3 *657:23 0.0110244
4 *657:21 0.00930468
5 *657:15 0.00414913
6 *657:13 0.00412997
7 *657:11 0.0106753
8 *657:9 0.0112442
9 *657:11 *718:11 0.0454207
10 *657:15 *676:31 0.0308747
11 *657:15 *678:19 0.029492
12 *657:15 *702:23 0.000402534
13 *657:15 *711:15 0.00274442
14 *657:23 *678:11 0.0161743
15 *657:23 *702:23 0.00128061
16 *657:23 *711:15 0.0229126
17 *657:23 *716:23 0.0452732
18 *357:25 *657:15 0.00357391
19 *374:15 *657:23 0
20 *376:15 *657:23 0.00708296
21 *386:15 *657:21 2.26497e-05
22 *386:25 *657:15 0.000209279
23 *656:11 *657:11 0.0486918
*RES
1 *739:mem_addr_o[6] *657:9 9.26187 
2 *657:9 *657:11 631.361 
3 *657:11 *657:13 15 
4 *657:13 *657:15 337.933 
5 *657:15 *657:21 23.3211 
6 *657:21 *657:23 97.4288 
7 *657:23 *740:mem_addr[6] 40.1693 
*END

*D_NET *658 0.764475
*CONN
*I *740:mem_addr[7] I *D ntt_engine_256
*I *739:mem_addr_o[7] O *D ntt_wb_bridge
*CAP
1 *740:mem_addr[7] 0.000574546
2 *739:mem_addr_o[7] 0.00152355
3 *658:143 0.00879101
4 *658:141 0.008421
5 *658:135 0.0162962
6 *658:133 0.0160917
7 *658:131 0.019533
8 *658:129 0.0198731
9 *658:123 0.0229085
10 *658:121 0.0237841
11 *658:117 0.00603213
12 *658:107 0.0063437
13 *658:103 0.00523037
14 *658:101 0.00420061
15 *658:97 0.000989673
16 *658:91 0.00192813
17 *658:89 0.00199488
18 *658:85 0.00136039
19 *658:79 0.00232906
20 *658:75 0.00385083
21 *658:73 0.00232325
22 *658:71 0.00116483
23 *658:67 0.00259538
24 *658:63 0.0054356
25 *658:61 0.00400505
26 *658:59 0.00300374
27 *658:57 0.00300374
28 *658:55 0.00419075
29 *658:53 0.00419075
30 *658:51 0.00253407
31 *658:49 0.00253407
32 *658:47 0.00179898
33 *658:45 0.00179898
34 *658:43 0.00121392
35 *658:41 0.00121392
36 *658:39 0.00286148
37 *658:37 0.00286148
38 *658:35 0.00265222
39 *658:33 0.00265222
40 *658:31 0.00107653
41 *658:27 0.00548837
42 *658:25 0.00512501
43 *658:19 0.00230143
44 *658:17 0.00158827
45 *658:15 0.00238383
46 *658:13 0.00390738
47 *658:13 *659:7 0
48 *658:13 *734:11 0.000157206
49 *658:19 *695:19 0
50 *658:25 *721:7 0.000420632
51 *658:43 *698:11 0.00341744
52 *658:47 *715:23 0.00327534
53 *658:59 *685:101 0.00310509
54 *658:59 *714:59 0.00101762
55 *658:59 *715:43 0.00448801
56 *658:117 *673:27 0
57 *658:117 *708:15 0.0134145
58 *658:123 *673:15 0
59 *658:123 *673:23 0.0114607
60 *658:123 *682:23 0
61 *658:123 *682:39 0.00631334
62 *658:123 *685:53 0.00797343
63 *658:123 *685:57 0
64 *658:123 *714:123 0.0108543
65 *658:123 *714:139 0.00282928
66 *658:123 *715:75 0.0049573
67 *658:131 *669:19 0.000702213
68 *658:131 *682:15 0.119391
69 *658:131 *685:29 0.0407503
70 *658:131 *708:19 0.041359
71 *658:135 *663:11 0.00635664
72 *658:135 *671:15 0.00410479
73 *658:135 *673:11 0.00445291
74 *658:135 *685:21 0.0781547
75 *658:135 *685:27 0.000185171
76 *658:135 *694:171 0.00078866
77 *658:143 *679:11 0.0361233
78 *658:143 *682:11 0.0070876
79 *658:143 *685:13 0.00270921
80 *658:143 *715:95 0.0108239
81 la_data_out[104] *658:91 0.00170197
82 la_data_out[84] *658:27 0
83 la_data_out[91] *658:51 0
84 la_data_out[96] *658:59 0.00174981
85 *740:clk *658:135 0.000389314
86 *76:19 *658:13 0.000120707
87 *77:171 *658:123 0.00470318
88 *78:65 *658:47 0.000540803
89 *78:127 *658:121 0.0013158
90 *79:17 *658:13 0.000364411
91 *112:59 *658:121 0.000583945
92 *275:19 *658:67 0
93 *285:17 *658:35 0.00757201
94 *300:15 *658:97 0.000104766
95 *372:19 *658:13 0.000298434
96 *646:19 *658:135 0.0457919
97 *646:35 *658:123 0.0261947
98 *648:23 *658:135 0.000387024
99 *653:23 *658:135 2.06822e-05
*RES
1 *739:mem_addr_o[7] *658:13 30.7177 
2 *658:13 *658:15 39.6886 
3 *658:15 *658:17 15 
4 *658:17 *658:19 36.0636 
5 *658:19 *658:25 44.4379 
6 *658:25 *658:27 100.154 
7 *658:27 *658:31 37.0607 
8 *658:31 *658:33 15 
9 *658:33 *658:35 96.28 
10 *658:35 *658:37 15 
11 *658:37 *658:39 57.3164 
12 *658:39 *658:41 15 
13 *658:41 *658:43 43.4586 
14 *658:43 *658:45 15 
15 *658:45 *658:47 49.6936 
16 *658:47 *658:49 15 
17 *658:49 *658:51 57.1921 
18 *658:51 *658:53 15 
19 *658:53 *658:55 86.3786 
20 *658:55 *658:57 15 
21 *658:57 *658:59 128.677 
22 *658:59 *658:61 15 
23 *658:61 *658:63 81.6143 
24 *658:63 *658:67 47.5421 
25 *658:67 *658:71 40.3957 
26 *658:71 *658:73 15 
27 *658:73 *658:75 53.3186 
28 *658:75 *658:79 47.0657 
29 *658:79 *658:85 48.1043 
30 *658:85 *658:89 26.1029 
31 *658:89 *658:91 43.1064 
32 *658:91 *658:97 41.1029 
33 *658:97 *658:101 25.7093 
34 *658:101 *658:103 78.2793 
35 *658:103 *658:107 45.6054 
36 *658:107 *658:117 49.8963 
37 *658:117 *658:121 12.8216 
38 *658:121 *658:123 966.953 
39 *658:123 *658:129 34.9093 
40 *658:129 *658:131 1516.12 
41 *658:131 *658:133 15 
42 *658:133 *658:135 860.099 
43 *658:135 *658:141 26.4904 
44 *658:141 *658:143 68.7493 
45 *658:143 *740:mem_addr[7] 20.2214 
*END

*D_NET *659 0.491752
*CONN
*I *740:mem_addr[8] I *D ntt_engine_256
*I *739:mem_addr_o[8] O *D ntt_wb_bridge
*CAP
1 *740:mem_addr[8] 0.00120961
2 *739:mem_addr_o[8] 2.38341e-05
3 *659:111 0.0687565
4 *659:109 0.0675469
5 *659:107 0.00671496
6 *659:93 0.0117589
7 *659:73 0.00936332
8 *659:63 0.0145386
9 *659:53 0.0137167
10 *659:31 0.00990342
11 *659:17 0.00923832
12 *659:7 0.0328133
13 *659:5 0.0300047
14 *659:7 *694:29 0.00131247
15 *659:31 *723:45 0.000718952
16 *659:31 *723:61 4.03415e-05
17 *659:63 *686:73 0
18 *659:63 *723:71 2.79505e-05
19 *659:73 *686:73 6.99323e-06
20 *659:73 *723:91 0.00774185
21 *659:93 *669:33 0.000399845
22 *659:93 *680:37 0.00020877
23 *659:93 *680:39 0
24 *659:93 *681:25 0
25 *659:93 *694:125 8.0213e-07
26 *659:107 *672:23 0
27 *659:107 *679:45 8.6839e-05
28 *659:107 *680:37 0.00117189
29 *659:107 *690:17 0.000422028
30 *659:107 *694:157 5.96737e-06
31 *659:107 *721:141 0.00123762
32 *659:111 *669:21 0
33 *659:111 *671:17 0.000985072
34 *659:111 *672:11 0.00727704
35 *659:111 *685:45 0
36 *659:111 *700:19 0.00327816
37 *659:111 *705:11 0.0102282
38 *659:111 *732:11 0.0107061
39 la_data_out[114] *659:63 0.00176265
40 *74:17 *659:111 0.0260121
41 *78:129 *659:111 0.00700079
42 *104:23 *659:111 0.00328377
43 *112:59 *659:107 0.000534722
44 *113:17 *659:111 0.0280674
45 *648:11 *659:111 0.0244824
46 *652:57 *659:31 0.00525969
47 *652:81 *659:63 6.99019e-05
48 *652:81 *659:73 0.000113665
49 *652:93 *659:73 0.00629096
50 *652:119 *659:107 0.000500954
51 *652:123 *659:111 0.064738
52 *653:11 *659:111 0.00120179
53 *655:115 *659:107 0.000987704
54 *658:13 *659:7 0
*RES
1 *739:mem_addr_o[8] *659:5 0.0914667 
2 *659:5 *659:7 98.6309 
3 *659:7 *659:17 33.4901 
4 *659:17 *659:31 43.4512 
5 *659:31 *659:53 43.7264 
6 *659:53 *659:63 47.2891 
7 *659:63 *659:73 49.6853 
8 *659:73 *659:93 39.7808 
9 *659:93 *659:107 47.1541 
10 *659:107 *659:109 8 
11 *659:109 *659:111 310.408 
12 *659:111 *740:mem_addr[8] 11.1043 
*END

*D_NET *660 0.148147
*CONN
*I *739:mem_rdata_i[0] I *D ntt_wb_bridge
*I *740:mem_rdata[0] O *D ntt_engine_256
*CAP
1 *739:mem_rdata_i[0] 0.00751912
2 *740:mem_rdata[0] 0.000920854
3 *660:15 0.0187823
4 *660:13 0.0112632
5 *660:11 0.00906888
6 *660:9 0.00998973
7 *660:9 *663:35 0.000101159
8 *660:11 *673:39 0.000207202
9 *660:11 *684:11 0.0317863
10 *660:11 *699:15 0
11 *660:15 *663:87 0.00367827
12 *660:15 *673:39 0
13 la_data_out[87] *660:15 0.011463
14 *651:15 *660:11 0.0433673
*RES
1 *740:mem_rdata[0] *660:9 23.9707 
2 *660:9 *660:11 79.912 
3 *660:11 *660:13 8 
4 *660:13 *660:15 352.288 
5 *660:15 *739:mem_rdata_i[0] 30.0864 
*END

*D_NET *661 0.686147
*CONN
*I *739:mem_rdata_i[10] I *D ntt_wb_bridge
*I *740:mem_rdata[10] O *D ntt_engine_256
*CAP
1 *739:mem_rdata_i[10] 0.00184955
2 *740:mem_rdata[10] 0.00175851
3 *661:43 0.0178438
4 *661:41 0.0160777
5 *661:31 0.00941537
6 *661:29 0.00945227
7 *661:23 0.0252005
8 *661:21 0.0250801
9 *661:19 0.00276517
10 *661:17 0.00299818
11 *661:11 0.0667113
12 *661:9 0.0682368
13 *739:mem_rdata_i[10] *739:mem_rdata_i[11] 0
14 *739:mem_rdata_i[10] *701:12 0.000275976
15 *739:mem_rdata_i[10] *711:11 0.000172692
16 *739:mem_rdata_i[10] *713:11 0.000111151
17 *739:mem_rdata_i[10] *719:11 0.000150895
18 *661:11 *662:15 0.00127006
19 *661:11 *664:11 0.0244968
20 *661:11 *677:11 0.027382
21 *661:11 *688:11 0.00314932
22 *661:19 *662:15 0.0187019
23 *661:19 *675:15 0.000132006
24 *661:19 *677:11 0.0036544
25 *661:19 *688:11 0.000116995
26 *661:19 *695:35 0.00102661
27 *661:23 *662:19 0.000866471
28 *661:23 *664:15 3.54252e-05
29 *661:23 *688:15 0.158419
30 *661:23 *710:31 0.155373
31 *661:31 *740:mem_slot[0] 0.000961522
32 *661:31 *664:23 0.000990009
33 *661:31 *688:23 0
34 *661:31 *710:23 0
35 *661:41 *709:11 0
36 *661:41 *735:11 3.66799e-05
37 *661:43 *676:35 0.000701746
38 *661:43 *702:11 0
39 *661:43 *734:19 0.00243739
40 *661:43 *735:11 0.00337335
41 *86:41 *661:11 0
42 *87:57 *661:11 0
43 *91:53 *661:11 0
44 *92:25 *661:11 0.00232982
45 *93:23 *661:11 0.0027284
46 *118:161 *661:19 0.0163758
47 *358:25 *661:41 4.73713e-05
48 *364:23 *661:43 0.000531256
49 *369:15 *661:43 0.00337335
50 *372:19 *661:43 0.0029416
51 *398:19 *661:23 0.000746686
52 *398:19 *661:31 0.000242899
53 *647:11 *661:31 0.00282447
54 *647:19 *661:31 0.00222874
55 *649:11 *661:41 9.46487e-05
56 *649:15 *661:43 0.000456404
*RES
1 *740:mem_rdata[10] *661:9 12.396 
2 *661:9 *661:11 293.78 
3 *661:11 *661:17 16.4424 
4 *661:17 *661:19 237.489 
5 *661:19 *661:21 8 
6 *661:21 *661:23 291.745 
7 *661:23 *661:29 25.0818 
8 *661:29 *661:31 221.684 
9 *661:31 *661:41 32.2102 
10 *661:41 *661:43 46.0059 
11 *661:43 *739:mem_rdata_i[10] 12.3997 
*END

*D_NET *662 0.732425
*CONN
*I *739:mem_rdata_i[11] I *D ntt_wb_bridge
*I *740:mem_rdata[11] O *D ntt_engine_256
*CAP
1 *739:mem_rdata_i[11] 0.00160762
2 *740:mem_rdata[11] 0.00553888
3 *662:35 0.00333236
4 *662:31 0.0057419
5 *662:29 0.00401716
6 *662:27 0.00487585
7 *662:25 0.00506185
8 *662:19 0.0254936
9 *662:17 0.0253076
10 *662:15 0.075144
11 *662:13 0.075144
12 *662:11 0.00553888
13 *739:mem_rdata_i[11] *689:35 0.000217279
14 *739:mem_rdata_i[11] *711:11 0.000112317
15 *662:11 *695:39 0.000396464
16 *662:11 *733:39 0.0062724
17 *662:15 *664:11 0.00794655
18 *662:15 *675:15 0
19 *662:15 *695:35 0.02095
20 *662:19 *664:15 1.38508e-05
21 *662:19 *675:19 0.0171161
22 *662:19 *710:31 0.151907
23 *662:25 *687:9 0
24 *662:27 *675:27 0.010371
25 *662:27 *688:23 2.02872e-05
26 *662:27 *710:23 0.0237623
27 *662:31 *664:27 0.0176889
28 *662:31 *710:19 0.0188062
29 *739:mem_rdata_i[10] *739:mem_rdata_i[11] 0
30 *80:203 *662:11 0.000460196
31 *82:25 *662:15 0
32 *84:29 *662:15 0
33 *118:161 *662:15 0.0625141
34 *118:193 *662:11 0
35 *353:19 *662:27 0.00473397
36 *364:23 *739:mem_rdata_i[11] 0.000215048
37 *378:19 *662:31 0.000550082
38 *398:23 *662:27 0.00877871
39 *647:11 *662:19 0.121542
40 *649:11 *662:27 0.000407734
41 *661:11 *662:15 0.00127006
42 *661:19 *662:15 0.0187019
43 *661:23 *662:19 0.000866471
*RES
1 *740:mem_rdata[11] *662:11 44.6636 
2 *662:11 *662:13 8 
3 *662:13 *662:15 2515.85 
4 *662:15 *662:17 8 
5 *662:17 *662:19 282.815 
6 *662:19 *662:25 26.4904 
7 *662:25 *662:27 296.484 
8 *662:27 *662:29 15 
9 *662:29 *662:31 244.18 
10 *662:31 *662:35 42.3014 
11 *662:35 *739:mem_rdata_i[11] 29.1909 
*END

*D_NET *663 0.843089
*CONN
*I *739:mem_rdata_i[12] I *D ntt_wb_bridge
*I *740:mem_rdata[12] O *D ntt_engine_256
*CAP
1 *739:mem_rdata_i[12] 0.00169471
2 *740:mem_rdata[12] 0.000402477
3 *663:99 0.00458871
4 *663:97 0.0031974
5 *663:91 0.0030075
6 *663:89 0.0027041
7 *663:87 0.000588268
8 *663:85 0.00115465
9 *663:81 0.00136601
10 *663:75 0.00289952
11 *663:73 0.00324274
12 *663:69 0.00224438
13 *663:65 0.00151474
14 *663:61 0.00130766
15 *663:55 0.00442659
16 *663:53 0.00438648
17 *663:49 0.00145268
18 *663:43 0.00225605
19 *663:39 0.0025819
20 *663:35 0.00638397
21 *663:33 0.00545979
22 *663:31 0.0678831
23 *663:29 0.0684453
24 *663:19 0.00663351
25 *663:17 0.00622189
26 *663:11 0.0354233
27 *663:9 0.0356752
28 *663:11 *673:11 0.0217273
29 *663:11 *685:13 0.0504877
30 *663:11 *685:21 0.0130107
31 *663:11 *714:147 0.0269401
32 *663:11 *714:155 0.0407046
33 *663:11 *732:15 0.0300381
34 *663:19 *673:11 0.00417664
35 *663:29 *740:mem_slot[1] 0.000241506
36 *663:29 *667:15 0.000962978
37 *663:29 *679:21 2.86993e-05
38 *663:31 *667:15 0.00207897
39 *663:31 *667:19 0.189336
40 *663:31 *723:127 0.000121976
41 *663:35 *740:mem_wdata[11] 0.000101159
42 *663:35 *667:23 0.00853183
43 *663:35 *684:9 0.000101159
44 *663:35 *715:63 0.0334964
45 *663:39 *667:33 0.000873753
46 *663:55 *667:35 0.00174632
47 *663:81 *667:43 0
48 *663:81 *670:15 0
49 la_data_out[84] *663:97 0.000838823
50 la_data_out[87] *663:87 0.00367604
51 la_data_out[91] *663:65 0.00110541
52 la_data_out[92] *663:55 0.0071569
53 *740:clk *663:11 0.00240539
54 *102:27 *663:43 0.000721136
55 *112:69 *663:31 0.0178216
56 *274:15 *663:53 0.000609597
57 *276:15 *663:53 0.000346258
58 *364:23 *739:mem_rdata_i[12] 5.67049e-05
59 *372:19 *739:mem_rdata_i[12] 0.000186305
60 *394:15 *663:53 0
61 *398:23 *663:43 0
62 *646:19 *663:11 0.00368708
63 *646:47 *663:35 0.0374392
64 *653:21 *663:29 3.18198e-05
65 *653:23 *663:19 0.0187947
66 *654:11 *663:31 0.0362277
67 *658:135 *663:11 0.00635664
68 *660:9 *663:35 0.000101159
69 *660:15 *663:87 0.00367827
*RES
1 *740:mem_rdata[12] *663:9 16.7 
2 *663:9 *663:11 222.537 
3 *663:11 *663:17 24.7296 
4 *663:17 *663:19 205.486 
5 *663:19 *663:29 30.5668 
6 *663:29 *663:31 2479.05 
7 *663:31 *663:33 15 
8 *663:33 *663:35 409.397 
9 *663:35 *663:39 36.9779 
10 *663:39 *663:43 49.9243 
11 *663:43 *663:49 42.8221 
12 *663:49 *663:53 39.9193 
13 *663:53 *663:55 112.479 
14 *663:55 *663:61 48.2493 
15 *663:61 *663:65 29.2307 
16 *663:65 *663:69 37.0607 
17 *663:69 *663:73 40.4993 
18 *663:73 *663:75 42.5471 
19 *663:75 *663:81 47.7521 
20 *663:81 *663:85 25.6264 
21 *663:85 *663:87 46.98 
22 *663:87 *663:89 15 
23 *663:89 *663:91 54.9343 
24 *663:91 *663:97 40.7093 
25 *663:97 *663:99 49.6936 
26 *663:99 *739:mem_rdata_i[12] 29.0553 
*END

*D_NET *664 0.548472
*CONN
*I *739:mem_rdata_i[13] I *D ntt_wb_bridge
*I *740:mem_rdata[13] O *D ntt_engine_256
*CAP
1 *739:mem_rdata_i[13] 0.00163053
2 *740:mem_rdata[13] 0.0020387
3 *664:31 0.00328779
4 *664:27 0.00564889
5 *664:25 0.00399162
6 *664:23 0.00413787
7 *664:21 0.00443457
8 *664:15 0.0345657
9 *664:13 0.034269
10 *664:11 0.012895
11 *664:9 0.0149337
12 *664:9 *736:27 0.000287215
13 *664:11 *677:11 0.041613
14 *664:11 *688:11 0.000538619
15 *664:15 *688:15 0.161147
16 *664:15 *695:23 0.0351647
17 *664:15 *695:31 0.000209378
18 *664:15 *704:23 0.00903841
19 *664:15 *704:31 0.0257346
20 *664:15 *717:15 0.00217742
21 *664:15 *727:31 0.0156539
22 *664:23 *688:23 0.0186158
23 *664:27 *710:19 9.80101e-06
24 *93:23 *664:11 0.0020513
25 *352:19 *664:23 0.00294702
26 *353:19 *664:23 0.000101624
27 *358:27 *664:27 0
28 *359:27 *664:27 0
29 *361:15 *664:15 0.0342595
30 *363:59 *739:mem_rdata_i[13] 2.27706e-06
31 *364:23 *739:mem_rdata_i[13] 4.60289e-05
32 *372:19 *739:mem_rdata_i[13] 0.000131661
33 *378:19 *664:27 0.0168363
34 *398:19 *664:15 0.000382259
35 *647:19 *664:23 0.00851944
36 *661:11 *664:11 0.0244968
37 *661:23 *664:15 3.54252e-05
38 *661:31 *664:23 0.000990009
39 *662:15 *664:11 0.00794655
40 *662:19 *664:15 1.38508e-05
41 *662:31 *664:27 0.0176889
*RES
1 *740:mem_rdata[13] *664:9 12.4781 
2 *664:9 *664:11 100.587 
3 *664:11 *664:13 8 
4 *664:13 *664:15 299.688 
5 *664:15 *664:21 28.2511 
6 *664:21 *664:23 204.056 
7 *664:23 *664:25 15 
8 *664:25 *664:27 230.799 
9 *664:27 *664:31 40.8721 
10 *664:31 *739:mem_rdata_i[13] 28.224 
*END

*D_NET *665 0.448853
*CONN
*I *739:mem_rdata_i[14] I *D ntt_wb_bridge
*I *740:mem_rdata[14] O *D ntt_engine_256
*CAP
1 *739:mem_rdata_i[14] 5.36353e-05
2 *740:mem_rdata[14] 0.00187214
3 *665:59 0.0333624
4 *665:57 0.0388578
5 *665:39 0.0107714
6 *665:21 0.0128985
7 *665:11 0.054774
8 *665:9 0.0489698
9 *665:11 *686:11 0.170079
10 *665:21 *669:21 0.00187131
11 *665:21 *679:45 5.64843e-05
12 *665:21 *721:141 4.35395e-05
13 *665:39 *669:57 0.000341652
14 *665:39 *672:23 0.00383024
15 *665:39 *672:27 0.000260152
16 *665:39 *686:33 0.000404939
17 *665:39 *686:51 0.00024875
18 *665:39 *700:11 0.00143506
19 *665:57 *666:15 0
20 *665:57 *669:57 0.000521649
21 *665:57 *723:79 0
22 *665:59 *694:91 0
23 *665:59 *731:41 5.26493e-05
24 la_data_out[115] *665:57 0.000385569
25 *75:17 *665:21 0.00185548
26 *76:91 *665:11 0
27 *77:135 *665:39 0
28 *77:145 *665:39 6.52177e-06
29 *104:23 *665:21 0
30 *115:137 *665:11 0.0659004
*RES
1 *740:mem_rdata[14] *665:9 12.9056 
2 *665:9 *665:11 2158.78 
3 *665:11 *665:21 48.9107 
4 *665:21 *665:39 45.1605 
5 *665:39 *665:57 41.2629 
6 *665:57 *665:59 108.935 
7 *665:59 *739:mem_rdata_i[14] 0.0914667 
*END

*D_NET *666 0.19049
*CONN
*I *739:mem_rdata_i[15] I *D ntt_wb_bridge
*I *740:mem_rdata[15] O *D ntt_engine_256
*CAP
1 *739:mem_rdata_i[15] 5.2898e-05
2 *740:mem_rdata[15] 0.000407287
3 *666:15 0.0373447
4 *666:13 0.0372918
5 *666:11 0.0274177
6 *666:9 0.027825
7 *666:11 *721:135 0.000497247
8 *666:15 *694:101 0
9 *666:15 *723:79 0.00135888
10 *363:39 *666:15 3.76422e-06
11 *654:11 *666:9 0.000441607
12 *654:11 *666:11 0.0578492
13 *665:57 *666:15 0
*RES
1 *740:mem_rdata[15] *666:9 8.95387 
2 *666:9 *666:11 137.144 
3 *666:11 *666:13 8 
4 *666:13 *666:15 123.361 
5 *666:15 *739:mem_rdata_i[15] 0.0914667 
*END

*D_NET *667 0.682172
*CONN
*I *739:mem_rdata_i[16] I *D ntt_wb_bridge
*I *740:mem_rdata[16] O *D ntt_engine_256
*CAP
1 *739:mem_rdata_i[16] 0.00835144
2 *740:mem_rdata[16] 0.000616799
3 *667:43 0.0151789
4 *667:41 0.0113676
5 *667:35 0.00662223
6 *667:33 0.00428533
7 *667:23 0.00920263
8 *667:21 0.00699938
9 *667:19 0.0655925
10 *667:17 0.0656406
11 *667:15 0.00187679
12 *667:13 0.0018287
13 *667:11 0.0133361
14 *667:9 0.0139529
15 *667:11 *679:11 0.0681264
16 *667:11 *682:11 0.0683011
17 *667:11 *720:19 8.65763e-05
18 *667:15 *679:21 0
19 *667:15 *714:139 0.00349809
20 *667:19 *673:23 0
21 *667:19 *714:139 0
22 *667:19 *723:127 4.15283e-06
23 *667:23 *673:27 0
24 *667:23 *703:15 0.0400618
25 *667:23 *708:15 0.0381842
26 *667:23 *715:63 0.0052747
27 *667:33 *740:mem_re 0.00386294
28 *667:33 *698:15 0.00104028
29 *667:33 *699:15 0.00102914
30 *667:43 *684:15 0.00366327
31 *77:155 *667:19 0
32 *278:23 *667:41 0.00124918
33 *298:31 *667:41 0.000993338
34 *301:23 *667:41 0.00288437
35 *393:23 *667:41 0.000681963
36 *395:23 *667:41 0.000880798
37 *397:25 *667:41 0.0011029
38 *653:21 *667:15 7.23298e-05
39 *654:11 *667:19 0.0127927
40 *663:29 *667:15 0.000962978
41 *663:31 *667:15 0.00207897
42 *663:31 *667:19 0.189336
43 *663:35 *667:23 0.00853183
44 *663:39 *667:33 0.000873753
45 *663:55 *667:35 0.00174632
46 *663:81 *667:43 0
*RES
1 *740:mem_rdata[16] *667:9 20.2214 
2 *667:9 *667:11 129.886 
3 *667:11 *667:13 8 
4 *667:13 *667:15 90.1693 
5 *667:15 *667:17 1.09786 
6 *667:17 *667:19 2404.7 
7 *667:19 *667:21 8 
8 *667:21 *667:23 73.8155 
9 *667:23 *667:33 46.2029 
10 *667:33 *667:35 46.6279 
11 *667:35 *667:41 30.3957 
12 *667:41 *667:43 173.399 
13 *667:43 *739:mem_rdata_i[16] 32.6624 
*END

*D_NET *668 0.293625
*CONN
*I *739:mem_rdata_i[17] I *D ntt_wb_bridge
*I *740:mem_rdata[17] O *D ntt_engine_256
*CAP
1 *739:mem_rdata_i[17] 0.00276822
2 *740:mem_rdata[17] 0.0017176
3 *668:19 0.00696854
4 *668:17 0.00420031
5 *668:15 0.0213537
6 *668:13 0.0230713
7 *668:13 *695:31 2.81221e-05
8 *668:13 *696:23 0.00351129
9 *668:13 *727:31 0.00183019
10 *668:15 *677:27 0
11 *668:15 *696:23 0.00351723
12 *668:15 *697:15 0.105645
13 *668:15 *722:15 0.000272415
14 *668:15 *727:31 0.0770905
15 *668:15 *734:37 0
16 *668:19 *675:31 0.0111055
17 *668:19 *677:29 0.000204664
18 *668:19 *699:11 0.00130819
19 *105:19 *668:19 0
20 *361:15 *668:15 0.00016734
21 *361:19 *668:19 0.000213249
22 *367:15 *668:15 0.0135443
23 *376:27 *668:19 1.12487e-05
24 *379:27 *668:19 0.0150959
*RES
1 *740:mem_rdata[17] *668:13 30.6926 
2 *668:13 *668:15 212.877 
3 *668:15 *668:17 8 
4 *668:17 *668:19 207.909 
5 *668:19 *739:mem_rdata_i[17] 14.2869 
*END

*D_NET *669 0.337407
*CONN
*I *739:mem_rdata_i[18] I *D ntt_wb_bridge
*I *740:mem_rdata[18] O *D ntt_engine_256
*CAP
1 *739:mem_rdata_i[18] 5.36353e-05
2 *740:mem_rdata[18] 0.0044056
3 *669:65 0.0347294
4 *669:63 0.0354799
5 *669:57 0.006577
6 *669:33 0.014867
7 *669:21 0.069
8 *669:19 0.0643114
9 *669:19 *682:15 0.000619605
10 *669:21 *680:11 0.0672793
11 *669:33 *672:23 0
12 *669:33 *680:25 0
13 *669:33 *681:25 0
14 *669:57 *672:27 0.00194476
15 *669:57 *686:33 0
16 *669:57 *686:51 0.00057102
17 la_data_out[116] *669:57 0.0010188
18 la_data_out[117] *669:33 0.000297246
19 *76:47 *669:65 0.00209931
20 *77:153 *669:33 0
21 *78:107 *669:65 0
22 *104:23 *669:21 0.0289657
23 *291:19 *669:33 0.00102543
24 *295:15 *669:33 0
25 *296:19 *669:57 0.000325818
26 *298:31 *669:33 0
27 *658:131 *669:19 0.000702213
28 *659:93 *669:33 0.000399845
29 *659:111 *669:21 0
30 *665:21 *669:21 0.00187131
31 *665:39 *669:57 0.000341652
32 *665:57 *669:57 0.000521649
*RES
1 *740:mem_rdata[18] *669:19 36.4264 
2 *669:19 *669:21 329.956 
3 *669:21 *669:33 46.6277 
4 *669:33 *669:57 44.2011 
5 *669:57 *669:63 10.464 
6 *669:63 *669:65 112.713 
7 *669:65 *739:mem_rdata_i[18] 0.0914667 
*END

*D_NET *670 0.0450381
*CONN
*I *739:mem_rdata_i[19] I *D ntt_wb_bridge
*I *740:mem_rdata[19] O *D ntt_engine_256
*CAP
1 *739:mem_rdata_i[19] 0.00800576
2 *740:mem_rdata[19] 0.0015988
3 *670:15 0.013995
4 *670:13 0.00758809
5 *670:13 *674:15 0.000415116
6 *670:13 *698:11 0.000186025
7 *670:15 *673:39 0
8 *530:19 *670:15 0.0126185
9 *651:15 *670:13 0.000630755
10 *663:81 *670:15 0
*RES
1 *740:mem_rdata[19] *670:13 39.498 
2 *670:13 *670:15 188.189 
3 *670:15 *739:mem_rdata_i[19] 31.4603 
*END

*D_NET *671 0.653695
*CONN
*I *739:mem_rdata_i[1] I *D ntt_wb_bridge
*I *740:mem_rdata[1] O *D ntt_engine_256
*CAP
1 *739:mem_rdata_i[1] 4.40844e-05
2 *740:mem_rdata[1] 0.000499351
3 *671:21 0.0383568
4 *671:19 0.0383127
5 *671:17 0.0332164
6 *671:15 0.0409134
7 *671:11 0.00819637
8 *671:15 *685:21 0.00410479
9 *671:15 *714:147 0.0069027
10 *671:15 *715:91 0
11 *671:15 *732:15 0.0211609
12 *671:17 *681:13 0.0102662
13 *671:21 *694:77 0.00019937
14 *75:17 *671:17 0
15 *76:31 *671:21 0.0024036
16 *78:71 *671:21 0
17 *78:129 *671:17 0.195149
18 *104:23 *671:17 0.00463606
19 *142:19 *671:17 0.0149255
20 *360:75 *671:21 0
21 *646:19 *671:15 0.00345135
22 *648:21 *671:15 0.00145569
23 *653:11 *671:17 0.224348
24 *653:21 *671:15 1.36509e-05
25 *655:49 *671:21 4.97925e-05
26 *658:135 *671:15 0.00410479
27 *659:111 *671:17 0.000985072
*RES
1 *740:mem_rdata[1] *671:11 17.3214 
2 *671:11 *671:15 47.2112 
3 *671:15 *671:17 2848.98 
4 *671:17 *671:19 8 
5 *671:19 *671:21 126.151 
6 *671:21 *739:mem_rdata_i[1] 0.0914667 
*END

*D_NET *672 0.164948
*CONN
*I *739:mem_rdata_i[20] I *D ntt_wb_bridge
*I *740:mem_rdata[20] O *D ntt_engine_256
*CAP
1 *739:mem_rdata_i[20] 5.36353e-05
2 *740:mem_rdata[20] 0.00572834
3 *672:27 0.0369251
4 *672:25 0.0368715
5 *672:23 0.0101302
6 *672:21 0.0126009
7 *672:11 0.00819904
8 *672:11 *685:51 0
9 *672:11 *690:11 0.000396586
10 *672:11 *700:19 0.0132457
11 *672:11 *705:11 0.00273945
12 *672:11 *705:19 0.000788397
13 *672:11 *724:11 0.00150044
14 *672:21 *740:mem_wdata[16] 0
15 *672:21 *700:11 0.00326448
16 *672:23 *680:25 3.12146e-05
17 *672:23 *681:23 0.00923232
18 *672:23 *694:161 0.000110158
19 *672:23 *700:11 0.000579136
20 *672:23 *721:129 0.000127194
21 *672:27 *714:63 0.00065931
22 *672:27 *721:85 0
23 *77:147 *672:23 0.00118993
24 *78:111 *672:27 0.00130788
25 *112:33 *672:23 0.00112229
26 *112:59 *672:21 0.000645193
27 *112:59 *672:23 0.00143766
28 *112:67 *672:21 0.00165649
29 *115:111 *672:27 0.000728677
30 *654:11 *672:11 0.000364411
31 *655:83 *672:27 0
32 *659:107 *672:23 0
33 *659:111 *672:11 0.00727704
34 *665:39 *672:23 0.00383024
35 *665:39 *672:27 0.000260152
36 *669:33 *672:23 0
37 *669:57 *672:27 0.00194476
*RES
1 *740:mem_rdata[20] *672:11 48.7699 
2 *672:11 *672:21 27.0283 
3 *672:21 *672:23 45.2181 
4 *672:23 *672:25 8 
5 *672:25 *672:27 122.33 
6 *672:27 *739:mem_rdata_i[20] 0.0914667 
*END

*D_NET *673 0.681957
*CONN
*I *739:mem_rdata_i[21] I *D ntt_wb_bridge
*I *740:mem_rdata[21] O *D ntt_engine_256
*CAP
1 *739:mem_rdata_i[21] 0.00518267
2 *740:mem_rdata[21] 0.000462854
3 *673:55 0.00729368
4 *673:53 0.00349449
5 *673:47 0.00660249
6 *673:45 0.00659545
7 *673:39 0.00363273
8 *673:27 0.0285319
9 *673:25 0.0262756
10 *673:23 0.0090583
11 *673:21 0.00942429
12 *673:15 0.0543413
13 *673:13 0.0539753
14 *673:11 0.0177471
15 *673:9 0.0182099
16 *673:11 *682:11 0.00529712
17 *673:11 *685:13 0.010091
18 *673:11 *685:21 0.000899469
19 *673:11 *714:147 0.000991024
20 *673:11 *715:95 0.0906742
21 *673:11 *732:15 0.0506434
22 *673:15 *674:11 0.00385137
23 *673:15 *682:15 0
24 *673:15 *682:23 0.0161714
25 *673:15 *685:37 0.0161819
26 *673:15 *714:139 0
27 *673:15 *715:83 0.152587
28 *673:21 *740:mem_wdata[13] 0
29 *673:23 *714:123 0.0110145
30 *673:23 *714:139 5.05592e-05
31 *673:27 *680:25 0
32 *673:27 *703:15 0
33 *673:27 *708:15 0
34 *673:39 *740:mem_re 3.31254e-06
35 *673:39 *684:11 0.000189882
36 *673:39 *699:15 0.000504115
37 la_data_out[84] *673:55 0
38 la_data_out[86] *673:47 0
39 *77:155 *673:23 0.0150765
40 *78:127 *673:27 0.0140683
41 *102:27 *673:45 0
42 *386:25 *673:45 0.000294933
43 *646:35 *673:15 0
44 *653:21 *673:11 0.000514652
45 *658:117 *673:27 0
46 *658:123 *673:15 0
47 *658:123 *673:23 0.0114607
48 *658:135 *673:11 0.00445291
49 *660:11 *673:39 0.000207202
50 *660:15 *673:39 0
51 *663:11 *673:11 0.0217273
52 *663:19 *673:11 0.00417664
53 *667:19 *673:23 0
54 *667:23 *673:27 0
55 *670:15 *673:39 0
*RES
1 *740:mem_rdata[21] *673:9 17.6321 
2 *673:9 *673:11 186.129 
3 *673:11 *673:13 8 
4 *673:13 *673:15 2067.93 
5 *673:15 *673:21 16.6571 
6 *673:21 *673:23 418.491 
7 *673:23 *673:25 8 
8 *673:25 *673:27 98.0728 
9 *673:27 *673:39 48.749 
10 *673:39 *673:45 20.6069 
11 *673:45 *673:47 111.422 
12 *673:47 *673:53 21.208 
13 *673:53 *673:55 48.7407 
14 *673:55 *739:mem_rdata_i[21] 21.0704 
*END

*D_NET *674 0.474217
*CONN
*I *739:mem_rdata_i[22] I *D ntt_wb_bridge
*I *740:mem_rdata[22] O *D ntt_engine_256
*CAP
1 *739:mem_rdata_i[22] 0.00303972
2 *740:mem_rdata[22] 0.000923482
3 *674:21 0.00951769
4 *674:15 0.0286063
5 *674:13 0.0221283
6 *674:11 0.0309715
7 *674:9 0.0318949
8 *674:11 *682:15 0.0207501
9 *674:11 *682:23 6.93441e-06
10 *674:11 *686:19 0
11 *674:11 *714:131 0.00929166
12 *674:11 *715:67 0.0141325
13 *674:11 *715:83 0.109805
14 *674:11 *730:19 0.110273
15 *674:21 *690:23 0.0118952
16 *77:155 *674:11 0
17 *102:27 *674:15 0.0637904
18 *354:25 *674:15 0.000345796
19 *358:25 *674:15 0.000908615
20 *373:21 *674:21 0.00119388
21 *651:15 *674:15 0
22 *652:119 *674:15 0.000476279
23 *670:13 *674:15 0.000415116
24 *673:15 *674:11 0.00385137
*RES
1 *740:mem_rdata[22] *674:9 10.1989 
2 *674:9 *674:11 1957.35 
3 *674:11 *674:13 8 
4 *674:13 *674:15 117.736 
5 *674:15 *674:21 44.7429 
6 *674:21 *739:mem_rdata_i[22] 7.0168 
*END

*D_NET *675 0.702394
*CONN
*I *739:mem_rdata_i[23] I *D ntt_wb_bridge
*I *740:mem_rdata[23] O *D ntt_engine_256
*CAP
1 *739:mem_rdata_i[23] 0.00162181
2 *740:mem_rdata[23] 0.00153678
3 *675:39 0.00279408
4 *675:31 0.0033839
5 *675:29 0.00221162
6 *675:27 0.0338274
7 *675:25 0.0339687
8 *675:19 0.0249514
9 *675:17 0.0248101
10 *675:15 0.034255
11 *675:13 0.0357918
12 *675:13 *695:39 0.000741194
13 *675:13 *704:39 0.00152003
14 *675:15 *688:11 0.0187369
15 *675:15 *695:35 0.197387
16 *675:19 *676:21 0.000733022
17 *675:19 *676:23 0.0272215
18 *675:19 *725:33 0.000156975
19 *675:27 *676:23 0.00876227
20 *675:27 *687:11 0.00116155
21 *675:31 *677:29 0.0100393
22 *675:31 *699:11 0.0015817
23 *80:203 *675:13 0.000292409
24 *82:25 *675:15 0.000118593
25 *105:19 *675:31 0.000388902
26 *118:193 *675:13 0.000442155
27 *120:17 *675:15 0.103417
28 *120:23 *675:13 0
29 *353:19 *675:27 0.00539045
30 *364:23 *675:39 4.94016e-05
31 *372:19 *675:39 0.000158835
32 *373:17 *675:27 0.00335022
33 *376:23 *675:27 0
34 *379:23 *675:27 0
35 *384:23 *675:27 0
36 *398:23 *675:27 0.00800056
37 *540:167 *675:19 0.000414555
38 *647:11 *675:19 0.0707717
39 *649:9 *675:25 2.79482e-05
40 *649:11 *675:19 0.000122047
41 *649:11 *675:27 0.00353046
42 *661:19 *675:15 0.000132006
43 *662:15 *675:15 0
44 *662:19 *675:19 0.0171161
45 *662:27 *675:27 0.010371
46 *668:19 *675:31 0.0111055
*RES
1 *740:mem_rdata[23] *675:13 29.0708 
2 *675:13 *675:15 2513.04 
3 *675:15 *675:17 8 
4 *675:17 *675:19 189.049 
5 *675:19 *675:25 25.7861 
6 *675:25 *675:27 806.262 
7 *675:27 *675:29 15 
8 *675:29 *675:31 143.467 
9 *675:31 *675:39 48.9018 
10 *675:39 *739:mem_rdata_i[23] 11.6213 
*END

*D_NET *676 0.385002
*CONN
*I *739:mem_rdata_i[24] I *D ntt_wb_bridge
*I *740:mem_rdata[24] O *D ntt_engine_256
*CAP
1 *739:mem_rdata_i[24] 0.00173617
2 *740:mem_rdata[24] 0.00632265
3 *676:35 0.00441203
4 *676:33 0.00267586
5 *676:31 0.00488648
6 *676:29 0.00519642
7 *676:23 0.0309117
8 *676:21 0.0369244
9 *676:21 *710:35 0.00107807
10 *676:21 *725:33 0.0034196
11 *676:21 *726:27 0.00982694
12 *676:21 *736:27 0.00108518
13 *676:23 *725:23 0.133077
14 *676:23 *725:33 0.000656987
15 *676:31 *702:23 0.000576322
16 *676:31 *711:15 0.000100909
17 *676:31 *716:15 8.56254e-05
18 *676:31 *725:15 0.0334661
19 *676:35 *734:19 0.00568965
20 *676:35 *735:11 0.00221253
21 *81:23 *676:21 0.00158434
22 *284:17 *676:35 0.00178592
23 *373:17 *676:23 0.001962
24 *376:15 *676:31 0.00499397
25 *384:19 *676:31 0.000195309
26 *386:25 *676:31 0.000484094
27 *389:23 *676:31 0.000169444
28 *540:167 *676:21 0.00144401
29 *649:11 *676:23 0.0147986
30 *649:15 *676:35 0.00495052
31 *657:15 *676:31 0.0308747
32 *661:43 *676:35 0.000701746
33 *675:19 *676:21 0.000733022
34 *675:19 *676:23 0.0272215
35 *675:27 *676:23 0.00876227
*RES
1 *740:mem_rdata[24] *676:21 48.9224 
2 *676:21 *676:23 253.577 
3 *676:23 *676:29 28.2511 
4 *676:29 *676:31 373.665 
5 *676:31 *676:33 15 
6 *676:33 *676:35 132.375 
7 *676:35 *739:mem_rdata_i[24] 11.9237 
*END

*D_NET *677 0.680279
*CONN
*I *739:mem_rdata_i[25] I *D ntt_wb_bridge
*I *740:mem_rdata[25] O *D ntt_engine_256
*CAP
1 *739:mem_rdata_i[25] 0.00279211
2 *740:mem_rdata[25] 0.00191208
3 *677:29 0.0054222
4 *677:27 0.00340731
5 *677:15 0.0299733
6 *677:13 0.0291961
7 *677:11 0.0226297
8 *677:9 0.0245417
9 *677:11 *688:11 0.0914239
10 *677:15 *683:15 0.180837
11 *677:15 *706:15 0.180822
12 *677:27 *739:mem_rdata_i[30] 0
13 *677:27 *699:11 0.000338012
14 *677:27 *703:11 9.84011e-06
15 *677:29 *699:11 0.00159584
16 *105:19 *677:29 0.00531188
17 *118:161 *677:11 0.0168714
18 *354:25 *677:27 0.000276072
19 *361:15 *677:27 2.64181e-05
20 *661:11 *677:11 0.027382
21 *661:19 *677:11 0.0036544
22 *664:11 *677:11 0.041613
23 *668:15 *677:27 0
24 *668:19 *677:29 0.000204664
25 *675:31 *677:29 0.0100393
*RES
1 *740:mem_rdata[25] *677:9 12.4333 
2 *677:9 *677:11 215.716 
3 *677:11 *677:13 8 
4 *677:13 *677:15 334.249 
5 *677:15 *677:27 26.9251 
6 *677:27 *677:29 136.072 
7 *677:29 *739:mem_rdata_i[25] 14.4587 
*END

*D_NET *678 0.265861
*CONN
*I *739:mem_rdata_i[26] I *D ntt_wb_bridge
*I *740:mem_rdata[26] O *D ntt_engine_256
*CAP
1 *739:mem_rdata_i[26] 9.21817e-05
2 *740:mem_rdata[26] 0.00164374
3 *678:23 0.00406538
4 *678:21 0.00397319
5 *678:19 0.00426137
6 *678:17 0.0043389
7 *678:11 0.0184443
8 *678:9 0.0200105
9 *678:11 *702:31 0.00748283
10 *678:11 *711:15 0.0239977
11 *678:11 *716:23 0.0146829
12 *678:11 *733:31 0.0704837
13 *678:19 *702:23 0.00756604
14 *678:19 *711:15 0.00294462
15 *678:23 *687:15 0.00895811
16 *356:31 *678:23 0
17 *357:25 *678:19 0.0030941
18 *373:17 *678:11 0.0011812
19 *379:15 *678:11 0.00687071
20 *386:25 *678:19 0.0161034
21 *657:15 *678:19 0.029492
22 *657:23 *678:11 0.0161743
*RES
1 *740:mem_rdata[26] *678:9 38.7607 
2 *678:9 *678:11 173.936 
3 *678:11 *678:17 24.0254 
4 *678:17 *678:19 322.687 
5 *678:19 *678:21 15 
6 *678:21 *678:23 117.232 
7 *678:23 *739:mem_rdata_i[26] 8.24267 
*END

*D_NET *679 0.79994
*CONN
*I *739:mem_rdata_i[27] I *D ntt_wb_bridge
*I *740:mem_rdata[27] O *D ntt_engine_256
*CAP
1 *739:mem_rdata_i[27] 0.00445657
2 *740:mem_rdata[27] 0.000520205
3 *679:63 0.00977348
4 *679:61 0.00719135
5 *679:47 0.0111686
6 *679:45 0.0117201
7 *679:39 0.0423968
8 *679:37 0.0409168
9 *679:31 0.00302359
10 *679:29 0.00253039
11 *679:23 0.0143561
12 *679:21 0.0148353
13 *679:11 0.0335951
14 *679:9 0.0331834
15 *679:11 *682:11 0.00621387
16 *679:11 *685:13 0.00194616
17 *679:11 *720:19 0.00930197
18 *679:21 *740:mem_slot[1] 0.000308751
19 *679:21 *715:91 0.000345399
20 *679:23 *685:29 0.0400477
21 *679:45 *686:17 0.00183469
22 *679:45 *690:17 0.00298355
23 *679:45 *699:15 0.000740613
24 *679:45 *721:141 0.000102837
25 *679:47 *690:17 0.00198775
26 *679:47 *690:19 0.0517552
27 *679:47 *699:15 0.0574041
28 *679:63 *695:19 0
29 *69:21 *679:39 0.0194565
30 *74:17 *679:23 0
31 *78:129 *679:31 0.0146047
32 *78:135 *679:21 4.80842e-05
33 *102:27 *679:61 0.000413814
34 *103:17 *679:39 0.0207929
35 *114:145 *679:39 6.12548e-05
36 *115:145 *679:31 0.0146021
37 *398:23 *679:61 0.000128607
38 *646:11 *679:11 0.078676
39 *646:55 *679:61 0.00011061
40 *648:21 *679:21 0.000352939
41 *653:21 *679:21 1.36134e-05
42 *655:131 *679:39 0.141617
43 *658:143 *679:11 0.0361233
44 *659:107 *679:45 8.6839e-05
45 *663:29 *679:21 2.86993e-05
46 *665:21 *679:45 5.64843e-05
47 *667:11 *679:11 0.0681264
48 *667:15 *679:21 0
*RES
1 *740:mem_rdata[27] *679:9 19.02 
2 *679:9 *679:11 241.084 
3 *679:11 *679:21 33.8372 
4 *679:21 *679:23 508.639 
5 *679:23 *679:29 17.2581 
6 *679:29 *679:31 185.372 
7 *679:31 *679:37 18.3744 
8 *679:37 *679:39 1799.59 
9 *679:39 *679:45 17.5965 
10 *679:45 *679:47 105.629 
11 *679:47 *679:61 45.4817 
12 *679:61 *679:63 112.831 
13 *679:63 *739:mem_rdata_i[27] 18.4944 
*END

*D_NET *680 0.415666
*CONN
*I *739:mem_rdata_i[28] I *D ntt_wb_bridge
*I *740:mem_rdata[28] O *D ntt_engine_256
*CAP
1 *739:mem_rdata_i[28] 5.36353e-05
2 *740:mem_rdata[28] 0.00166301
3 *680:39 0.0359907
4 *680:37 0.0416267
5 *680:25 0.00951509
6 *680:11 0.0750818
7 *680:9 0.0729194
8 *680:11 *694:167 0.0264021
9 *680:11 *720:11 0.0264021
10 *680:11 *721:143 0.0230375
11 *680:25 *681:23 0.00579944
12 *680:25 *700:11 0.0020454
13 *680:25 *721:141 0
14 *680:39 *721:101 0
15 *75:17 *680:11 0.0230229
16 *78:127 *680:25 0
17 *112:59 *680:25 0.000416742
18 *655:115 *680:25 0.00124382
19 *655:115 *680:37 0.00143416
20 *655:121 *680:25 0.000320629
21 *659:93 *680:37 0.00020877
22 *659:93 *680:39 0
23 *659:107 *680:37 0.00117189
24 *669:21 *680:11 0.0672793
25 *669:33 *680:25 0
26 *672:23 *680:25 3.12146e-05
27 *673:27 *680:25 0
*RES
1 *740:mem_rdata[28] *680:9 12.2243 
2 *680:9 *680:11 290.099 
3 *680:11 *680:25 48.8112 
4 *680:25 *680:37 41.5653 
5 *680:37 *680:39 116.835 
6 *680:39 *739:mem_rdata_i[28] 0.0914667 
*END

*D_NET *681 0.248786
*CONN
*I *739:mem_rdata_i[29] I *D ntt_wb_bridge
*I *740:mem_rdata[29] O *D ntt_engine_256
*CAP
1 *739:mem_rdata_i[29] 5.36353e-05
2 *740:mem_rdata[29] 0.0014137
3 *681:25 0.0362508
4 *681:23 0.0402946
5 *681:13 0.0151535
6 *681:11 0.0124698
7 *681:11 *682:21 0.000229534
8 *681:23 *700:11 0.00186394
9 *681:23 *708:15 0.00125174
10 *681:23 *721:141 1.25096e-05
11 *681:25 *694:125 0.00107217
12 *681:25 *721:101 7.11789e-05
13 *78:121 *681:25 0.00559127
14 *78:129 *681:13 0.00895224
15 *104:23 *681:13 0.0481418
16 *652:119 *681:23 0.000105479
17 *652:123 *681:13 0.0481418
18 *655:99 *681:25 0.00241854
19 *659:93 *681:25 0
20 *669:33 *681:25 0
21 *671:17 *681:13 0.0102662
22 *672:23 *681:23 0.00923232
23 *680:25 *681:23 0.00579944
*RES
1 *740:mem_rdata[29] *681:11 11.2499 
2 *681:11 *681:13 113.788 
3 *681:13 *681:23 49.8048 
4 *681:23 *681:25 122.502 
5 *681:25 *739:mem_rdata_i[29] 0.0914667 
*END

*D_NET *682 0.75948
*CONN
*I *739:mem_rdata_i[2] I *D ntt_wb_bridge
*I *740:mem_rdata[2] O *D ntt_engine_256
*CAP
1 *739:mem_rdata_i[2] 0.00154658
2 *740:mem_rdata[2] 0.000549452
3 *682:107 0.00469129
4 *682:105 0.00314471
5 *682:103 0.00173207
6 *682:101 0.00173207
7 *682:99 0.002869
8 *682:97 0.002869
9 *682:95 0.000794801
10 *682:91 0.00348915
11 *682:89 0.00269435
12 *682:87 0.00318565
13 *682:85 0.00318565
14 *682:83 0.00224633
15 *682:81 0.00259263
16 *682:77 0.00167893
17 *682:73 0.00223854
18 *682:69 0.00177269
19 *682:63 0.00256388
20 *682:61 0.00169709
21 *682:59 0.00457046
22 *682:57 0.00457046
23 *682:55 0.00229086
24 *682:53 0.00292156
25 *682:47 0.0018611
26 *682:43 0.00538977
27 *682:41 0.00415936
28 *682:39 0.00266367
29 *682:37 0.00296988
30 *682:31 0.0015408
31 *682:29 0.00143463
32 *682:23 0.00802702
33 *682:21 0.00803058
34 *682:15 0.0277716
35 *682:13 0.027568
36 *682:11 0.0169087
37 *682:9 0.0174581
38 *682:11 *715:95 0.0808733
39 *682:11 *720:19 0.000174677
40 *682:15 *740:mem_wdata[5] 2.11157e-05
41 *682:15 *685:45 0.00466909
42 *682:15 *699:19 0.0259118
43 *682:15 *708:19 0.000551461
44 *682:15 *715:83 0.0127117
45 *682:15 *730:19 0.0602423
46 *682:23 *714:131 0.0177092
47 *682:23 *715:75 0.0255301
48 *682:29 *740:mem_wdata[6] 0.000232261
49 *682:31 *699:19 0.0084317
50 *682:31 *724:11 0.00110167
51 *682:31 *730:19 0.0084317
52 *682:37 *740:mem_wdata[16] 0.000354992
53 *682:39 *685:57 0
54 *682:39 *685:63 3.62798e-05
55 *682:39 *714:123 0.000273023
56 *682:43 *685:65 4.65317e-05
57 *682:43 *708:15 0.00608969
58 *682:43 *714:119 0.0232994
59 *682:43 *715:63 0.0271395
60 la_data_out[84] *682:103 0
61 la_data_out[93] *682:81 0.000883861
62 *740:mem_addr[4] *682:15 4.82774e-05
63 *274:19 *682:63 0.00479482
64 *363:65 *739:mem_rdata_i[2] 0
65 *364:23 *739:mem_rdata_i[2] 4.60289e-05
66 *372:19 *739:mem_rdata_i[2] 0.000131661
67 *529:19 *682:87 0.00900609
68 *530:19 *682:95 0.0022518
69 *653:21 *682:11 0.000693883
70 *658:123 *682:23 0
71 *658:123 *682:39 0.00631334
72 *658:131 *682:15 0.119391
73 *658:143 *682:11 0.0070876
74 *667:11 *682:11 0.0683011
75 *669:19 *682:15 0.000619605
76 *673:11 *682:11 0.00529712
77 *673:15 *682:15 0
78 *673:15 *682:23 0.0161714
79 *674:11 *682:15 0.0207501
80 *674:11 *682:23 6.93441e-06
81 *679:11 *682:11 0.00621387
82 *681:11 *682:21 0.000229534
*RES
1 *740:mem_rdata[2] *682:9 19.0407 
2 *682:9 *682:11 168.441 
3 *682:11 *682:13 8 
4 *682:13 *682:15 1861.57 
5 *682:15 *682:21 16.4853 
6 *682:21 *682:23 436.098 
7 *682:23 *682:29 16.4853 
8 *682:29 *682:31 107.196 
9 *682:31 *682:37 16.7429 
10 *682:37 *682:39 88.7089 
11 *682:39 *682:41 15 
12 *682:41 *682:43 296.484 
13 *682:43 *682:47 39.0907 
14 *682:47 *682:53 43.0086 
15 *682:53 *682:55 48.7407 
16 *682:55 *682:57 15 
17 *682:57 *682:59 99.7186 
18 *682:59 *682:61 15 
19 *682:61 *682:63 61.0657 
20 *682:63 *682:69 48.2493 
21 *682:69 *682:73 35.9214 
22 *682:73 *682:77 43.7307 
23 *682:77 *682:81 26.4136 
24 *682:81 *682:83 46.3586 
25 *682:83 *682:85 15 
26 *682:85 *682:87 114.591 
27 *682:87 *682:89 15 
28 *682:89 *682:91 57.3164 
29 *682:91 *682:95 43.6686 
30 *682:95 *682:97 15 
31 *682:97 *682:99 57.7929 
32 *682:99 *682:101 15 
33 *682:101 *682:103 39.585 
34 *682:103 *682:105 15 
35 *682:105 *682:107 53.9814 
36 *682:107 *739:mem_rdata_i[2] 28.224 
*END

*D_NET *683 0.485928
*CONN
*I *739:mem_rdata_i[30] I *D ntt_wb_bridge
*I *740:mem_rdata[30] O *D ntt_engine_256
*CAP
1 *739:mem_rdata_i[30] 0.00869953
2 *740:mem_rdata[30] 0.00185817
3 *683:15 0.0378484
4 *683:13 0.039446
5 *683:9 0.0121554
6 *739:mem_rdata_i[30] *699:11 0
7 *739:mem_rdata_i[30] *733:19 0.000936704
8 *683:9 *736:27 0.000364411
9 *683:13 *688:11 0.0165828
10 *683:15 *709:15 0.000312341
11 *683:15 *718:15 0
12 *102:23 *739:mem_rdata_i[30] 0.00672469
13 *365:23 *739:mem_rdata_i[30] 0.000824084
14 *371:27 *739:mem_rdata_i[30] 0.000936704
15 *650:15 *683:15 0.178402
16 *677:15 *683:15 0.180837
17 *677:27 *739:mem_rdata_i[30] 0
*RES
1 *740:mem_rdata[30] *683:9 12.0899 
2 *683:9 *683:13 47.1515 
3 *683:13 *683:15 333.047 
4 *683:15 *739:mem_rdata_i[30] 40.4776 
*END

*D_NET *684 0.0975388
*CONN
*I *739:mem_rdata_i[31] I *D ntt_wb_bridge
*I *740:mem_rdata[31] O *D ntt_engine_256
*CAP
1 *739:mem_rdata_i[31] 0.00852364
2 *740:mem_rdata[31] 0.000684532
3 *684:15 0.0121507
4 *684:13 0.00362702
5 *684:11 0.00719173
6 *684:9 0.00787626
7 *684:9 *685:69 0.00102711
8 *684:11 *740:mem_re 0.000383953
9 *684:11 *698:15 0.0203332
10 *684:11 *699:15 0
11 la_data_out[88] *684:15 0
12 *660:11 *684:11 0.0317863
13 *663:35 *684:9 0.000101159
14 *667:43 *684:15 0.00366327
15 *673:39 *684:11 0.000189882
*RES
1 *740:mem_rdata[31] *684:9 23.2664 
2 *684:9 *684:11 58.6171 
3 *684:11 *684:13 8 
4 *684:13 *684:15 90.9979 
5 *684:15 *739:mem_rdata_i[31] 32.7483 
*END

*D_NET *685 0.807533
*CONN
*I *739:mem_rdata_i[3] I *D ntt_wb_bridge
*I *740:mem_rdata[3] O *D ntt_engine_256
*CAP
1 *739:mem_rdata_i[3] 0.00148653
2 *740:mem_rdata[3] 0.000450508
3 *685:121 0.00789955
4 *685:119 0.00641302
5 *685:117 0.00188353
6 *685:115 0.00188353
7 *685:113 0.00622181
8 *685:111 0.00622181
9 *685:109 0.00209023
10 *685:107 0.00288001
11 *685:101 0.00229261
12 *685:99 0.00201264
13 *685:95 0.00129587
14 *685:89 0.00307765
15 *685:87 0.00229159
16 *685:85 0.00119948
17 *685:83 0.00119948
18 *685:81 0.00276087
19 *685:79 0.00276087
20 *685:77 0.00205711
21 *685:75 0.00205711
22 *685:73 0.00288786
23 *685:71 0.00288786
24 *685:69 0.00101037
25 *685:65 0.00767521
26 *685:63 0.00677282
27 *685:57 0.00305916
28 *685:55 0.00302084
29 *685:53 0.00452374
30 *685:51 0.0048733
31 *685:45 0.0373856
32 *685:43 0.0372928
33 *685:37 0.00630844
34 *685:35 0.00629335
35 *685:29 0.0301881
36 *685:27 0.0302165
37 *685:21 0.0122272
38 *685:19 0.0119522
39 *685:13 0.0157827
40 *685:11 0.0161684
41 *685:13 *714:155 0.00551361
42 *685:13 *715:95 0.00553969
43 *685:21 *714:145 0.000519244
44 *685:21 *714:147 0.0837548
45 *685:27 *694:171 2.13733e-05
46 *685:29 *708:19 0.0250238
47 *685:45 *690:11 0.00545576
48 *685:45 *699:19 0.0106163
49 *685:45 *700:19 0.00455642
50 *685:45 *705:19 0.00233714
51 *685:45 *708:19 0.010836
52 *685:45 *730:19 0.00416726
53 *685:45 *738:19 0.00946366
54 *685:53 *714:131 0.000835241
55 *685:53 *715:67 0
56 *685:53 *715:75 0.00997542
57 *685:57 *715:67 0.00778445
58 *685:63 *715:67 5.72838e-05
59 *685:65 *708:15 0.00349798
60 *685:65 *714:119 0.0207238
61 *685:65 *715:63 4.77213e-05
62 *685:65 *723:131 0.000564851
63 *685:95 *708:11 0.000243209
64 *685:101 *714:59 0.00227345
65 *685:101 *715:43 0.0025001
66 *685:113 *714:51 0.000112638
67 *685:117 *692:11 0.00535097
68 la_data_out[95] *685:109 0
69 la_data_out[96] *685:101 0.00293681
70 la_data_out[99] *685:85 0.0033864
71 *740:clk *685:21 0.000446606
72 *74:17 *685:29 0
73 *102:27 *685:73 0.00250393
74 *114:157 *685:27 0
75 *364:23 *739:mem_rdata_i[3] 2.26212e-05
76 *372:19 *739:mem_rdata_i[3] 7.57449e-05
77 *646:11 *685:13 0
78 *646:35 *685:37 0
79 *658:59 *685:101 0.00310509
80 *658:123 *685:53 0.00797343
81 *658:123 *685:57 0
82 *658:131 *685:29 0.0407503
83 *658:135 *685:21 0.0781547
84 *658:135 *685:27 0.000185171
85 *658:143 *685:13 0.00270921
86 *659:111 *685:45 0
87 *663:11 *685:13 0.0504877
88 *663:11 *685:21 0.0130107
89 *671:15 *685:21 0.00410479
90 *672:11 *685:51 0
91 *673:11 *685:13 0.010091
92 *673:11 *685:21 0.000899469
93 *673:15 *685:37 0.0161819
94 *679:11 *685:13 0.00194616
95 *679:23 *685:29 0.0400477
96 *682:15 *685:45 0.00466909
97 *682:39 *685:57 0
98 *682:39 *685:63 3.62798e-05
99 *682:43 *685:65 4.65317e-05
100 *684:9 *685:69 0.00102711
*RES
1 *740:mem_rdata[3] *685:11 18.0257 
2 *685:11 *685:13 111.597 
3 *685:13 *685:19 24.0254 
4 *685:19 *685:21 926.322 
5 *685:21 *685:27 22.6643 
6 *685:27 *685:29 1307.65 
7 *685:29 *685:35 33.9564 
8 *685:35 *685:37 208.085 
9 *685:37 *685:43 16.6141 
10 *685:43 *685:45 119.754 
11 *685:45 *685:51 16.7859 
12 *685:51 *685:53 207.329 
13 *685:53 *685:55 1.57429 
14 *685:55 *685:57 100.195 
15 *685:57 *685:63 17.5375 
16 *685:63 *685:65 228.831 
17 *685:65 *685:69 38.3864 
18 *685:69 *685:71 15 
19 *685:71 *685:73 60.6514 
20 *685:73 *685:75 15 
21 *685:75 *685:77 43.1064 
22 *685:77 *685:79 15 
23 *685:79 *685:81 56.84 
24 *685:81 *685:83 15 
25 *685:83 *685:85 43.1064 
26 *685:85 *685:87 15 
27 *685:87 *685:89 46.835 
28 *685:89 *685:95 47.7521 
29 *685:95 *685:99 25.15 
30 *685:99 *685:101 100.506 
31 *685:101 *685:107 45.3907 
32 *685:107 *685:109 46.6279 
33 *685:109 *685:111 15 
34 *685:111 *685:113 128.304 
35 *685:113 *685:115 15 
36 *685:115 *685:117 68.1086 
37 *685:117 *685:119 15 
38 *685:119 *685:121 125.922 
39 *685:121 *739:mem_rdata_i[3] 27.3928 
*END

*D_NET *686 0.529548
*CONN
*I *739:mem_rdata_i[4] I *D ntt_wb_bridge
*I *740:mem_rdata[4] O *D ntt_engine_256
*CAP
1 *739:mem_rdata_i[4] 4.98287e-05
2 *740:mem_rdata[4] 0.00187382
3 *686:79 0.0282417
4 *686:77 0.0330723
5 *686:73 0.00927645
6 *686:51 0.0111714
7 *686:33 0.0107789
8 *686:19 0.00926635
9 *686:17 0.00629487
10 *686:11 0.0282588
11 *686:9 0.0291005
12 *686:11 *694:167 5.29024e-05
13 *686:11 *720:11 6.36821e-05
14 *686:11 *721:143 0.178515
15 *686:17 *699:15 0.000273749
16 *686:19 *730:19 0
17 *686:73 *723:79 0.000366916
18 *686:77 *721:69 0.000689996
19 la_data_out[113] *686:73 0.000396305
20 la_data_out[115] *686:51 0.000198143
21 la_data_out[116] *686:51 0.00141468
22 *77:135 *686:33 0.000865456
23 *77:139 *686:33 0.0013513
24 *77:145 *686:33 0.000713806
25 *77:155 *686:19 0.00368835
26 *115:137 *686:11 0.000105387
27 *296:19 *686:51 0.000321265
28 *659:63 *686:73 0
29 *659:73 *686:73 6.99323e-06
30 *665:11 *686:11 0.170079
31 *665:39 *686:33 0.000404939
32 *665:39 *686:51 0.00024875
33 *669:57 *686:33 0
34 *669:57 *686:51 0.00057102
35 *674:11 *686:19 0
36 *679:45 *686:17 0.00183469
*RES
1 *740:mem_rdata[4] *686:9 12.9467 
2 *686:9 *686:11 2270.06 
3 *686:11 *686:17 19.5765 
4 *686:17 *686:19 135.368 
5 *686:19 *686:33 46.5507 
6 *686:33 *686:51 45.1904 
7 *686:51 *686:73 46.8773 
8 *686:73 *686:77 18.0992 
9 *686:77 *686:79 90.9029 
10 *686:79 *739:mem_rdata_i[4] 0.0914667 
*END

*D_NET *687 0.100064
*CONN
*I *739:mem_rdata_i[5] I *D ntt_wb_bridge
*I *740:mem_rdata[5] O *D ntt_engine_256
*CAP
1 *739:mem_rdata_i[5] 0.000375237
2 *740:mem_rdata[5] 0.00155346
3 *687:15 0.00750904
4 *687:13 0.00713381
5 *687:11 0.00514904
6 *687:9 0.0067025
7 *739:mem_rdata_i[5] *711:11 0.000112317
8 *687:15 *701:16 0.000206396
9 *687:15 *719:11 0.0228467
10 *687:15 *731:41 0.000682568
11 *687:15 *737:20 0.000103193
12 *353:19 *687:11 0.0114849
13 *356:31 *687:15 0
14 *373:17 *687:11 0.0250788
15 *649:11 *687:11 0.00100638
16 *662:25 *687:9 0
17 *675:27 *687:11 0.00116155
18 *678:23 *687:15 0.00895811
*RES
1 *740:mem_rdata[5] *687:9 35.9436 
2 *687:9 *687:11 46.2523 
3 *687:11 *687:13 8 
4 *687:13 *687:15 295.241 
5 *687:15 *739:mem_rdata_i[5] 8.98187 
*END

*D_NET *688 0.730408
*CONN
*I *739:mem_rdata_i[6] I *D ntt_wb_bridge
*I *740:mem_rdata[6] O *D ntt_engine_256
*CAP
1 *739:mem_rdata_i[6] 0.00144373
2 *740:mem_rdata[6] 0.00182249
3 *688:31 0.0037067
4 *688:29 0.00226296
5 *688:27 0.00419965
6 *688:25 0.00419965
7 *688:23 0.00334624
8 *688:21 0.00360679
9 *688:15 0.0258475
10 *688:13 0.0255869
11 *688:11 0.0469839
12 *688:9 0.0488064
13 *739:mem_rdata_i[6] *709:11 0.000187252
14 *739:mem_rdata_i[6] *711:11 0.000112317
15 *739:mem_rdata_i[6] *726:11 0.000189484
16 *688:11 *695:35 0.0215102
17 *688:23 *710:23 0.0198823
18 *688:27 *706:11 0.0224514
19 *688:27 *707:11 0
20 *93:23 *688:11 0
21 *352:19 *688:23 0.0034154
22 *353:19 *688:23 0.000347336
23 *358:13 *688:21 0.000100169
24 *383:25 *688:27 0.0204838
25 *398:19 *688:15 0.000964982
26 *398:23 *688:23 0.000200243
27 *661:11 *688:11 0.00314932
28 *661:19 *688:11 0.000116995
29 *661:23 *688:15 0.158419
30 *661:31 *688:23 0
31 *662:27 *688:23 2.02872e-05
32 *664:11 *688:11 0.000538619
33 *664:15 *688:15 0.161147
34 *664:23 *688:23 0.0186158
35 *675:15 *688:11 0.0187369
36 *677:11 *688:11 0.0914239
37 *683:13 *688:11 0.0165828
*RES
1 *740:mem_rdata[6] *688:9 12.2616 
2 *688:9 *688:11 237.675 
3 *688:11 *688:13 8 
4 *688:13 *688:15 296.682 
5 *688:15 *688:21 27.8989 
6 *688:21 *688:23 225.019 
7 *688:23 *688:25 15 
8 *688:25 *688:27 287.494 
9 *688:27 *688:29 15 
10 *688:29 *688:31 35.8771 
11 *688:31 *739:mem_rdata_i[6] 28.4953 
*END

*D_NET *689 0.701096
*CONN
*I *739:mem_rdata_i[7] I *D ntt_wb_bridge
*I *740:mem_rdata[7] O *D ntt_engine_256
*CAP
1 *739:mem_rdata_i[7] 0.00151224
2 *740:mem_rdata[7] 0.00073863
3 *689:35 0.00598134
4 *689:33 0.0044691
5 *689:31 0.0210038
6 *689:29 0.021126
7 *689:23 0.0141249
8 *689:21 0.0140028
9 *689:19 0.022944
10 *689:17 0.0230016
11 *689:11 0.0270231
12 *689:9 0.0277042
13 *739:mem_rdata_i[7] *739:mem_rdata_i[8] 0
14 *739:mem_rdata_i[7] *701:12 0.000227734
15 *739:mem_rdata_i[7] *711:11 0.000142505
16 *739:mem_rdata_i[7] *719:11 0.000120707
17 *689:9 *734:49 1.82152e-05
18 *689:11 *702:43 0.00822358
19 *689:11 *706:27 0
20 *689:11 *709:19 0.00143925
21 *689:11 *709:27 0.0577822
22 *689:11 *726:27 0.00439204
23 *689:11 *729:35 0.00425262
24 *689:11 *737:54 0
25 *689:19 *702:35 0.000576652
26 *689:19 *709:19 0.0692292
27 *689:19 *716:27 0.0140625
28 *689:19 *717:27 0.00962533
29 *689:19 *729:27 0.00083262
30 *689:19 *733:35 0
31 *689:23 *729:23 0.0714743
32 *689:23 *737:42 0.0708049
33 *689:29 *729:21 0.000343361
34 *689:31 *726:15 8.11489e-05
35 *689:31 *728:15 0
36 *689:31 *729:15 0.0972778
37 *689:31 *737:34 0
38 *689:35 *716:11 0.0206307
39 *689:35 *735:11 0
40 la_data_out[23] *689:29 1.02219e-05
41 *739:mem_rdata_i[11] *689:35 0.000217279
42 *81:23 *689:19 0
43 *116:137 *689:19 0
44 *300:15 *689:31 3.22722e-05
45 *316:19 *689:31 0
46 *317:15 *689:31 0
47 *335:15 *689:31 0.00493928
48 *336:21 *689:29 0.000109836
49 *338:25 *689:23 0.000200481
50 *339:29 *689:31 0.00136561
51 *340:23 *689:31 0.000672708
52 *345:23 *689:31 0
53 *346:25 *689:31 0.000402534
54 *347:21 *689:31 0.000544416
55 *348:27 *689:31 0.00107735
56 *349:39 *689:29 4.28349e-05
57 *350:19 *689:31 0.0136159
58 *351:15 *689:31 0.00021436
59 *352:7 *689:31 0.000360269
60 *355:15 *689:31 0
61 *357:15 *689:31 0.000357902
62 *360:19 *689:31 0.0411925
63 *362:15 *689:31 0.0102241
64 *364:23 *689:35 0.0101858
65 *647:31 *689:35 0.000160956
66 *656:35 *689:11 0
*RES
1 *740:mem_rdata[7] *689:9 9.85733 
2 *689:9 *689:11 155.295 
3 *689:11 *689:17 16.0989 
4 *689:17 *689:19 909.378 
5 *689:19 *689:21 8 
6 *689:21 *689:23 135.897 
7 *689:23 *689:29 27.8989 
8 *689:29 *689:31 1069.25 
9 *689:31 *689:33 15 
10 *689:33 *689:35 265.133 
11 *689:35 *739:mem_rdata_i[7] 11.4459 
*END

*D_NET *690 0.349026
*CONN
*I *739:mem_rdata_i[8] I *D ntt_wb_bridge
*I *740:mem_rdata[8] O *D ntt_engine_256
*CAP
1 *739:mem_rdata_i[8] 0.00294621
2 *740:mem_rdata[8] 0.00102594
3 *690:23 0.0113395
4 *690:21 0.00839333
5 *690:19 0.0192548
6 *690:17 0.0231261
7 *690:11 0.0235104
8 *690:9 0.0206651
9 *690:11 *700:19 0.00313626
10 *690:11 *705:11 0.000812711
11 *690:11 *705:19 0.0478185
12 *690:11 *724:11 0.00103759
13 *690:11 *738:19 0.0845006
14 *690:17 *703:15 0
15 *690:19 *699:15 0.00141004
16 *690:19 *703:15 0
17 *690:19 *706:15 0.00119259
18 *690:23 *703:11 0.0220437
19 *739:mem_rdata_i[7] *739:mem_rdata_i[8] 0
20 *74:17 *690:11 0
21 *112:59 *690:17 0.000275288
22 *373:21 *690:23 0.000610944
23 *652:119 *690:17 0.000820515
24 *654:11 *690:9 0.000210019
25 *659:107 *690:17 0.000422028
26 *672:11 *690:11 0.000396586
27 *674:21 *690:23 0.0118952
28 *679:45 *690:17 0.00298355
29 *679:47 *690:17 0.00198775
30 *679:47 *690:19 0.0517552
31 *685:45 *690:11 0.00545576
*RES
1 *740:mem_rdata[8] *690:9 10.3333 
2 *690:9 *690:11 1073.48 
3 *690:11 *690:17 24.5517 
4 *690:17 *690:19 102.237 
5 *690:19 *690:21 8 
6 *690:21 *690:23 52.7333 
7 *690:23 *739:mem_rdata_i[8] 14.8451 
*END

*D_NET *691 0.822254
*CONN
*I *739:mem_rdata_i[9] I *D ntt_wb_bridge
*I *740:mem_rdata[9] O *D ntt_engine_256
*CAP
1 *739:mem_rdata_i[9] 0.00122282
2 *740:mem_rdata[9] 0.000378262
3 *691:27 0.00616806
4 *691:25 0.00494525
5 *691:23 0.0628082
6 *691:21 0.0628082
7 *691:19 0.0138509
8 *691:17 0.0139594
9 *691:11 0.0399069
10 *691:9 0.0401766
11 *691:11 *702:43 0.00924211
12 *691:11 *704:35 0.0230412
13 *691:11 *709:27 0.0666979
14 *691:11 *710:35 0.00595344
15 *691:11 *717:35 0.041567
16 *691:11 *733:35 0.0186058
17 *691:17 *740:mem_wdata[8] 2.55744e-05
18 *691:19 *702:35 0.0852581
19 *691:19 *709:19 0.0771092
20 *691:19 *709:27 0.00337685
21 *691:19 *726:27 0.0137854
22 *691:23 *709:15 0
23 *691:23 *718:15 0.177761
24 *691:27 *702:11 0.000457933
25 *691:27 *709:11 0.0221101
26 *691:27 *717:11 0.000281184
27 *691:27 *725:11 0.000241194
28 *691:27 *726:11 0.0195741
29 *691:27 *734:27 0
30 *80:187 *691:11 0.000971698
31 *81:23 *691:11 0.00799665
32 *116:133 *691:23 0.00162256
33 *540:181 *691:23 0.000350227
*RES
1 *740:mem_rdata[9] *691:9 9.00613 
2 *691:9 *691:11 235.771 
3 *691:11 *691:17 16.1848 
4 *691:17 *691:19 1082.63 
5 *691:19 *691:21 8 
6 *691:21 *691:23 328.153 
7 *691:23 *691:25 8 
8 *691:25 *691:27 290.311 
9 *691:27 *739:mem_rdata_i[9] 10.6805 
*END

*D_NET *692 0.10732
*CONN
*I *740:mem_re I *D ntt_engine_256
*I *739:mem_re_o O *D ntt_wb_bridge
*CAP
1 *740:mem_re 0.00409448
2 *739:mem_re_o 0.00823621
3 *692:11 0.0354286
4 *692:9 0.0395703
5 *740:mem_re *698:15 0.0101992
6 *740:mem_re *699:15 0
7 la_data_out[88] *692:11 0
8 *78:45 *692:9 0
9 *114:35 *692:11 0.00019005
10 *667:33 *740:mem_re 0.00386294
11 *673:39 *740:mem_re 3.31254e-06
12 *684:11 *740:mem_re 0.000383953
13 *685:117 *692:11 0.00535097
*RES
1 *739:mem_re_o *692:9 33.9504 
2 *692:9 *692:11 734.715 
3 *692:11 *740:mem_re 49.6161 
*END

*D_NET *693 0.12456
*CONN
*I *740:mem_slot[0] I *D ntt_engine_256
*I *739:mem_slot_o[0] O *D ntt_wb_bridge
*CAP
1 *740:mem_slot[0] 0.00226159
2 *739:mem_slot_o[0] 0.000198021
3 *693:11 0.0237416
4 *693:9 0.0216781
5 *740:mem_slot[0] *735:17 0.002428
6 *693:9 *737:6 0.000364411
7 *693:11 *696:11 0.0478843
8 *693:11 *737:6 0.0101424
9 *693:11 *737:20 0.00295055
10 *693:11 *737:26 0.0054813
11 *693:11 *737:32 0.00011434
12 *76:19 *693:11 0
13 *79:17 *693:11 0.000847532
14 *278:21 *693:11 0.00014981
15 *358:25 *740:mem_slot[0] 0.00453779
16 *363:39 *693:11 0.000323096
17 *363:59 *693:11 0.000305409
18 *398:19 *740:mem_slot[0] 0
19 *531:17 *693:11 0.000190324
20 *661:31 *740:mem_slot[0] 0.000961522
*RES
1 *739:mem_slot_o[0] *693:9 8.69813 
2 *693:9 *693:11 705.135 
3 *693:11 *740:mem_slot[0] 48.1029 
*END

*D_NET *694 0.633073
*CONN
*I *740:mem_slot[1] I *D ntt_engine_256
*I *739:mem_slot_o[1] O *D ntt_wb_bridge
*CAP
1 *740:mem_slot[1] 0.00028352
2 *739:mem_slot_o[1] 2.38341e-05
3 *694:171 0.0012965
4 *694:167 0.0292374
5 *694:165 0.0294385
6 *694:161 0.00220222
7 *694:157 0.00218892
8 *694:149 0.00269561
9 *694:135 0.00313417
10 *694:133 0.00319595
11 *694:125 0.00343867
12 *694:117 0.00338097
13 *694:103 0.00437637
14 *694:101 0.00446273
15 *694:91 0.0036856
16 *694:79 0.0054044
17 *694:77 0.00363069
18 *694:71 0.00223994
19 *694:69 0.00261566
20 *694:63 0.00305785
21 *694:61 0.00352714
22 *694:55 0.00240993
23 *694:47 0.00510583
24 *694:45 0.00475901
25 *694:39 0.00247901
26 *694:35 0.00516561
27 *694:29 0.00476716
28 *694:19 0.00384878
29 *694:17 0.00470926
30 *694:7 0.0249963
31 *694:5 0.0229705
32 *694:35 *721:11 0
33 *694:47 *721:39 0
34 *694:55 *705:7 0.000482415
35 *694:55 *721:39 0.00047929
36 *694:69 *723:61 4.93791e-05
37 *694:79 *721:63 0.00216377
38 *694:91 *721:77 0.000548011
39 *694:101 *721:79 0
40 *694:117 *723:91 0.000191591
41 *694:125 *721:101 6.5889e-05
42 *694:149 *721:129 0.00010023
43 *694:167 *720:11 0.196571
44 *694:167 *721:143 0.195537
45 la_data_out[105] *694:19 0
46 la_data_out[114] *694:103 0
47 la_data_out[114] *694:117 0
48 la_data_out[115] *694:133 0
49 la_data_out[116] *694:135 0
50 *112:33 *694:157 0
51 *112:33 *694:161 0.00114666
52 *114:137 *694:135 0.00166371
53 *114:153 *694:167 0
54 *291:13 *694:149 0.000171985
55 *291:19 *694:157 4.60157e-05
56 *298:31 *694:149 0.000936995
57 *646:47 *694:165 0
58 *652:7 *694:17 0.00316107
59 *652:67 *694:79 0.00150654
60 *653:23 *694:171 5.12254e-05
61 *655:115 *694:149 0.00093406
62 *655:121 *694:161 0
63 *655:129 *694:165 0.00202129
64 *658:135 *694:171 0.00078866
65 *659:7 *694:29 0.00131247
66 *659:93 *694:125 8.0213e-07
67 *659:107 *694:157 5.96737e-06
68 *663:29 *740:mem_slot[1] 0.000241506
69 *665:59 *694:91 0
70 *666:15 *694:101 0
71 *671:21 *694:77 0.00019937
72 *672:23 *694:161 0.000110158
73 *679:21 *740:mem_slot[1] 0.000308751
74 *680:11 *694:167 0.0264021
75 *681:25 *694:125 0.00107217
76 *685:27 *694:171 2.13733e-05
77 *686:11 *694:167 5.29024e-05
*RES
1 *739:mem_slot_o[1] *694:5 0.0914667 
2 *694:5 *694:7 75.404 
3 *694:7 *694:17 47.6471 
4 *694:17 *694:19 60.0093 
5 *694:19 *694:29 25.5132 
6 *694:29 *694:35 46.9349 
7 *694:35 *694:39 44.0636 
8 *694:39 *694:45 18.632 
9 *694:45 *694:47 88.1807 
10 *694:47 *694:55 43.1182 
11 *694:55 *694:61 20.3493 
12 *694:61 *694:63 54.375 
13 *694:63 *694:69 18.632 
14 *694:69 *694:71 43.1064 
15 *694:71 *694:77 17.344 
16 *694:77 *694:79 86.0679 
17 *694:79 *694:91 49.9365 
18 *694:91 *694:101 46.5144 
19 *694:101 *694:103 65.6436 
20 *694:103 *694:117 48.9187 
21 *694:117 *694:125 49.8688 
22 *694:125 *694:133 36.4874 
23 *694:133 *694:135 43.1064 
24 *694:135 *694:149 43.4215 
25 *694:149 *694:157 37.8448 
26 *694:157 *694:161 43.8446 
27 *694:161 *694:165 43.7307 
28 *694:165 *694:167 2495.43 
29 *694:167 *694:171 36.5843 
30 *694:171 *740:mem_slot[1] 23.0889 
*END

*D_NET *695 0.962929
*CONN
*I *740:mem_target I *D ntt_engine_256
*I *739:mem_target_o O *D ntt_wb_bridge
*CAP
1 *740:mem_target 0.000378905
2 *739:mem_target_o 0.0015374
3 *695:39 0.00951363
4 *695:37 0.00913472
5 *695:35 0.0312796
6 *695:33 0.0312796
7 *695:31 0.0144302
8 *695:29 0.0146044
9 *695:23 0.0386561
10 *695:21 0.0384819
11 *695:19 0.0202918
12 *695:17 0.0202918
13 *695:15 0.00223385
14 *695:13 0.00377125
15 *695:13 *734:11 0.000127694
16 *695:19 *707:11 5.10248e-05
17 *695:23 *704:23 0.102864
18 *695:23 *704:31 0.00134218
19 *695:31 *696:23 0.0218719
20 *695:31 *704:31 0.021883
21 *695:31 *717:23 0.00739493
22 *695:31 *727:31 0.0203393
23 *695:39 *704:39 0.0421472
24 *695:39 *710:39 0.0317145
25 *695:39 *733:39 9.52845e-05
26 *79:17 *695:13 0.000287215
27 *82:25 *695:35 0
28 *118:161 *695:35 0.135795
29 *354:25 *695:23 0.00025384
30 *354:27 *695:19 0.0559056
31 *361:15 *695:23 0.00731501
32 *372:19 *695:13 0.000242843
33 *656:25 *695:31 0
34 *658:19 *695:19 0
35 *661:19 *695:35 0.00102661
36 *662:11 *695:39 0.000396464
37 *662:15 *695:35 0.02095
38 *664:15 *695:23 0.0351647
39 *664:15 *695:31 0.000209378
40 *668:13 *695:31 2.81221e-05
41 *675:13 *695:39 0.000741194
42 *675:15 *695:35 0.197387
43 *679:63 *695:19 0
44 *688:11 *695:35 0.0215102
*RES
1 *739:mem_target_o *695:13 29.8865 
2 *695:13 *695:15 36.83 
3 *695:15 *695:17 15 
4 *695:17 *695:19 715.347 
5 *695:19 *695:21 15 
6 *695:21 *695:23 1237.43 
7 *695:23 *695:29 26.1382 
8 *695:29 *695:31 115.031 
9 *695:31 *695:33 8 
10 *695:33 *695:35 2506.7 
11 *695:35 *695:37 8 
12 *695:37 *695:39 80.3413 
13 *695:39 *740:mem_target 15.975 
*END

*D_NET *696 0.458478
*CONN
*I *740:mem_wdata[0] I *D ntt_engine_256
*I *739:mem_wdata_o[0] O *D ntt_wb_bridge
*CAP
1 *740:mem_wdata[0] 0.000752957
2 *739:mem_wdata_o[0] 0.000196668
3 *696:23 0.0192803
4 *696:21 0.0187128
5 *696:15 0.00553993
6 *696:13 0.00535442
7 *696:11 0.00941131
8 *696:9 0.00960798
9 *696:9 *737:6 0.000227734
10 *696:11 *697:11 0.0416815
11 *696:11 *737:6 0.00255061
12 *696:11 *737:20 0.00136615
13 *696:11 *737:26 0.00240038
14 *696:15 *712:15 0.0429662
15 *696:15 *719:15 0.042615
16 *696:21 *719:21 0
17 *696:23 *697:15 0.0596745
18 *696:23 *717:23 0.0907101
19 *696:23 *719:23 0.000111773
20 *696:23 *722:15 0.0194636
21 *76:19 *696:11 0
22 *79:17 *696:11 0.000336262
23 *363:39 *696:11 0.00014756
24 *363:59 *696:11 0.000138351
25 *367:15 *696:15 0.00844696
26 *668:13 *696:23 0.00351129
27 *668:15 *696:23 0.00351723
28 *693:11 *696:11 0.0478843
29 *695:31 *696:23 0.0218719
*RES
1 *739:mem_wdata_o[0] *696:9 8.69813 
2 *696:9 *696:11 617.628 
3 *696:11 *696:13 15 
4 *696:13 *696:15 469.427 
5 *696:15 *696:21 26.1382 
6 *696:21 *696:23 202.959 
7 *696:23 *740:mem_wdata[0] 22.3136 
*END

*D_NET *697 0.342465
*CONN
*I *740:mem_wdata[10] I *D ntt_engine_256
*I *739:mem_wdata_o[10] O *D ntt_wb_bridge
*CAP
1 *740:mem_wdata[10] 0.000836906
2 *739:mem_wdata_o[10] 0.00017448
3 *697:15 0.0172126
4 *697:13 0.0163757
5 *697:11 0.00892179
6 *697:9 0.00909627
7 *697:11 *701:8 0.000591992
8 *697:11 *701:16 0.00256394
9 *697:11 *711:11 0.000204774
10 *697:11 *712:11 0.0324383
11 *697:11 *713:11 9.16326e-05
12 *697:11 *737:6 0.000309592
13 *697:11 *737:20 0.00178512
14 *697:15 *722:15 0.00121004
15 *697:15 *731:55 0.0436506
16 *76:19 *697:11 0
17 *363:71 *697:11 0
18 *668:15 *697:15 0.105645
19 *696:11 *697:11 0.0416815
20 *696:23 *697:15 0.0596745
*RES
1 *739:mem_wdata_o[10] *697:9 8.5712 
2 *697:9 *697:11 536.106 
3 *697:11 *697:13 8 
4 *697:13 *697:15 194.286 
5 *697:15 *740:mem_wdata[10] 23.9707 
*END

*D_NET *698 0.109439
*CONN
*I *740:mem_wdata[11] I *D ntt_engine_256
*I *739:mem_wdata_o[11] O *D ntt_wb_bridge
*CAP
1 *740:mem_wdata[11] 0.000800962
2 *739:mem_wdata_o[11] 0.00859107
3 *698:15 0.00571209
4 *698:11 0.0276887
5 *698:9 0.0313687
6 *698:15 *699:15 0
7 *740:mem_re *698:15 0.0101992
8 *658:43 *698:11 0.00341744
9 *663:35 *740:mem_wdata[11] 0.000101159
10 *667:33 *698:15 0.00104028
11 *670:13 *698:11 0.000186025
12 *684:11 *698:15 0.0203332
*RES
1 *739:mem_wdata_o[11] *698:9 35.2384 
2 *698:9 *698:11 531.176 
3 *698:11 *698:15 45.4939 
4 *698:15 *740:mem_wdata[11] 22.5621 
*END

*D_NET *699 0.417742
*CONN
*I *740:mem_wdata[12] I *D ntt_engine_256
*I *739:mem_wdata_o[12] O *D ntt_wb_bridge
*CAP
1 *740:mem_wdata[12] 0.000824177
2 *739:mem_wdata_o[12] 0.00262341
3 *699:19 0.01332
4 *699:17 0.0124958
5 *699:15 0.0226298
6 *699:13 0.0226298
7 *699:11 0.0228099
8 *699:9 0.0254333
9 *699:11 *703:11 0.0373838
10 *699:15 *706:15 0.00136019
11 *699:15 *723:121 0.000494309
12 *699:15 *738:17 1.28794e-06
13 *699:19 *740:mem_wdata[16] 0.00134983
14 *699:19 *700:19 0.000986865
15 *699:19 *708:19 0.0756373
16 *699:19 *724:11 0.00121917
17 *699:19 *730:19 0.0218399
18 *699:19 *738:19 0.000289681
19 *739:mem_rdata_i[30] *699:11 0
20 *740:mem_re *699:15 0
21 *102:23 *699:11 0
22 *105:19 *699:11 0.00682405
23 *105:23 *699:15 0.0262049
24 *361:19 *699:11 0.00317983
25 *376:27 *699:11 0.00317983
26 *379:27 *699:11 0.00387942
27 *651:15 *699:15 0
28 *660:11 *699:15 0
29 *667:33 *699:15 0.00102914
30 *668:19 *699:11 0.00130819
31 *673:39 *699:15 0.000504115
32 *675:31 *699:11 0.0015817
33 *677:27 *699:11 0.000338012
34 *677:29 *699:11 0.00159584
35 *679:45 *699:15 0.000740613
36 *679:47 *699:15 0.0574041
37 *682:15 *699:19 0.0259118
38 *682:31 *699:19 0.0084317
39 *684:11 *699:15 0
40 *685:45 *699:19 0.0106163
41 *686:17 *699:15 0.000273749
42 *690:19 *699:15 0.00141004
43 *698:15 *699:15 0
*RES
1 *739:mem_wdata_o[12] *699:9 14.5016 
2 *699:9 *699:11 95.1291 
3 *699:11 *699:13 8 
4 *699:13 *699:15 118.509 
5 *699:15 *699:17 8 
6 *699:17 *699:19 969.242 
7 *699:19 *740:mem_wdata[12] 9.82187 
*END

*D_NET *700 0.236988
*CONN
*I *740:mem_wdata[13] I *D ntt_engine_256
*I *739:mem_wdata_o[13] O *D ntt_wb_bridge
*CAP
1 *740:mem_wdata[13] 0.00103566
2 *739:mem_wdata_o[13] 2.30967e-05
3 *700:19 0.00891806
4 *700:17 0.00899346
5 *700:11 0.0197878
6 *700:9 0.0186768
7 *700:7 0.0361881
8 *700:5 0.0362112
9 *700:7 *721:31 0.00138093
10 *700:7 *723:45 0.00104492
11 *700:17 *705:17 4.93993e-05
12 *700:19 *705:19 0.0018272
13 *700:19 *708:19 0.00120398
14 *700:19 *724:11 0.00496237
15 *700:19 *738:19 0.00132555
16 *77:163 *700:19 0.00359658
17 *112:59 *700:11 0.000945631
18 *112:67 *700:11 0.000300102
19 *112:69 *700:11 0.00225023
20 *115:85 *700:7 0.000790832
21 *137:17 *700:11 0.00268884
22 *654:11 *700:11 0.050113
23 *655:125 *700:11 0.000282337
24 *659:111 *700:19 0.00327816
25 *665:39 *700:11 0.00143506
26 *672:11 *700:19 0.0132457
27 *672:21 *700:11 0.00326448
28 *672:23 *700:11 0.000579136
29 *673:21 *740:mem_wdata[13] 0
30 *680:25 *700:11 0.0020454
31 *681:23 *700:11 0.00186394
32 *685:45 *700:19 0.00455642
33 *690:11 *700:19 0.00313626
34 *699:19 *700:19 0.000986865
*RES
1 *739:mem_wdata_o[13] *700:5 0.0914667 
2 *700:5 *700:7 123.017 
3 *700:7 *700:9 8 
4 *700:9 *700:11 118.993 
5 *700:11 *700:17 18.2885 
6 *700:17 *700:19 51.464 
7 *700:19 *740:mem_wdata[13] 10.2083 
*END

*D_NET *701 0.410724
*CONN
*I *740:mem_wdata[14] I *D ntt_engine_256
*I *739:mem_wdata_o[14] O *D ntt_wb_bridge
*CAP
1 *740:mem_wdata[14] 0.00187536
2 *739:mem_wdata_o[14] 0.00561138
3 *701:22 0.0122877
4 *701:20 0.0104124
5 *701:18 0.0486751
6 *701:16 0.058861
7 *701:12 0.0199668
8 *701:8 0.0153923
9 *740:mem_wdata[14] *706:27 2.13985e-05
10 *740:mem_wdata[14] *725:43 0.000753238
11 *740:mem_wdata[14] *729:35 0.00114977
12 *701:8 *712:11 0.00039521
13 *701:8 *713:11 0.00033431
14 *701:8 *737:6 0.00930454
15 *701:12 *711:11 0.00118554
16 *701:12 *713:11 0.00107449
17 *701:12 *719:11 0.000943823
18 *701:12 *737:6 0.0002478
19 *701:12 *737:20 0.00268372
20 *701:12 *737:26 9.60571e-05
21 *701:16 *711:11 0.00174464
22 *701:16 *712:11 0.00223578
23 *701:16 *713:11 0.00192081
24 *701:16 *719:11 0.000206396
25 *701:16 *737:26 0.0133333
26 *701:18 *706:15 0.092254
27 *701:18 *712:23 0.0346579
28 *701:18 *713:15 0.00643631
29 *701:18 *719:23 0.000857323
30 *701:18 *722:15 0
31 *701:18 *734:37 0.00578218
32 *701:22 *725:43 0.00342077
33 *701:22 *729:35 0.0104945
34 *701:22 *734:43 0.00135373
35 *701:22 *737:46 0.00118716
36 *739:mem_rdata_i[10] *701:12 0.000275976
37 *739:mem_rdata_i[7] *701:12 0.000227734
38 *76:19 *701:8 0.000111066
39 *80:179 *740:mem_wdata[14] 0.000403959
40 *80:179 *701:22 0.00646526
41 *94:85 *701:22 0.000396746
42 *116:137 *740:mem_wdata[14] 0.00046325
43 *116:137 *701:22 0.00138366
44 *363:59 *701:12 0.00121787
45 *363:69 *701:12 0.00049723
46 *363:71 *701:8 0.000530308
47 *650:19 *701:22 0.024751
48 *656:25 *701:18 0.00348085
49 *687:15 *701:16 0.000206396
50 *697:11 *701:8 0.000591992
51 *697:11 *701:16 0.00256394
*RES
1 *739:mem_wdata_o[14] *701:8 30.5904 
2 *701:8 *701:12 34.1152 
3 *701:12 *701:16 44.568 
4 *701:16 *701:18 326.349 
5 *701:18 *701:20 8 
6 *701:20 *701:22 74.312 
7 *701:22 *740:mem_wdata[14] 15.5245 
*END

*D_NET *702 0.806201
*CONN
*I *740:mem_wdata[15] I *D ntt_engine_256
*I *739:mem_wdata_o[15] O *D ntt_wb_bridge
*CAP
1 *740:mem_wdata[15] 0.000784234
2 *739:mem_wdata_o[15] 0.00110539
3 *702:43 0.0236267
4 *702:41 0.0231028
5 *702:35 0.0280067
6 *702:33 0.0277464
7 *702:31 0.0259001
8 *702:29 0.025967
9 *702:23 0.0121782
10 *702:21 0.0123381
11 *702:11 0.0292348
12 *702:9 0.0301135
13 *702:9 *703:9 0
14 *702:11 *709:11 0.000993277
15 *702:11 *716:11 0.000993277
16 *702:11 *717:11 0.00145541
17 *702:11 *725:11 0.00173113
18 *702:11 *726:11 0.00118449
19 *702:11 *727:11 0.000611159
20 *702:11 *729:11 0.00648707
21 *702:11 *731:11 0.000619187
22 *702:11 *736:11 0.00538456
23 *702:21 *717:11 4.94905e-05
24 *702:21 *734:27 0
25 *702:23 *711:15 0.00245514
26 *702:23 *716:15 0
27 *702:23 *725:15 0.000389765
28 *702:23 *733:23 0
29 *702:31 *716:23 1.12224e-05
30 *702:31 *725:23 0.0697164
31 *702:31 *725:33 0.00531756
32 *702:31 *733:31 0.121275
33 *702:35 *704:35 0.12954
34 *702:35 *709:19 0.000170479
35 *702:35 *709:27 0.0170197
36 *702:35 *726:27 0.0158088
37 *702:35 *733:35 0.000430411
38 *702:43 *709:27 0.00918763
39 *702:43 *734:51 0.00240009
40 *702:43 *737:54 0.00463051
41 *76:19 *702:9 0.000150895
42 *357:25 *702:21 2.37336e-05
43 *357:25 *702:23 0.000494628
44 *373:15 *702:29 0.000130159
45 *373:17 *702:31 2.81221e-05
46 *379:15 *702:23 0.00242171
47 *382:15 *702:21 6.07327e-06
48 *384:23 *702:23 0.0137454
49 *386:25 *702:23 0.0170084
50 *650:11 *702:11 0.0131603
51 *657:15 *702:23 0.000402534
52 *657:23 *702:23 0.00128061
53 *661:43 *702:11 0
54 *676:31 *702:23 0.000576322
55 *678:11 *702:31 0.00748283
56 *678:19 *702:23 0.00756604
57 *689:11 *702:43 0.00822358
58 *689:19 *702:35 0.000576652
59 *691:11 *702:43 0.00924211
60 *691:19 *702:35 0.0852581
61 *691:27 *702:11 0.000457933
*RES
1 *739:mem_wdata_o[15] *702:9 10.8429 
2 *702:9 *702:11 85.6091 
3 *702:11 *702:21 33.885 
4 *702:21 *702:23 436.554 
5 *702:23 *702:29 24.7296 
6 *702:29 *702:31 248.898 
7 *702:31 *702:33 8 
8 *702:33 *702:35 1656.62 
9 *702:35 *702:41 16.5283 
10 *702:41 *702:43 117.089 
11 *702:43 *740:mem_wdata[15] 10.0291 
*END

*D_NET *703 0.227528
*CONN
*I *740:mem_wdata[16] I *D ntt_engine_256
*I *739:mem_wdata_o[16] O *D ntt_wb_bridge
*CAP
1 *740:mem_wdata[16] 0.00488543
2 *739:mem_wdata_o[16] 0.00275015
3 *703:15 0.0318362
4 *703:13 0.0269508
5 *703:11 0.0133546
6 *703:9 0.0161047
7 *740:mem_wdata[16] *708:19 0.00134983
8 *740:mem_wdata[16] *724:11 0.0068466
9 *740:mem_wdata[16] *738:19 0.00117707
10 *703:15 *708:15 0.00038662
11 *531:21 *703:11 0.000520393
12 *646:47 *703:15 0.0177877
13 *652:119 *703:15 0.00237426
14 *667:23 *703:15 0.0400618
15 *672:21 *740:mem_wdata[16] 0
16 *673:27 *703:15 0
17 *677:27 *703:11 9.84011e-06
18 *682:37 *740:mem_wdata[16] 0.000354992
19 *690:17 *703:15 0
20 *690:19 *703:15 0
21 *690:23 *703:11 0.0220437
22 *699:11 *703:11 0.0373838
23 *699:19 *740:mem_wdata[16] 0.00134983
24 *702:9 *703:9 0
*RES
1 *739:mem_wdata_o[16] *703:9 14.6733 
2 *703:9 *703:11 90.3056 
3 *703:11 *703:13 8 
4 *703:13 *703:15 118.38 
5 *703:15 *740:mem_wdata[16] 34.4781 
*END

*D_NET *704 1.00335
*CONN
*I *740:mem_wdata[17] I *D ntt_engine_256
*I *739:mem_wdata_o[17] O *D ntt_wb_bridge
*CAP
1 *740:mem_wdata[17] 0.000419658
2 *739:mem_wdata_o[17] 0.00149789
3 *704:39 0.0107019
4 *704:37 0.0102822
5 *704:35 0.033242
6 *704:33 0.033242
7 *704:31 0.0168576
8 *704:29 0.0169324
9 *704:23 0.0208606
10 *704:21 0.0207858
11 *704:19 0.00617419
12 *704:17 0.00810686
13 *704:13 0.00343056
14 *704:13 *705:7 0
15 *704:13 *734:11 6.86684e-05
16 *704:19 *706:11 0.0358934
17 *704:23 *717:15 0.0625918
18 *704:31 *727:31 0.0307651
19 *704:35 *726:27 0.0175435
20 *704:35 *733:35 0.197411
21 *704:35 *734:51 0.0192168
22 *704:39 *734:67 0.0499168
23 *80:187 *704:35 0
24 *80:203 *704:39 0
25 *118:177 *704:35 0.00224595
26 *352:23 *704:19 7.87136e-05
27 *353:23 *704:19 0.0364295
28 *358:27 *704:19 4.01782e-05
29 *361:15 *704:23 0.0110075
30 *372:19 *704:13 0.000131661
31 *383:25 *704:19 0.000361157
32 *664:15 *704:23 0.00903841
33 *664:15 *704:31 0.0257346
34 *675:13 *704:39 0.00152003
35 *691:11 *704:35 0.0230412
36 *695:23 *704:23 0.102864
37 *695:23 *704:31 0.00134218
38 *695:31 *704:31 0.021883
39 *695:39 *704:39 0.0421472
40 *702:35 *704:35 0.12954
*RES
1 *739:mem_wdata_o[17] *704:13 28.351 
2 *704:13 *704:17 46.1129 
3 *704:17 *704:19 472.721 
4 *704:19 *704:21 15 
5 *704:21 *704:23 1124.52 
6 *704:23 *704:29 24.3775 
7 *704:29 *704:31 131.604 
8 *704:31 *704:33 8 
9 *704:33 *704:35 2507.4 
10 *704:35 *704:37 8 
11 *704:37 *704:39 95.8832 
12 *704:39 *740:mem_wdata[17] 17.3214 
*END

*D_NET *705 0.283997
*CONN
*I *740:mem_wdata[18] I *D ntt_engine_256
*I *739:mem_wdata_o[18] O *D ntt_wb_bridge
*CAP
1 *740:mem_wdata[18] 0.00120147
2 *739:mem_wdata_o[18] 2.30967e-05
3 *705:19 0.0125022
4 *705:17 0.0114784
5 *705:11 0.0214289
6 *705:9 0.0212513
7 *705:7 0.0375255
8 *705:5 0.0375486
9 *705:7 *721:39 0.000448371
10 *705:7 *723:61 0
11 *705:7 *730:17 0.000151011
12 *705:11 *724:11 0.0165127
13 *705:11 *730:11 4.84262e-05
14 *74:17 *705:11 0.0149003
15 *74:17 *705:19 0
16 *77:163 *705:19 0.0260758
17 *104:23 *705:11 0.00412215
18 *113:17 *705:11 0.00565496
19 *648:11 *705:11 0.00513632
20 *652:57 *705:7 0.000540112
21 *654:11 *740:mem_wdata[18] 0.000364411
22 *659:111 *705:11 0.0102282
23 *672:11 *705:11 0.00273945
24 *672:11 *705:19 0.000788397
25 *685:45 *705:19 0.00233714
26 *690:11 *705:11 0.000812711
27 *690:11 *705:19 0.0478185
28 *694:55 *705:7 0.000482415
29 *700:17 *705:17 4.93993e-05
30 *700:19 *705:19 0.0018272
31 *704:13 *705:7 0
*RES
1 *739:mem_wdata_o[18] *705:5 0.0914667 
2 *705:5 *705:7 125.593 
3 *705:7 *705:9 8 
4 *705:9 *705:11 111.25 
5 *705:11 *705:17 16.4424 
6 *705:17 *705:19 607.239 
7 *705:19 *740:mem_wdata[18] 10.6731 
*END

*D_NET *706 0.701099
*CONN
*I *740:mem_wdata[19] I *D ntt_engine_256
*I *739:mem_wdata_o[19] O *D ntt_wb_bridge
*CAP
1 *740:mem_wdata[19] 0.001022
2 *739:mem_wdata_o[19] 0.00368203
3 *706:27 0.0328758
4 *706:25 0.032097
5 *706:19 0.00748244
6 *706:17 0.00723923
7 *706:15 0.0353579
8 *706:13 0.0353579
9 *706:11 0.00683289
10 *706:9 0.0105149
11 *706:11 *707:11 0
12 *706:15 *734:37 0.00683346
13 *706:19 *718:19 0.0340139
14 *706:19 *725:35 0.0258146
15 *706:19 *725:43 0.00175781
16 *706:27 *718:27 0.0584783
17 *706:27 *725:43 0.00894365
18 *706:27 *729:35 0.0156937
19 *706:27 *734:43 0.00349574
20 *706:27 *737:46 0.0030455
21 *740:mem_wdata[14] *706:27 2.13985e-05
22 *80:179 *706:27 0.0177632
23 *383:25 *706:11 0.00676245
24 *650:19 *706:19 0.00391883
25 *656:25 *706:15 3.68218e-05
26 *656:27 *706:19 0.000308155
27 *656:35 *706:27 0.00777642
28 *677:15 *706:15 0.180822
29 *688:27 *706:11 0.0224514
30 *689:11 *706:27 0
31 *690:19 *706:15 0.00119259
32 *699:15 *706:15 0.00136019
33 *701:18 *706:15 0.092254
34 *704:19 *706:11 0.0358934
*RES
1 *739:mem_wdata_o[19] *706:9 17.0347 
2 *706:9 *706:11 469.199 
3 *706:11 *706:13 8 
4 *706:13 *706:15 335.966 
5 *706:15 *706:17 8 
6 *706:17 *706:19 439.619 
7 *706:19 *706:25 16.4424 
8 *706:25 *706:27 195.787 
9 *706:27 *740:mem_wdata[19] 10.5891 
*END

*D_NET *707 0.0719023
*CONN
*I *740:mem_wdata[1] I *D ntt_engine_256
*I *739:mem_wdata_o[1] O *D ntt_wb_bridge
*CAP
1 *740:mem_wdata[1] 1.36105e-05
2 *739:mem_wdata_o[1] 0.00374394
3 *707:11 0.0197944
4 *707:9 0.0235248
5 io_out[1] *707:9 0
6 *354:27 *707:11 0.0247746
7 *383:25 *707:11 0
8 *688:27 *707:11 0
9 *695:19 *707:11 5.10248e-05
10 *706:11 *707:11 0
*RES
1 *739:mem_wdata_o[1] *707:9 17.7216 
2 *707:9 *707:11 628.368 
3 *707:11 *740:mem_wdata[1] 0.310714 
*END

*D_NET *708 0.471813
*CONN
*I *740:mem_wdata[20] I *D ntt_engine_256
*I *739:mem_wdata_o[20] O *D ntt_wb_bridge
*CAP
1 *740:mem_wdata[20] 0.00100543
2 *739:mem_wdata_o[20] 2.30967e-05
3 *708:19 0.0181167
4 *708:17 0.0171113
5 *708:15 0.0111567
6 *708:13 0.0111567
7 *708:11 0.0293157
8 *708:9 0.0293157
9 *708:7 0.0171338
10 *708:5 0.0171569
11 *708:11 *715:53 0.000320592
12 *708:15 *714:119 0.00453729
13 *708:15 *715:63 0.00154246
14 *708:19 *724:11 0.00141909
15 *708:19 *738:19 0.0925009
16 *740:mem_wdata[16] *708:19 0.00134983
17 *74:17 *708:19 0
18 *76:23 *708:7 0.000962728
19 *652:119 *708:15 8.8182e-06
20 *658:117 *708:15 0.0134145
21 *658:131 *708:19 0.041359
22 *667:23 *708:15 0.0381842
23 *673:27 *708:15 0
24 *681:23 *708:15 0.00125174
25 *682:15 *708:19 0.000551461
26 *682:43 *708:15 0.00608969
27 *685:29 *708:19 0.0250238
28 *685:45 *708:19 0.010836
29 *685:65 *708:15 0.00349798
30 *685:95 *708:11 0.000243209
31 *699:19 *708:19 0.0756373
32 *700:19 *708:19 0.00120398
33 *703:15 *708:15 0.00038662
*RES
1 *739:mem_wdata_o[20] *708:5 0.0914667 
2 *708:5 *708:7 53.1216 
3 *708:7 *708:9 8 
4 *708:9 *708:11 84.4667 
5 *708:11 *708:13 8 
6 *708:13 *708:15 71.8835 
7 *708:15 *708:17 8 
8 *708:17 *708:19 1499.57 
9 *708:19 *740:mem_wdata[20] 10.4155 
*END

*D_NET *709 0.772228
*CONN
*I *740:mem_wdata[21] I *D ntt_engine_256
*I *739:mem_wdata_o[21] O *D ntt_wb_bridge
*CAP
1 *740:mem_wdata[21] 0.000560756
2 *739:mem_wdata_o[21] 0.00131838
3 *709:27 0.0183233
4 *709:25 0.0178113
5 *709:19 0.0128151
6 *709:17 0.0127664
7 *709:15 0.0617723
8 *709:13 0.0617723
9 *709:11 0.00716492
10 *709:9 0.0084833
11 *709:9 *710:13 0
12 *709:11 *716:11 0.0284981
13 *709:11 *726:11 0.00132684
14 *709:11 *731:11 0.0102174
15 *709:11 *735:11 0
16 *709:15 *718:15 0
17 *709:19 *716:27 0.0122627
18 *709:25 *740:op[0] 7.20663e-06
19 *709:27 *717:35 1.31066e-05
20 *709:27 *726:27 0.00782011
21 *709:27 *734:51 0.00358501
22 *739:mem_rdata_i[6] *709:11 0.000187252
23 *116:137 *709:19 0
24 *360:79 *709:11 0.00157516
25 *540:181 *709:15 0.000708615
26 *650:15 *709:15 0.17781
27 *661:41 *709:11 0
28 *683:15 *709:15 0.000312341
29 *689:11 *709:19 0.00143925
30 *689:11 *709:27 0.0577822
31 *689:19 *709:19 0.0692292
32 *691:11 *709:27 0.0666979
33 *691:19 *709:19 0.0771092
34 *691:19 *709:27 0.00337685
35 *691:23 *709:15 0
36 *691:27 *709:11 0.0221101
37 *702:11 *709:11 0.000993277
38 *702:35 *709:19 0.000170479
39 *702:35 *709:27 0.0170197
40 *702:43 *709:27 0.00918763
*RES
1 *739:mem_wdata_o[21] *709:9 11.4011 
2 *709:9 *709:11 451.592 
3 *709:11 *709:13 8 
4 *709:13 *709:15 328.324 
5 *709:15 *709:17 8 
6 *709:17 *709:19 983.328 
7 *709:19 *709:25 16.0989 
8 *709:25 *709:27 176.113 
9 *709:27 *740:mem_wdata[21] 9.43173 
*END

*D_NET *710 0.927154
*CONN
*I *740:mem_wdata[22] I *D ntt_engine_256
*I *739:mem_wdata_o[22] O *D ntt_wb_bridge
*CAP
1 *740:mem_wdata[22] 0.000462854
2 *739:mem_wdata_o[22] 0.00147669
3 *710:39 0.0073115
4 *710:37 0.00684864
5 *710:35 0.0391246
6 *710:33 0.0391246
7 *710:31 0.0241004
8 *710:29 0.0243167
9 *710:23 0.00422449
10 *710:21 0.00400815
11 *710:19 0.00737448
12 *710:17 0.00891348
13 *710:13 0.00301569
14 *710:13 *734:11 5.18188e-05
15 *710:35 *717:35 0.0168535
16 *710:39 *733:39 0.021603
17 *81:23 *710:35 0.0691888
18 *119:25 *710:35 0.197834
19 *353:19 *710:23 0.00408609
20 *362:19 *710:19 0.000227346
21 *368:39 *710:19 0.0309114
22 *372:19 *710:13 0.000103385
23 *373:21 *710:19 0
24 *375:17 *710:19 0.000193634
25 *378:19 *710:19 0.00413721
26 *398:19 *710:31 0.00283049
27 *647:11 *710:31 0.000343886
28 *661:23 *710:31 0.155373
29 *661:31 *710:23 0
30 *662:19 *710:31 0.151907
31 *662:27 *710:23 0.0237623
32 *662:31 *710:19 0.0188062
33 *664:27 *710:19 9.80101e-06
34 *676:21 *710:35 0.00107807
35 *688:23 *710:23 0.0198823
36 *691:11 *710:35 0.00595344
37 *695:39 *710:39 0.0317145
38 *709:9 *710:13 0
*RES
1 *739:mem_wdata_o[22] *710:13 27.9988 
2 *710:13 *710:17 39.9193 
3 *710:17 *710:19 424.125 
4 *710:19 *710:21 15 
5 *710:21 *710:23 260.275 
6 *710:23 *710:29 26.8425 
7 *710:29 *710:31 285.82 
8 *710:31 *710:33 8 
9 *710:33 *710:35 2513.04 
10 *710:35 *710:37 8 
11 *710:37 *710:39 58.3595 
12 *710:39 *740:mem_wdata[22] 17.6321 
*END

*D_NET *711 0.209118
*CONN
*I *740:mem_wdata[23] I *D ntt_engine_256
*I *739:mem_wdata_o[23] O *D ntt_wb_bridge
*CAP
1 *740:mem_wdata[23] 0.00171435
2 *739:mem_wdata_o[23] 0.000148841
3 *711:15 0.011985
4 *711:13 0.0102707
5 *711:11 0.00556926
6 *711:9 0.0057181
7 *740:mem_wdata[23] *733:29 0
8 *711:11 *712:11 0.000334869
9 *711:11 *713:11 0.0308636
10 *711:11 *719:11 0.0277111
11 *711:11 *737:6 0.000390794
12 *711:11 *737:20 0.000427831
13 *711:15 *716:15 0.000161517
14 *711:15 *725:15 0.000510552
15 *739:busy_i *711:11 0.000112317
16 *739:mem_rdata_i[10] *711:11 0.000172692
17 *739:mem_rdata_i[11] *711:11 0.000112317
18 *739:mem_rdata_i[5] *711:11 0.000112317
19 *739:mem_rdata_i[6] *711:11 0.000112317
20 *739:mem_rdata_i[7] *711:11 0.000142505
21 *356:29 *711:15 0.00051563
22 *357:25 *711:15 0.0171479
23 *359:23 *711:15 0.0050951
24 *363:59 *711:11 0.000107313
25 *363:69 *711:11 0.000352141
26 *363:71 *711:11 0.00178593
27 *376:15 *711:15 0.00816837
28 *379:15 *711:15 0.0103136
29 *379:23 *711:15 0.000189711
30 *384:23 *711:15 0.00136608
31 *386:25 *711:15 0.00356564
32 *389:21 *711:15 0.00564899
33 *657:15 *711:15 0.00274442
34 *657:23 *711:15 0.0229126
35 *676:31 *711:15 0.000100909
36 *678:11 *711:15 0.0239977
37 *678:19 *711:15 0.00294462
38 *697:11 *711:11 0.000204774
39 *701:12 *711:11 0.00118554
40 *701:16 *711:11 0.00174464
41 *702:23 *711:15 0.00245514
*RES
1 *739:mem_wdata_o[23] *711:9 8.5712 
2 *711:9 *711:11 410.744 
3 *711:11 *711:13 8 
4 *711:13 *711:15 101.98 
5 *711:15 *740:mem_wdata[23] 39.465 
*END

*D_NET *712 0.45651
*CONN
*I *740:mem_wdata[24] I *D ntt_engine_256
*I *739:mem_wdata_o[24] O *D ntt_wb_bridge
*CAP
1 *740:mem_wdata[24] 0.000760476
2 *739:mem_wdata_o[24] 0.000106584
3 *712:23 0.0294136
4 *712:21 0.0289806
5 *712:15 0.00701271
6 *712:13 0.00668516
7 *712:11 0.00574963
8 *712:9 0.00585621
9 *712:11 *713:11 0.0317762
10 *712:11 *737:6 0.000281198
11 *712:11 *737:20 0.00157817
12 *712:15 *717:15 0.0472822
13 *712:15 *719:15 4.05745e-05
14 *712:23 *717:23 0.00529375
15 *712:23 *719:23 0.115892
16 *119:25 *740:mem_wdata[24] 0
17 *361:15 *712:15 0.00063709
18 *367:15 *712:15 0.00975558
19 *656:15 *712:23 0.0455782
20 *656:25 *712:23 0.000801742
21 *696:15 *712:15 0.0429662
22 *697:11 *712:11 0.0324383
23 *701:8 *712:11 0.00039521
24 *701:16 *712:11 0.00223578
25 *701:18 *712:23 0.0346579
26 *711:11 *712:11 0.000334869
*RES
1 *739:mem_wdata_o[24] *712:9 8.31733 
2 *712:9 *712:11 416.554 
3 *712:11 *712:13 15 
4 *712:13 *712:15 516.594 
5 *712:15 *712:21 28.6032 
6 *712:21 *712:23 231.123 
7 *712:23 *740:mem_wdata[24] 21.1536 
*END

*D_NET *713 0.150419
*CONN
*I *740:mem_wdata[25] I *D ntt_engine_256
*I *739:mem_wdata_o[25] O *D ntt_wb_bridge
*CAP
1 *740:mem_wdata[25] 0.000698915
2 *739:mem_wdata_o[25] 0.000116223
3 *713:15 0.00977902
4 *713:13 0.00908011
5 *713:11 0.00591634
6 *713:9 0.00603256
7 *713:11 *719:11 0.000434385
8 *713:11 *737:20 0.000473095
9 *713:15 *722:15 0.0351319
10 *713:15 *734:37 0
11 *739:mem_rdata_i[10] *713:11 0.000111151
12 *656:15 *713:15 0.0101479
13 *697:11 *713:11 9.16326e-05
14 *701:8 *713:11 0.00033431
15 *701:12 *713:11 0.00107449
16 *701:16 *713:11 0.00192081
17 *701:18 *713:15 0.00643631
18 *711:11 *713:11 0.0308636
19 *712:11 *713:11 0.0317762
*RES
1 *739:mem_wdata_o[25] *713:9 8.31733 
2 *713:9 *713:11 412.856 
3 *713:11 *713:13 8 
4 *713:13 *713:15 64.6277 
5 *713:15 *740:mem_wdata[25] 21.8579 
*END

*D_NET *714 0.773639
*CONN
*I *740:mem_wdata[26] I *D ntt_engine_256
*I *739:mem_wdata_o[26] O *D ntt_wb_bridge
*CAP
1 *740:mem_wdata[26] 0.000357093
2 *739:mem_wdata_o[26] 0.00163079
3 *714:155 0.0290842
4 *714:153 0.0287497
5 *714:147 0.0316056
6 *714:145 0.0320313
7 *714:139 0.0561708
8 *714:137 0.0559865
9 *714:131 0.00524045
10 *714:129 0.00516659
11 *714:123 0.00196884
12 *714:121 0.00177874
13 *714:119 0.00344027
14 *714:117 0.00344027
15 *714:115 0.00134348
16 *714:109 0.00193607
17 *714:103 0.00213513
18 *714:99 0.00403602
19 *714:97 0.00405428
20 *714:93 0.00236262
21 *714:89 0.00145885
22 *714:85 0.00161964
23 *714:81 0.00197166
24 *714:77 0.00178535
25 *714:73 0.00149278
26 *714:67 0.00229981
27 *714:65 0.00158334
28 *714:63 0.00116986
29 *714:59 0.00190242
30 *714:57 0.000732562
31 *714:55 0.00288962
32 *714:53 0.00288962
33 *714:51 0.00156432
34 *714:45 0.00211551
35 *714:39 0.00651223
36 *714:37 0.00596104
37 *714:35 0.00155552
38 *714:33 0.00241777
39 *714:27 0.00390239
40 *714:25 0.00391084
41 *714:19 0.00182563
42 *714:15 0.0035166
43 *714:13 0.00419246
44 *714:13 *734:11 0.000112391
45 *714:131 *715:67 0.00281634
46 *714:131 *715:75 0.000540617
47 la_data_out[100] *714:93 0.00224985
48 la_data_out[93] *714:51 0
49 la_data_out[96] *714:59 0.00423317
50 la_data_out[98] *714:77 0.00222778
51 la_data_out[99] *714:85 0
52 *740:clk *714:147 0.00101816
53 *77:155 *714:123 0.000190812
54 *77:171 *714:139 0.153941
55 *114:157 *714:145 0
56 *276:19 *714:45 0
57 *285:17 *714:35 0
58 *286:17 *714:67 0
59 *372:19 *714:13 0.000214959
60 *646:11 *714:155 0
61 *658:59 *714:59 0.00101762
62 *658:123 *714:123 0.0108543
63 *658:123 *714:139 0.00282928
64 *663:11 *714:147 0.0269401
65 *663:11 *714:155 0.0407046
66 *667:15 *714:139 0.00349809
67 *667:19 *714:139 0
68 *671:15 *714:147 0.0069027
69 *672:27 *714:63 0.00065931
70 *673:11 *714:147 0.000991024
71 *673:15 *714:139 0
72 *673:23 *714:123 0.0110145
73 *673:23 *714:139 5.05592e-05
74 *674:11 *714:131 0.00929166
75 *682:23 *714:131 0.0177092
76 *682:39 *714:123 0.000273023
77 *682:43 *714:119 0.0232994
78 *685:13 *714:155 0.00551361
79 *685:21 *714:145 0.000519244
80 *685:21 *714:147 0.0837548
81 *685:53 *714:131 0.000835241
82 *685:65 *714:119 0.0207238
83 *685:101 *714:59 0.00227345
84 *685:113 *714:51 0.000112638
85 *708:15 *714:119 0.00453729
*RES
1 *739:mem_wdata_o[26] *714:13 29.6613 
2 *714:13 *714:15 43.5 
3 *714:15 *714:19 36.6257 
4 *714:19 *714:25 47.7729 
5 *714:25 *714:27 68.4607 
6 *714:27 *714:33 48.7257 
7 *714:33 *714:35 35.7114 
8 *714:35 *714:37 15 
9 *714:37 *714:39 120.681 
10 *714:39 *714:45 42.47 
11 *714:45 *714:51 49.4893 
12 *714:51 *714:53 15 
13 *714:53 *714:55 58.7457 
14 *714:55 *714:57 15 
15 *714:57 *714:59 54.0229 
16 *714:59 *714:63 38.49 
17 *714:63 *714:65 15 
18 *714:65 *714:67 36.0636 
19 *714:67 *714:73 44.4379 
20 *714:73 *714:77 43.3164 
21 *714:77 *714:81 37.0607 
22 *714:81 *714:85 36.6257 
23 *714:85 *714:89 29.4379 
24 *714:89 *714:93 43.6686 
25 *714:93 *714:97 47.0657 
26 *714:97 *714:99 53.6707 
27 *714:99 *714:103 47.0657 
28 *714:103 *714:109 42.47 
29 *714:109 *714:115 40.8721 
30 *714:115 *714:117 15 
31 *714:117 *714:119 254.558 
32 *714:119 *714:121 15 
33 *714:121 *714:123 145.228 
34 *714:123 *714:129 33.0036 
35 *714:129 *714:131 277.986 
36 *714:131 *714:137 33.9564 
37 *714:137 *714:139 2066.17 
38 *714:139 *714:145 26.1236 
39 *714:145 *714:147 1015.41 
40 *714:147 *714:153 23.3211 
41 *714:153 *714:155 130.917 
42 *714:155 *740:mem_wdata[26] 15.9957 
*END

*D_NET *715 0.823055
*CONN
*I *740:mem_wdata[27] I *D ntt_engine_256
*I *739:mem_wdata_o[27] O *D ntt_wb_bridge
*CAP
1 *740:mem_wdata[27] 0.000431079
2 *739:mem_wdata_o[27] 0.0015739
3 *715:95 0.0170288
4 *715:93 0.0165977
5 *715:91 0.00590268
6 *715:83 0.03664
7 *715:81 0.0309228
8 *715:75 0.00626598
9 *715:73 0.00626359
10 *715:67 0.0035123
11 *715:65 0.00332928
12 *715:63 0.00564059
13 *715:61 0.00564059
14 *715:59 0.00161962
15 *715:53 0.00302876
16 *715:49 0.00190129
17 *715:43 0.00780647
18 *715:41 0.00731431
19 *715:39 0.00296277
20 *715:37 0.00296277
21 *715:35 0.00141918
22 *715:33 0.00141918
23 *715:31 0.00175251
24 *715:29 0.00175251
25 *715:27 0.00218442
26 *715:25 0.00218442
27 *715:23 0.00258182
28 *715:21 0.00258182
29 *715:19 0.000980469
30 *715:15 0.00656286
31 *715:13 0.00715629
32 *715:13 *734:11 9.50887e-05
33 *715:23 *720:7 0.000600511
34 *715:63 *723:131 1.98624e-05
35 *715:83 *740:mem_wdata[5] 1.05658e-05
36 *715:91 *720:19 0
37 la_data_out[87] *715:19 0.00133763
38 la_data_out[96] *715:43 0
39 *740:mem_addr[4] *715:83 2.356e-05
40 *76:103 *715:95 0.000806814
41 *78:65 *715:23 0.000280407
42 *78:135 *715:91 0.000516416
43 *105:23 *715:59 0
44 *114:157 *715:91 0.0018652
45 *115:149 *715:91 0.0011811
46 *276:19 *715:35 0.00396245
47 *277:17 *715:49 0.00038169
48 *300:15 *715:49 0.000104769
49 *372:19 *715:13 0.000186631
50 *529:19 *715:27 0.00618159
51 *646:47 *715:63 0.000341592
52 *648:21 *715:91 0
53 *658:47 *715:23 0.00327534
54 *658:59 *715:43 0.00448801
55 *658:123 *715:75 0.0049573
56 *658:143 *715:95 0.0108239
57 *663:35 *715:63 0.0334964
58 *667:23 *715:63 0.0052747
59 *671:15 *715:91 0
60 *673:11 *715:95 0.0906742
61 *673:15 *715:83 0.152587
62 *674:11 *715:67 0.0141325
63 *674:11 *715:83 0.109805
64 *679:21 *715:91 0.000345399
65 *682:11 *715:95 0.0808733
66 *682:15 *715:83 0.0127117
67 *682:23 *715:75 0.0255301
68 *682:43 *715:63 0.0271395
69 *685:13 *715:95 0.00553969
70 *685:53 *715:67 0
71 *685:53 *715:75 0.00997542
72 *685:57 *715:67 0.00778445
73 *685:63 *715:67 5.72838e-05
74 *685:65 *715:63 4.77213e-05
75 *685:101 *715:43 0.0025001
76 *708:11 *715:53 0.000320592
77 *708:15 *715:63 0.00154246
78 *714:131 *715:67 0.00281634
79 *714:131 *715:75 0.000540617
*RES
1 *739:mem_wdata_o[27] *715:13 29.1822 
2 *715:13 *715:15 104.006 
3 *715:15 *715:19 47.19 
4 *715:19 *715:21 15 
5 *715:21 *715:23 64.9393 
6 *715:23 *715:25 15 
7 *715:25 *715:27 78.6729 
8 *715:27 *715:29 15 
9 *715:29 *715:31 35.8771 
10 *715:31 *715:33 15 
11 *715:33 *715:35 50.5014 
12 *715:35 *715:37 15 
13 *715:37 *715:39 63.9864 
14 *715:39 *715:41 15 
15 *715:41 *715:43 203.684 
16 *715:43 *715:49 41.1029 
17 *715:49 *715:53 44.0207 
18 *715:53 *715:59 47.5214 
19 *715:59 *715:61 15 
20 *715:61 *715:63 372.712 
21 *715:63 *715:65 15 
22 *715:65 *715:67 182.027 
23 *715:67 *715:73 16.3136 
24 *715:73 *715:75 342.428 
25 *715:75 *715:81 16.3136 
26 *715:81 *715:83 1961.58 
27 *715:83 *715:91 42.6497 
28 *715:91 *715:93 8 
29 *715:93 *715:95 185.7 
30 *715:95 *740:mem_wdata[27] 16.9071 
*END

*D_NET *716 0.532238
*CONN
*I *740:mem_wdata[28] I *D ntt_engine_256
*I *739:mem_wdata_o[28] O *D ntt_wb_bridge
*CAP
1 *740:mem_wdata[28] 0.000636498
2 *739:mem_wdata_o[28] 0.00142099
3 *716:27 0.0223697
4 *716:25 0.0217332
5 *716:23 0.042293
6 *716:21 0.0423189
7 *716:15 0.00644648
8 *716:13 0.00642058
9 *716:11 0.00550734
10 *716:9 0.00692833
11 *716:9 *717:9 0
12 *716:11 *735:11 0
13 *716:15 *725:15 0.0367737
14 *716:15 *733:23 0.00455596
15 *716:23 *725:33 0
16 *716:23 *726:23 0.000126552
17 *716:23 *729:23 3.78538e-05
18 *716:23 *733:23 0.00221451
19 *716:23 *733:31 0.0141868
20 *716:23 *736:23 0.0352455
21 *716:27 *717:27 0.0010556
22 *716:27 *726:27 0.037537
23 *716:27 *729:35 0.034369
24 *94:85 *716:27 0.00579159
25 *336:15 *716:23 0
26 *343:27 *716:23 0.00913046
27 *345:31 *716:23 0.00487777
28 *346:33 *716:23 0.00411221
29 *347:33 *716:23 0.00267204
30 *348:35 *716:23 0.00294643
31 *349:35 *716:23 0.00453979
32 *350:27 *716:23 0.00257362
33 *360:29 *716:15 0.00105256
34 *360:79 *716:11 0.00179702
35 *364:23 *716:11 0.00134049
36 *374:15 *716:23 0
37 *376:15 *716:15 0.00240386
38 *384:19 *716:15 0.00369416
39 *389:23 *716:15 0.0256957
40 *394:15 *716:15 0.000770898
41 *657:23 *716:23 0.0452732
42 *676:31 *716:15 8.56254e-05
43 *678:11 *716:23 0.0146829
44 *689:19 *716:27 0.0140625
45 *689:35 *716:11 0.0206307
46 *702:11 *716:11 0.000993277
47 *702:23 *716:15 0
48 *702:31 *716:23 1.12224e-05
49 *709:11 *716:11 0.0284981
50 *709:19 *716:27 0.0122627
51 *711:15 *716:15 0.000161517
*RES
1 *739:mem_wdata_o[28] *716:9 11.36 
2 *716:9 *716:11 366.198 
3 *716:11 *716:13 15 
4 *716:13 *716:15 425.596 
5 *716:15 *716:21 23.3211 
6 *716:21 *716:23 251.86 
7 *716:23 *716:25 8 
8 *716:25 *716:27 162.15 
9 *716:27 *740:mem_wdata[28] 9.47653 
*END

*D_NET *717 0.758684
*CONN
*I *740:mem_wdata[29] I *D ntt_engine_256
*I *739:mem_wdata_o[29] O *D ntt_wb_bridge
*CAP
1 *740:mem_wdata[29] 0.000503366
2 *739:mem_wdata_o[29] 0.00116646
3 *717:35 0.0507219
4 *717:33 0.0505735
5 *717:27 0.00295831
6 *717:25 0.00260335
7 *717:23 0.0191151
8 *717:21 0.0193737
9 *717:15 0.0110263
10 *717:13 0.0107677
11 *717:11 0.00588053
12 *717:9 0.00704699
13 *717:9 *719:9 0
14 *717:11 *725:11 0.0279549
15 *717:11 *734:27 0
16 *717:11 *736:11 0.0274306
17 *717:15 *719:15 4.2062e-05
18 *717:15 *727:23 0.000177058
19 *717:23 *719:23 0.10073
20 *717:27 *729:27 0.00407819
21 *717:35 *726:27 0.07417
22 *717:35 *736:27 0.00559455
23 *81:23 *717:35 0.0247681
24 *94:85 *717:27 0.000541747
25 *116:137 *717:27 0
26 *119:25 *717:35 0.00788705
27 *361:15 *717:15 0.00922926
28 *540:189 *717:35 0.00788705
29 *656:25 *717:23 0.000105873
30 *664:15 *717:15 0.00217742
31 *689:19 *717:27 0.00962533
32 *691:11 *717:35 0.041567
33 *691:27 *717:11 0.000281184
34 *695:31 *717:23 0.00739493
35 *696:23 *717:23 0.0907101
36 *702:11 *717:11 0.00145541
37 *702:21 *717:11 4.94905e-05
38 *704:23 *717:15 0.0625918
39 *709:27 *717:35 1.31066e-05
40 *710:35 *717:35 0.0168535
41 *712:15 *717:15 0.0472822
42 *712:23 *717:23 0.00529375
43 *716:9 *717:9 0
44 *716:27 *717:27 0.0010556
*RES
1 *739:mem_wdata_o[29] *717:9 10.6768 
2 *717:9 *717:11 373.24 
3 *717:11 *717:13 15 
4 *717:13 *717:15 684.296 
5 *717:15 *717:21 27.5468 
6 *717:21 *717:23 204.848 
7 *717:23 *717:25 8 
8 *717:25 *717:27 122.691 
9 *717:27 *717:33 16.6141 
10 *717:33 *717:35 273.47 
11 *717:35 *740:mem_wdata[29] 9.34213 
*END

*D_NET *718 0.659308
*CONN
*I *740:mem_wdata[2] I *D ntt_engine_256
*I *739:mem_wdata_o[2] O *D ntt_wb_bridge
*CAP
1 *740:mem_wdata[2] 0.000980726
2 *739:mem_wdata_o[2] 0.000587602
3 *718:27 0.0301932
4 *718:25 0.0293154
5 *718:19 0.0109148
6 *718:17 0.0108119
7 *718:15 0.0612036
8 *718:13 0.0612036
9 *718:11 0.0144088
10 *718:9 0.0149964
11 *718:11 *722:11 0.0132007
12 *718:11 *734:27 0
13 *718:15 *734:39 0
14 *718:19 *725:43 0.00525031
15 *718:25 *740:mem_wdata[7] 3.59467e-05
16 *718:27 *725:43 0.000130975
17 *718:27 *734:43 0.0109013
18 *718:27 *737:46 0.0125014
19 io_out[1] *718:9 0
20 *82:25 *718:19 0
21 *116:137 *718:27 0.00369541
22 *650:15 *718:15 0
23 *650:19 *718:19 0.00455536
24 *656:11 *718:11 0.000639774
25 *656:27 *718:19 0.0508743
26 *656:27 *718:27 0.00723299
27 *657:11 *718:11 0.0454207
28 *683:15 *718:15 0
29 *691:23 *718:15 0.177761
30 *706:19 *718:19 0.0340139
31 *706:27 *718:27 0.0584783
32 *709:15 *718:15 0
*RES
1 *739:mem_wdata_o[2] *718:9 9.34773 
2 *718:9 *718:11 619.916 
3 *718:11 *718:13 8 
4 *718:13 *718:15 328.067 
5 *718:15 *718:17 8 
6 *718:17 *718:19 645.975 
7 *718:19 *718:25 16.1848 
8 *718:25 *718:27 137.906 
9 *718:27 *740:mem_wdata[2] 10.38 
*END

*D_NET *719 0.439968
*CONN
*I *740:mem_wdata[30] I *D ntt_engine_256
*I *739:mem_wdata_o[30] O *D ntt_wb_bridge
*CAP
1 *740:mem_wdata[30] 0.000710275
2 *739:mem_wdata_o[30] 0.000153677
3 *719:23 0.0199523
4 *719:21 0.0194854
5 *719:15 0.00748872
6 *719:13 0.00724537
7 *719:11 0.00619023
8 *719:9 0.00634391
9 *719:15 *727:23 0.0330112
10 *719:23 *722:15 0.0198076
11 *739:mem_rdata_i[10] *719:11 0.000150895
12 *739:mem_rdata_i[7] *719:11 0.000120707
13 *356:31 *719:11 0
14 *360:75 *719:11 2.33476e-05
15 *363:69 *719:11 0.00128444
16 *367:15 *719:15 0.00414655
17 *656:11 *719:11 0
18 *656:15 *719:23 0.00142295
19 *687:15 *719:11 0.0228467
20 *696:15 *719:15 0.042615
21 *696:21 *719:21 0
22 *696:23 *719:23 0.000111773
23 *701:12 *719:11 0.000943823
24 *701:16 *719:11 0.000206396
25 *701:18 *719:23 0.000857323
26 *711:11 *719:11 0.0277111
27 *712:15 *719:15 4.05745e-05
28 *712:23 *719:23 0.115892
29 *713:11 *719:11 0.000434385
30 *717:9 *719:9 0
31 *717:15 *719:15 4.2062e-05
32 *717:23 *719:23 0.10073
*RES
1 *739:mem_wdata_o[30] *719:9 8.31733 
2 *719:9 *719:11 368.663 
3 *719:11 *719:13 15 
4 *719:13 *719:15 467.998 
5 *719:15 *719:21 27.1946 
6 *719:21 *719:23 222.107 
7 *719:23 *740:mem_wdata[30] 21.8579 
*END

*D_NET *720 0.626409
*CONN
*I *740:mem_wdata[31] I *D ntt_engine_256
*I *739:mem_wdata_o[31] O *D ntt_wb_bridge
*CAP
1 *740:mem_wdata[31] 9.70882e-05
2 *739:mem_wdata_o[31] 4.48218e-05
3 *720:19 0.00541844
4 *720:11 0.0436919
5 *720:9 0.0383705
6 *720:7 0.0388239
7 *720:5 0.0388687
8 *75:17 *720:11 0.226085
9 *77:121 *720:7 0
10 *78:65 *720:7 0.00161159
11 *115:137 *720:11 0
12 *653:21 *720:19 0.000195667
13 *667:11 *720:19 8.65763e-05
14 *679:11 *720:19 0.00930197
15 *680:11 *720:11 0.0264021
16 *682:11 *720:19 0.000174677
17 *686:11 *720:11 6.36821e-05
18 *694:167 *720:11 0.196571
19 *715:23 *720:7 0.000600511
20 *715:91 *720:19 0
*RES
1 *739:mem_wdata_o[31] *720:5 0.0914667 
2 *720:5 *720:7 127.096 
3 *720:7 *720:9 8 
4 *720:9 *720:11 2870.81 
5 *720:11 *720:19 49.0221 
6 *720:19 *740:mem_wdata[31] 2.21643 
*END

*D_NET *721 0.680251
*CONN
*I *740:mem_wdata[3] I *D ntt_engine_256
*I *739:mem_wdata_o[3] O *D ntt_wb_bridge
*CAP
1 *740:mem_wdata[3] 0.00135936
2 *739:mem_wdata_o[3] 2.38341e-05
3 *721:147 0.0288397
4 *721:145 0.0274803
5 *721:143 0.0310387
6 *721:141 0.0320096
7 *721:135 0.002957
8 *721:129 0.00411872
9 *721:119 0.00461081
10 *721:109 0.00375512
11 *721:101 0.00336381
12 *721:87 0.00551295
13 *721:85 0.00376584
14 *721:79 0.00234708
15 *721:77 0.00249763
16 *721:71 0.00300002
17 *721:69 0.00272165
18 *721:63 0.00353865
19 *721:61 0.00475742
20 *721:51 0.00416857
21 *721:45 0.00344157
22 *721:39 0.00246276
23 *721:31 0.00363915
24 *721:19 0.00441959
25 *721:11 0.00510614
26 *721:9 0.00256666
27 *721:7 0.0260919
28 *721:5 0.0261157
29 *721:109 *723:91 0
30 *721:119 *723:121 0.000147273
31 *721:135 *723:127 0.000320788
32 *721:143 *723:145 0.00111793
33 io_oeb[1] *721:19 0.00146765
34 la_data_out[113] *721:79 0.0056526
35 la_data_out[115] *721:101 0
36 la_data_out[115] *721:109 0
37 la_data_out[115] *721:119 0
38 *77:147 *721:129 0.00036123
39 *77:155 *721:135 0
40 *112:33 *721:129 0
41 *114:131 *721:109 0.000239833
42 *114:153 *721:143 0
43 *115:149 *740:mem_wdata[3] 0.00180111
44 *115:149 *721:147 0.0124973
45 *295:15 *721:135 0.000586754
46 *296:19 *721:119 0
47 *531:23 *721:109 0.000133985
48 *652:67 *721:63 0.0016547
49 *652:81 *721:77 0.000848994
50 *652:119 *721:141 0.00132125
51 *655:19 *721:19 0
52 *655:99 *721:101 0.000349634
53 *655:115 *721:119 0.000173453
54 *655:121 *721:129 0
55 *655:121 *721:135 0
56 *655:125 *721:135 0.000386584
57 *658:25 *721:7 0.000420632
58 *659:107 *721:141 0.00123762
59 *665:21 *721:141 4.35395e-05
60 *666:11 *721:135 0.000497247
61 *672:23 *721:129 0.000127194
62 *672:27 *721:85 0
63 *679:45 *721:141 0.000102837
64 *680:11 *721:143 0.0230375
65 *680:25 *721:141 0
66 *680:39 *721:101 0
67 *681:23 *721:141 1.25096e-05
68 *681:25 *721:101 7.11789e-05
69 *686:11 *721:143 0.178515
70 *686:77 *721:69 0.000689996
71 *694:35 *721:11 0
72 *694:47 *721:39 0
73 *694:55 *721:39 0.00047929
74 *694:79 *721:63 0.00216377
75 *694:91 *721:77 0.000548011
76 *694:101 *721:79 0
77 *694:125 *721:101 6.5889e-05
78 *694:149 *721:129 0.00010023
79 *694:167 *721:143 0.195537
80 *700:7 *721:31 0.00138093
81 *705:7 *721:39 0.000448371
*RES
1 *739:mem_wdata_o[3] *721:5 0.0914667 
2 *721:5 *721:7 85.1069 
3 *721:7 *721:9 8 
4 *721:9 *721:11 57.8964 
5 *721:11 *721:19 48.8201 
6 *721:19 *721:31 43.5121 
7 *721:31 *721:39 46.9484 
8 *721:39 *721:45 24.2607 
9 *721:45 *721:51 44.3416 
10 *721:51 *721:61 44.4874 
11 *721:61 *721:63 85.3636 
12 *721:63 *721:69 17.2581 
13 *721:69 *721:71 57.8964 
14 *721:71 *721:77 18.7179 
15 *721:77 *721:79 71.9821 
16 *721:79 *721:85 17.2581 
17 *721:85 *721:87 78.3207 
18 *721:87 *721:101 35.6121 
19 *721:101 *721:109 37.9992 
20 *721:109 *721:119 47.5054 
21 *721:119 *721:129 49.8293 
22 *721:129 *721:135 47.3487 
23 *721:135 *721:141 19.92 
24 *721:141 *721:143 2482.05 
25 *721:143 *721:145 8 
26 *721:145 *721:147 108.549 
27 *721:147 *740:mem_wdata[3] 15.1493 
*END

*D_NET *722 0.228869
*CONN
*I *740:mem_wdata[4] I *D ntt_engine_256
*I *739:mem_wdata_o[4] O *D ntt_wb_bridge
*CAP
1 *740:mem_wdata[4] 0.000752485
2 *739:mem_wdata_o[4] 0.000795614
3 *722:15 0.0136113
4 *722:13 0.0128588
5 *722:11 0.0152483
6 *722:9 0.016044
7 *722:9 *723:7 0
8 *722:11 *727:11 0
9 *722:11 *727:19 0.0342278
10 *722:11 *729:11 0
11 *722:11 *734:27 0
12 *722:15 *731:55 0.0436506
13 *722:15 *734:37 0
14 *76:19 *722:9 0.000120707
15 *79:17 *722:9 0.000364411
16 *656:15 *722:15 0.00210898
17 *668:15 *722:15 0.000272415
18 *696:23 *722:15 0.0194636
19 *697:15 *722:15 0.00121004
20 *701:18 *722:15 0
21 *713:15 *722:15 0.0351319
22 *718:11 *722:11 0.0132007
23 *719:23 *722:15 0.0198076
*RES
1 *739:mem_wdata_o[4] *722:9 9.98613 
2 *722:9 *722:11 587.519 
3 *722:11 *722:13 8 
4 *722:13 *722:15 121.987 
5 *722:15 *740:mem_wdata[4] 22.5621 
*END

*D_NET *723 0.586446
*CONN
*I *740:mem_wdata[5] I *D ntt_engine_256
*I *739:mem_wdata_o[5] O *D ntt_wb_bridge
*CAP
1 *740:mem_wdata[5] 0.0013182
2 *739:mem_wdata_o[5] 2.30967e-05
3 *723:149 0.0015664
4 *723:145 0.000938326
5 *723:139 0.00103574
6 *723:133 0.0311695
7 *723:131 0.0325245
8 *723:127 0.00219428
9 *723:121 0.00815674
10 *723:91 0.0143556
11 *723:79 0.0151322
12 *723:71 0.0100071
13 *723:61 0.00813668
14 *723:45 0.0120771
15 *723:29 0.0115485
16 *723:7 0.030371
17 *723:5 0.0243534
18 la_data_out[114] *723:91 0.00122445
19 la_data_out[115] *723:121 0.000113542
20 *69:21 *723:133 0.0144198
21 *77:155 *723:127 0
22 *78:129 *723:149 0.00170319
23 *114:145 *723:133 0.184274
24 *114:153 *723:145 0.000181248
25 *115:145 *723:149 0.00170096
26 *295:15 *723:121 0
27 *646:47 *723:131 0
28 *651:15 *723:121 0.000231905
29 *652:57 *723:45 0.000128263
30 *652:57 *723:61 0.000304949
31 *652:67 *723:61 0
32 *652:81 *723:91 0
33 *652:93 *723:91 0.0011629
34 *652:119 *723:121 6.31895e-05
35 *655:19 *723:45 0
36 *655:31 *723:45 0
37 *655:115 *723:121 0
38 *655:125 *723:127 0.000556976
39 *655:131 *723:133 0.161109
40 *659:31 *723:45 0.000718952
41 *659:31 *723:61 4.03415e-05
42 *659:63 *723:71 2.79505e-05
43 *659:73 *723:91 0.00774185
44 *663:31 *723:127 0.000121976
45 *665:57 *723:79 0
46 *666:15 *723:79 0.00135888
47 *667:19 *723:127 4.15283e-06
48 *682:15 *740:mem_wdata[5] 2.11157e-05
49 *685:65 *723:131 0.000564851
50 *686:73 *723:79 0.000366916
51 *694:69 *723:61 4.93791e-05
52 *694:117 *723:91 0.000191591
53 *699:15 *723:121 0.000494309
54 *700:7 *723:45 0.00104492
55 *705:7 *723:61 0
56 *715:63 *723:131 1.98624e-05
57 *715:83 *740:mem_wdata[5] 1.05658e-05
58 *721:109 *723:91 0
59 *721:119 *723:121 0.000147273
60 *721:135 *723:127 0.000320788
61 *721:143 *723:145 0.00111793
62 *722:9 *723:7 0
*RES
1 *739:mem_wdata_o[5] *723:5 0.0914667 
2 *723:5 *723:7 80.5989 
3 *723:7 *723:29 49.8939 
4 *723:29 *723:45 44.9701 
5 *723:45 *723:61 46.2469 
6 *723:61 *723:71 29.7419 
7 *723:71 *723:79 45.4709 
8 *723:79 *723:91 45.5083 
9 *723:91 *723:121 48.1005 
10 *723:121 *723:127 35.6461 
11 *723:127 *723:131 44.2071 
12 *723:131 *723:133 2338.73 
13 *723:133 *723:139 36.3386 
14 *723:139 *723:145 35.0929 
15 *723:145 *723:149 36.6257 
16 *723:149 *740:mem_wdata[5] 49.1683 
*END

*D_NET *724 0.207873
*CONN
*I *740:mem_wdata[6] I *D ntt_engine_256
*I *739:mem_wdata_o[6] O *D ntt_wb_bridge
*CAP
1 *740:mem_wdata[6] 0.00100214
2 *739:mem_wdata_o[6] 2.38341e-05
3 *724:11 0.0205353
4 *724:9 0.0195332
5 *724:7 0.0380097
6 *724:5 0.0380336
7 *724:11 *730:11 0.00791772
8 *724:11 *730:19 0.000903003
9 *724:11 *738:11 0.043941
10 *724:11 *738:19 0.00173467
11 *740:mem_wdata[16] *724:11 0.0068466
12 *77:161 *740:mem_wdata[6] 0.00068062
13 *652:39 *724:7 0.000362021
14 *654:11 *740:mem_wdata[6] 0.000364411
15 *672:11 *724:11 0.00150044
16 *682:29 *740:mem_wdata[6] 0.000232261
17 *682:31 *724:11 0.00110167
18 *690:11 *724:11 0.00103759
19 *699:19 *724:11 0.00121917
20 *700:19 *724:11 0.00496237
21 *705:11 *724:11 0.0165127
22 *708:19 *724:11 0.00141909
*RES
1 *739:mem_wdata_o[6] *724:5 0.0914667 
2 *724:5 *724:7 125.078 
3 *724:7 *724:9 8 
4 *724:9 *724:11 141.079 
5 *724:11 *740:mem_wdata[6] 10.7272 
*END

*D_NET *725 0.566217
*CONN
*I *740:mem_wdata[7] I *D ntt_engine_256
*I *739:mem_wdata_o[7] O *D ntt_wb_bridge
*CAP
1 *740:mem_wdata[7] 0.00132384
2 *739:mem_wdata_o[7] 0.00115332
3 *725:43 0.0171593
4 *725:41 0.0159513
5 *725:35 0.0101666
6 *725:33 0.0120279
7 *725:23 0.0268503
8 *725:21 0.0251373
9 *725:15 0.00561463
10 *725:13 0.00535054
11 *725:11 0.00780398
12 *725:9 0.00895729
13 *740:mem_wdata[7] *736:27 0.000364411
14 *725:11 *726:11 0.0413867
15 *725:11 *731:11 0.000318311
16 *725:11 *736:11 0.00758003
17 *725:35 *737:46 0
18 *725:43 *734:43 0.000315221
19 *725:43 *737:46 0.000348962
20 *740:mem_wdata[14] *725:43 0.000753238
21 *82:25 *725:35 0
22 *116:137 *725:43 0.00169676
23 *118:153 *725:35 0.00277609
24 *373:17 *725:23 0.00349656
25 *376:15 *725:15 0.00619626
26 *379:13 *725:21 8.83425e-05
27 *656:27 *725:35 4.90054e-05
28 *656:27 *725:43 0.0045856
29 *675:19 *725:33 0.000156975
30 *676:21 *725:33 0.0034196
31 *676:23 *725:23 0.133077
32 *676:23 *725:33 0.000656987
33 *676:31 *725:15 0.0334661
34 *691:27 *725:11 0.000241194
35 *701:22 *725:43 0.00342077
36 *702:11 *725:11 0.00173113
37 *702:23 *725:15 0.000389765
38 *702:31 *725:23 0.0697164
39 *702:31 *725:33 0.00531756
40 *706:19 *725:35 0.0258146
41 *706:19 *725:43 0.00175781
42 *706:27 *725:43 0.00894365
43 *711:15 *725:15 0.000510552
44 *716:15 *725:15 0.0367737
45 *716:23 *725:33 0
46 *717:11 *725:11 0.0279549
47 *718:19 *725:43 0.00525031
48 *718:25 *740:mem_wdata[7] 3.59467e-05
49 *718:27 *725:43 0.000130975
*RES
1 *739:mem_wdata_o[7] *725:9 10.7627 
2 *725:9 *725:11 545.438 
3 *725:11 *725:13 15 
4 *725:13 *725:15 402.727 
5 *725:15 *725:21 27.8989 
6 *725:21 *725:23 244.733 
7 *725:23 *725:33 20.7139 
8 *725:33 *725:35 350.879 
9 *725:35 *725:41 16.1848 
10 *725:41 *725:43 58.3184 
11 *725:43 *740:mem_wdata[7] 11.0595 
*END

*D_NET *726 0.751916
*CONN
*I *740:mem_wdata[8] I *D ntt_engine_256
*I *739:mem_wdata_o[8] O *D ntt_wb_bridge
*CAP
1 *740:mem_wdata[8] 0.000576725
2 *739:mem_wdata_o[8] 0.00113001
3 *726:27 0.024776
4 *726:25 0.0241993
5 *726:23 0.0142831
6 *726:21 0.0145958
7 *726:15 0.0130224
8 *726:13 0.0127098
9 *726:11 0.00698462
10 *726:9 0.00811463
11 *726:11 *731:11 0.0190523
12 *726:15 *729:15 0.0960791
13 *726:15 *736:15 0.0948245
14 *726:15 *737:34 0
15 *726:23 *729:23 0.0713635
16 *726:23 *736:23 0.0721768
17 *726:27 *729:35 5.5304e-05
18 *726:27 *733:35 0.0152174
19 *726:27 *736:27 0
20 *739:mem_rdata_i[6] *726:11 0.000189484
21 *94:85 *726:27 4.53751e-05
22 *300:15 *726:15 6.08617e-05
23 *315:25 *726:23 0.000353511
24 *335:15 *726:15 0.00660692
25 *338:25 *726:23 2.46625e-06
26 *340:23 *726:15 0.000441671
27 *347:21 *726:15 0.000433732
28 *351:23 *726:15 0.000611491
29 *357:15 *726:15 0.000285138
30 *362:15 *726:15 0.00260283
31 *387:15 *726:15 0.00024288
32 *390:15 *726:15 0.00628975
33 *676:21 *726:27 0.00982694
34 *689:11 *726:27 0.00439204
35 *689:31 *726:15 8.11489e-05
36 *691:17 *740:mem_wdata[8] 2.55744e-05
37 *691:19 *726:27 0.0137854
38 *691:27 *726:11 0.0195741
39 *702:11 *726:11 0.00118449
40 *702:35 *726:27 0.0158088
41 *704:35 *726:27 0.0175435
42 *709:11 *726:11 0.00132684
43 *709:27 *726:27 0.00782011
44 *716:23 *726:23 0.000126552
45 *716:27 *726:27 0.037537
46 *717:35 *726:27 0.07417
47 *725:11 *726:11 0.0413867
*RES
1 *739:mem_wdata_o[8] *726:9 10.7216 
2 *726:9 *726:11 529.944 
3 *726:11 *726:13 15 
4 *726:13 *726:15 1053.53 
5 *726:15 *726:21 28.6032 
6 *726:21 *726:23 138.087 
7 *726:23 *726:25 8 
8 *726:25 *726:27 200.991 
9 *726:27 *740:mem_wdata[8] 9.49893 
*END

*D_NET *727 0.332422
*CONN
*I *740:mem_wdata[9] I *D ntt_engine_256
*I *739:mem_wdata_o[9] O *D ntt_wb_bridge
*CAP
1 *740:mem_wdata[9] 0.00088908
2 *739:mem_wdata_o[9] 0.00100293
3 *727:31 0.0213294
4 *727:29 0.0204663
5 *727:23 0.010949
6 *727:21 0.0109231
7 *727:19 0.0136788
8 *727:17 0.0138619
9 *727:11 0.0029743
10 *727:9 0.00379416
11 *727:11 *729:11 0.00752144
12 *727:19 *729:11 0
13 *727:19 *734:27 0.00147237
14 io_oeb[1] *727:9 0.000260297
15 *76:19 *727:9 0.000150895
16 *361:15 *727:31 0.00145183
17 *367:15 *727:23 0.00214794
18 *367:15 *727:31 0.00566085
19 *650:11 *727:11 0.000180595
20 *664:15 *727:31 0.0156539
21 *668:13 *727:31 0.00183019
22 *668:15 *727:31 0.0770905
23 *695:31 *727:31 0.0203393
24 *702:11 *727:11 0.000611159
25 *704:31 *727:31 0.0307651
26 *717:15 *727:23 0.000177058
27 *719:15 *727:23 0.0330112
28 *722:11 *727:11 0
29 *722:11 *727:19 0.0342278
*RES
1 *739:mem_wdata_o[9] *727:9 10.8 
2 *727:9 *727:11 96.1039 
3 *727:11 *727:17 33.48 
4 *727:17 *727:19 445.606 
5 *727:19 *727:21 15 
6 *727:21 *727:23 368.424 
7 *727:23 *727:29 23.3211 
8 *727:29 *727:31 185.614 
9 *727:31 *740:mem_wdata[9] 24.9029 
*END

*D_NET *728 0.283914
*CONN
*I *740:mem_we I *D ntt_engine_256
*I *739:mem_we_o O *D ntt_wb_bridge
*CAP
1 *740:mem_we 0.00248467
2 *739:mem_we_o 0.00047083
3 *728:17 0.00248467
4 *728:15 0.0331802
5 *728:13 0.0331802
6 *728:11 0.0122885
7 *728:9 0.0127593
8 *278:15 *728:15 0.000440926
9 *282:17 *728:15 0.00144574
10 *316:19 *728:15 0.013232
11 *317:15 *728:15 0.0003421
12 *318:15 *728:15 0.000259389
13 *320:15 *728:15 0.000393603
14 *323:15 *728:15 0
15 *325:15 *728:15 0
16 *327:15 *728:15 0
17 *339:29 *740:mem_we 0
18 *341:23 *728:15 0.00207844
19 *343:19 *728:15 0.0055922
20 *345:23 *728:15 0.0127779
21 *347:25 *728:15 0.000558441
22 *348:23 *728:15 0.000701039
23 *349:27 *728:15 0.000661872
24 *351:13 *728:15 0.00120987
25 *351:15 *728:15 0.000521994
26 *352:7 *728:15 0.000517501
27 *355:13 *740:mem_we 2.76611e-06
28 *356:19 *728:15 0.00867674
29 *356:31 *728:11 0.0550548
30 *357:15 *728:15 0.000197681
31 *359:15 *728:15 0.000113547
32 *360:19 *728:15 0
33 *363:15 *728:15 0.00698691
34 *391:15 *728:15 0.0266253
35 *399:19 *728:15 0.0002208
36 *530:15 *728:15 0
37 *650:9 *728:9 0
38 *656:11 *728:11 0.048454
39 *689:31 *728:15 0
*RES
1 *739:mem_we_o *728:9 9.09013 
2 *728:9 *728:11 712.354 
3 *728:11 *728:13 15 
4 *728:13 *728:15 980.635 
5 *728:15 *728:17 15 
6 *728:17 *740:mem_we 43.9661 
*END

*D_NET *729 0.657435
*CONN
*I *740:op[0] I *D ntt_engine_256
*I *739:op_o[0] O *D ntt_wb_bridge
*CAP
1 *740:op[0] 0.000894556
2 *739:op_o[0] 0.00111598
3 *729:35 0.0251904
4 *729:33 0.0244346
5 *729:27 0.00237937
6 *729:25 0.00224071
7 *729:23 0.0139911
8 *729:21 0.0141308
9 *729:15 0.013166
10 *729:13 0.0130263
11 *729:11 0.0225785
12 *729:9 0.0236945
13 *729:9 *730:7 0
14 *729:11 *731:11 0
15 *729:11 *734:27 0
16 *729:11 *736:11 0.0577635
17 *729:15 *737:34 0
18 *729:23 *737:42 4.35727e-05
19 la_data_out[23] *729:21 0.00028831
20 *740:mem_wdata[14] *729:35 0.00114977
21 *76:19 *729:9 0.00030179
22 *79:17 *729:9 0.000441607
23 *80:179 *729:27 0
24 *94:85 *729:27 0.000636023
25 *94:85 *729:35 0.000460576
26 *116:137 *729:27 0
27 *335:15 *729:15 0.00570571
28 *338:25 *729:23 1.12325e-05
29 *339:29 *729:15 0.000980308
30 *340:23 *729:15 0.000500241
31 *346:37 *729:21 0
32 *347:21 *729:15 0.000444257
33 *352:7 *729:15 0.000360269
34 *357:15 *729:15 0.000292057
35 *360:79 *729:11 0
36 *362:15 *729:15 0.00885576
37 *650:11 *729:11 0.00198937
38 *689:11 *729:35 0.00425262
39 *689:19 *729:27 0.00083262
40 *689:23 *729:23 0.0714743
41 *689:29 *729:21 0.000343361
42 *689:31 *729:15 0.0972778
43 *701:22 *729:35 0.0104945
44 *702:11 *729:11 0.00648707
45 *706:27 *729:35 0.0156937
46 *709:25 *740:op[0] 7.20663e-06
47 *716:23 *729:23 3.78538e-05
48 *716:27 *729:35 0.034369
49 *717:27 *729:27 0.00407819
50 *722:11 *729:11 0
51 *726:15 *729:15 0.0960791
52 *726:23 *729:23 0.0713635
53 *726:27 *729:35 5.5304e-05
54 *727:11 *729:11 0.00752144
55 *727:19 *729:11 0
*RES
1 *739:op_o[0] *729:9 10.8859 
2 *729:9 *729:11 797.22 
3 *729:11 *729:13 15 
4 *729:13 *729:15 1064.96 
5 *729:15 *729:21 28.2511 
6 *729:21 *729:23 136.155 
7 *729:23 *729:25 8 
8 *729:25 *729:27 73.3907 
9 *729:27 *729:33 16.2707 
10 *729:33 *729:35 168.75 
11 *729:35 *740:op[0] 10.2008 
*END

*D_NET *730 0.417352
*CONN
*I *740:op[1] I *D ntt_engine_256
*I *739:op_o[1] O *D ntt_wb_bridge
*CAP
1 *740:op[1] 0.000707528
2 *739:op_o[1] 2.38341e-05
3 *730:19 0.0405814
4 *730:17 0.0400907
5 *730:11 0.0129963
6 *730:9 0.0127794
7 *730:7 0.0377297
8 *730:5 0.0377536
9 *730:11 *738:11 0.0102495
10 *730:19 *738:11 0.00417071
11 *730:19 *738:19 0
12 *74:17 *730:11 0.00629528
13 *78:31 *730:7 0
14 *104:23 *730:11 0
15 *674:11 *730:19 0.110273
16 *682:15 *730:19 0.0602423
17 *682:31 *730:19 0.0084317
18 *685:45 *730:19 0.00416726
19 *686:19 *730:19 0
20 *699:19 *730:19 0.0218399
21 *705:7 *730:17 0.000151011
22 *705:11 *730:11 4.84262e-05
23 *724:11 *730:11 0.00791772
24 *724:11 *730:19 0.000903003
25 *729:9 *730:7 0
*RES
1 *739:op_o[1] *730:5 0.0914667 
2 *730:5 *730:7 125.25 
3 *730:7 *730:9 8 
4 *730:9 *730:11 62.7611 
5 *730:11 *730:17 16.6141 
6 *730:17 *730:19 1880.59 
7 *730:19 *740:op[1] 9.65013 
*END

*D_NET *731 0.21574
*CONN
*I *740:op[2] I *D ntt_engine_256
*I *739:op_o[2] O *D ntt_wb_bridge
*CAP
1 *740:op[2] 0.000771976
2 *739:op_o[2] 0.00125573
3 *731:55 0.00753699
4 *731:53 0.00914506
5 *731:47 0.0131282
6 *731:41 0.0124602
7 *731:25 0.00248371
8 *731:19 0.00378438
9 *731:17 0.00301279
10 *731:15 0.00156551
11 *731:11 0.0172765
12 *731:9 0.0169667
13 *731:9 *732:7 0
14 *731:11 *733:15 1.53128e-05
15 *731:11 *736:11 0
16 *731:41 *737:20 0.000130986
17 *76:19 *731:9 0.00030179
18 *79:17 *731:9 0.000441607
19 *281:17 *731:47 0.000635196
20 *282:17 *731:47 0.000189732
21 *356:31 *731:41 0
22 *360:41 *731:41 7.80835e-05
23 *360:41 *731:47 0.00628792
24 *360:63 *731:41 2.77108e-05
25 *360:79 *731:11 0
26 *665:59 *731:41 5.26493e-05
27 *687:15 *731:41 0.000682568
28 *697:15 *731:55 0.0436506
29 *702:11 *731:11 0.000619187
30 *709:11 *731:11 0.0102174
31 *722:15 *731:55 0.0436506
32 *725:11 *731:11 0.000318311
33 *726:11 *731:11 0.0190523
34 *729:11 *731:11 0
*RES
1 *739:op_o[2] *731:9 11.3152 
2 *731:9 *731:11 493.673 
3 *731:11 *731:15 41.825 
4 *731:15 *731:17 15 
5 *731:17 *731:19 67.7564 
6 *731:19 *731:25 43.9614 
7 *731:25 *731:41 28.9034 
8 *731:41 *731:47 44.6315 
9 *731:47 *731:53 21.5141 
10 *731:53 *731:55 80.2984 
11 *731:55 *740:op[2] 23.2664 
*END

*D_NET *732 0.834747
*CONN
*I *740:slot_a[0] I *D ntt_engine_256
*I *739:slot_a_o[0] O *D ntt_wb_bridge
*CAP
1 *740:slot_a[0] 0.000497264
2 *739:slot_a_o[0] 2.38341e-05
3 *732:15 0.00928456
4 *732:13 0.00878729
5 *732:11 0.0392836
6 *732:9 0.0392836
7 *732:7 0.0380372
8 *732:5 0.038061
9 *104:23 *732:11 0.00747565
10 *113:17 *732:11 4.30119e-05
11 *142:19 *732:11 0
12 *646:17 *740:slot_a[0] 0
13 *646:19 *732:15 0.00209334
14 *648:11 *732:11 0.260233
15 *648:23 *732:15 0.0084234
16 *652:123 *732:11 0.0137818
17 *653:11 *732:11 0.251013
18 *653:21 *732:15 0.000437819
19 *653:23 *732:15 0.00543954
20 *659:111 *732:11 0.0107061
21 *663:11 *732:15 0.0300381
22 *671:15 *732:15 0.0211609
23 *673:11 *732:15 0.0506434
24 *731:9 *732:7 0
*RES
1 *739:slot_a_o[0] *732:5 0.0914667 
2 *732:5 *732:7 125.979 
3 *732:7 *732:9 8 
4 *732:9 *732:11 3306.06 
5 *732:11 *732:13 8 
6 *732:13 *732:15 94.9387 
7 *732:15 *740:slot_a[0] 18.0257 
*END

*D_NET *733 1.01633
*CONN
*I *740:slot_a[1] I *D ntt_engine_256
*I *739:slot_a_o[1] O *D ntt_wb_bridge
*CAP
1 *740:slot_a[1] 0.000484195
2 *739:slot_a_o[1] 0.00199547
3 *733:39 0.00635319
4 *733:35 0.0346248
5 *733:33 0.0287558
6 *733:31 0.0224757
7 *733:29 0.0227054
8 *733:23 0.0208676
9 *733:21 0.0206379
10 *733:19 0.0100426
11 *733:17 0.0100426
12 *733:15 0.00199547
13 *739:mem_rdata_i[30] *733:19 0.000936704
14 *740:mem_wdata[23] *733:29 0
15 *81:23 *733:35 0.198471
16 *102:23 *733:19 0.00945723
17 *274:15 *733:23 0
18 *276:15 *733:23 0
19 *357:27 *733:19 0.000248791
20 *360:29 *733:23 0.00105256
21 *360:79 *733:15 4.82745e-05
22 *361:19 *733:19 0
23 *365:23 *733:19 0.0594738
24 *370:19 *733:19 0.0001913
25 *371:27 *733:19 0.0590787
26 *376:15 *733:23 0.00181708
27 *384:19 *733:23 0.0039416
28 *394:15 *733:23 0.028265
29 *396:15 *733:23 0
30 *662:11 *733:39 0.0062724
31 *678:11 *733:31 0.0704837
32 *689:19 *733:35 0
33 *691:11 *733:35 0.0186058
34 *695:39 *733:39 9.52845e-05
35 *702:23 *733:23 0
36 *702:31 *733:31 0.121275
37 *702:35 *733:35 0.000430411
38 *704:35 *733:35 0.197411
39 *710:39 *733:39 0.021603
40 *716:15 *733:23 0.00455596
41 *716:23 *733:23 0.00221451
42 *716:23 *733:31 0.0141868
43 *726:27 *733:35 0.0152174
44 *731:11 *733:15 1.53128e-05
*RES
1 *739:slot_a_o[1] *733:15 39.2704 
2 *733:15 *733:17 15 
3 *733:17 *733:19 772.394 
4 *733:19 *733:21 15 
5 *733:21 *733:23 595.681 
6 *733:23 *733:29 27.1946 
7 *733:29 *733:31 223.052 
8 *733:31 *733:33 8 
9 *733:33 *733:35 2521.49 
10 *733:35 *733:39 48.1557 
11 *733:39 *740:slot_a[1] 17.86 
*END

*D_NET *734 0.837033
*CONN
*I *740:slot_b[0] I *D ntt_engine_256
*I *739:slot_b_o[0] O *D ntt_wb_bridge
*CAP
1 *740:slot_b[0] 0.000381321
2 *739:slot_b_o[0] 0.00118533
3 *734:67 0.0226558
4 *734:65 0.0234944
5 *734:51 0.0172207
6 *734:49 0.016434
7 *734:43 0.0231259
8 *734:41 0.0226928
9 *734:39 0.0907477
10 *734:37 0.0932138
11 *734:27 0.00646057
12 *734:25 0.00477872
13 *734:19 0.0081073
14 *734:17 0.00753925
15 *734:11 0.00682868
16 *734:9 0.00779779
17 *734:19 *735:11 0.0235284
18 *734:43 *737:46 0.119619
19 *739:busy_i *734:25 0
20 *739:mem_rvalid_i *734:25 0
21 *80:179 *734:43 0.135991
22 *80:187 *734:51 0.01225
23 *80:203 *734:67 0.000109698
24 *116:137 *734:51 0
25 *116:145 *734:51 0.0162603
26 *118:177 *734:51 0.00416328
27 *118:193 *734:65 0.000734295
28 *120:23 *734:65 0.000210678
29 *120:23 *734:67 0
30 *284:17 *734:19 0
31 *364:23 *734:11 0.0319647
32 *372:19 *734:11 0.0107018
33 *540:187 *734:39 0.000632192
34 *540:193 *734:65 0.00182261
35 *650:11 *734:27 0.00042352
36 *650:19 *734:43 0.00445732
37 *656:35 *734:43 0.00746977
38 *658:13 *734:11 0.000157206
39 *661:43 *734:19 0.00243739
40 *668:15 *734:37 0
41 *676:35 *734:19 0.00568965
42 *689:9 *734:49 1.82152e-05
43 *691:27 *734:27 0
44 *695:13 *734:11 0.000127694
45 *701:18 *734:37 0.00578218
46 *701:22 *734:43 0.00135373
47 *702:21 *734:27 0
48 *702:43 *734:51 0.00240009
49 *704:13 *734:11 6.86684e-05
50 *704:35 *734:51 0.0192168
51 *704:39 *734:67 0.0499168
52 *706:15 *734:37 0.00683346
53 *706:27 *734:43 0.00349574
54 *709:27 *734:51 0.00358501
55 *710:13 *734:11 5.18188e-05
56 *713:15 *734:37 0
57 *714:13 *734:11 0.000112391
58 *715:13 *734:11 9.50887e-05
59 *717:11 *734:27 0
60 *718:11 *734:27 0
61 *718:15 *734:39 0
62 *718:27 *734:43 0.0109013
63 *722:11 *734:27 0
64 *722:15 *734:37 0
65 *725:43 *734:43 0.000315221
66 *727:19 *734:27 0.00147237
67 *729:11 *734:27 0
*RES
1 *739:slot_b_o[0] *734:9 11.1957 
2 *734:9 *734:11 407.222 
3 *734:11 *734:17 16.5712 
4 *734:17 *734:19 300.171 
5 *734:19 *734:25 17.9451 
6 *734:25 *734:27 82.5464 
7 *734:27 *734:37 39.4429 
8 *734:37 *734:39 315.745 
9 *734:39 *734:41 8 
10 *734:41 *734:43 1726.35 
11 *734:43 *734:49 17.0864 
12 *734:49 *734:51 749.505 
13 *734:51 *734:65 35.7761 
14 *734:65 *734:67 109.879 
15 *734:67 *740:slot_b[0] 16.6171 
*END

*D_NET *735 0.158693
*CONN
*I *740:slot_b[1] I *D ntt_engine_256
*I *739:slot_b_o[1] O *D ntt_wb_bridge
*CAP
1 *740:slot_b[1] 0.00115453
2 *739:slot_b_o[1] 0.00135265
3 *735:17 0.00480666
4 *735:11 0.020799
5 *735:9 0.0184995
6 *740:mem_slot[0] *735:17 0.002428
7 *284:17 *735:11 0
8 *354:25 *735:17 0.00835557
9 *358:25 *735:17 0.00154529
10 *361:15 *735:17 0.00246295
11 *369:15 *735:11 0.0578606
12 *372:19 *735:11 0.00017767
13 *398:19 *735:17 0.00995697
14 *649:15 *735:11 0.000142731
15 *661:41 *735:11 3.66799e-05
16 *661:43 *735:11 0.00337335
17 *676:35 *735:11 0.00221253
18 *689:35 *735:11 0
19 *709:11 *735:11 0
20 *716:11 *735:11 0
21 *734:19 *735:11 0.0235284
*RES
1 *739:slot_b_o[1] *735:9 11.6251 
2 *735:9 *735:11 768.521 
3 *735:11 *735:17 47.2256 
4 *735:17 *740:slot_b[1] 20.88 
*END

*D_NET *736 0.584203
*CONN
*I *740:slot_c[0] I *D ntt_engine_256
*I *739:slot_c_o[0] O *D ntt_wb_bridge
*CAP
1 *740:slot_c[0] 0
2 *739:slot_c_o[0] 0.00111302
3 *736:27 0.0466657
4 *736:25 0.0466657
5 *736:23 0.0178076
6 *736:21 0.0181495
7 *736:15 0.0227828
8 *736:13 0.022441
9 *736:11 0.0131767
10 *736:9 0.0142898
11 *736:15 *737:34 0
12 *740:mac_init *736:27 0.000364411
13 *740:mem_wdata[7] *736:27 0.000364411
14 *76:19 *736:9 0.000241414
15 *79:17 *736:9 0.000364411
16 *119:25 *736:27 0.00835567
17 *273:15 *736:15 0.00123178
18 *280:15 *736:15 0.00370881
19 *296:15 *736:15 0.00147638
20 *300:15 *736:15 0.00543649
21 *315:25 *736:23 0.000304797
22 *335:15 *736:15 0.00441572
23 *340:23 *736:15 0.00116592
24 *343:27 *736:23 0.00215845
25 *347:21 *736:15 0.000433732
26 *349:35 *736:23 0.00101156
27 *350:27 *736:23 0.000388894
28 *351:23 *736:15 0.0234029
29 *357:15 *736:15 0.000285138
30 *362:15 *736:15 0.00211281
31 *387:15 *736:15 0.000282171
32 *390:15 *736:15 0.00545516
33 *540:189 *736:27 0.00919417
34 *650:11 *736:11 0.00121901
35 *664:9 *736:27 0.000287215
36 *676:21 *736:27 0.00108518
37 *683:9 *736:27 0.000364411
38 *702:11 *736:11 0.00538456
39 *716:23 *736:23 0.0352455
40 *717:11 *736:11 0.0274306
41 *717:35 *736:27 0.00559455
42 *725:11 *736:11 0.00758003
43 *726:15 *736:15 0.0948245
44 *726:23 *736:23 0.0721768
45 *726:27 *736:27 0
46 *729:11 *736:11 0.0577635
47 *731:11 *736:11 0
*RES
1 *739:slot_c_o[0] *736:9 10.8448 
2 *736:9 *736:11 739.469 
3 *736:11 *736:13 15 
4 *736:13 *736:15 1037.81 
5 *736:15 *736:21 28.9554 
6 *736:21 *736:23 139.804 
7 *736:23 *736:25 8 
8 *736:25 *736:27 142.919 
9 *736:27 *740:slot_c[0] 8 
*END

*D_NET *737 0.796077
*CONN
*I *740:slot_c[1] I *D ntt_engine_256
*I *739:slot_c_o[1] O *D ntt_wb_bridge
*CAP
1 *740:slot_c[1] 0.000999468
2 *739:slot_c_o[1] 0
3 *737:54 0.0233334
4 *737:52 0.0224497
5 *737:46 0.0200484
6 *737:44 0.0199326
7 *737:42 0.0256123
8 *737:40 0.0256699
9 *737:34 0.0377219
10 *737:32 0.037774
11 *737:26 0.00690191
12 *737:20 0.0140637
13 *737:6 0.0238933
14 *737:4 0.0166219
15 *79:17 *737:6 0.00510984
16 *79:23 *737:6 0
17 *80:179 *737:46 0.00167691
18 *80:179 *737:54 0.0074129
19 *116:137 *737:54 0.00270262
20 *273:15 *737:34 0.000740924
21 *275:15 *737:34 0.0207818
22 *315:15 *737:34 0.00418203
23 *335:15 *737:34 0.00245855
24 *338:25 *737:34 0.00124193
25 *342:29 *737:34 0.0003105
26 *347:37 *737:40 0
27 *351:23 *737:34 0.000650958
28 *360:41 *737:20 2.8667e-05
29 *360:41 *737:26 0
30 *360:63 *737:20 0.00076305
31 *363:39 *737:20 0.00119794
32 *363:39 *737:26 0.00320539
33 *363:59 *737:20 0.00134927
34 *374:15 *737:34 0.00738111
35 *382:15 *737:26 4.51815e-05
36 *396:15 *737:34 0.0241202
37 *540:167 *737:42 0.00474186
38 *650:19 *737:46 0.00511851
39 *656:27 *737:46 0.112396
40 *656:35 *737:46 0.00351563
41 *656:35 *737:54 0.0409995
42 *687:15 *737:20 0.000103193
43 *689:11 *737:54 0
44 *689:23 *737:42 0.0708049
45 *689:31 *737:34 0
46 *693:9 *737:6 0.000364411
47 *693:11 *737:6 0.0101424
48 *693:11 *737:20 0.00295055
49 *693:11 *737:26 0.0054813
50 *693:11 *737:32 0.00011434
51 *696:9 *737:6 0.000227734
52 *696:11 *737:6 0.00255061
53 *696:11 *737:20 0.00136615
54 *696:11 *737:26 0.00240038
55 *697:11 *737:6 0.000309592
56 *697:11 *737:20 0.00178512
57 *701:8 *737:6 0.00930454
58 *701:12 *737:6 0.0002478
59 *701:12 *737:20 0.00268372
60 *701:12 *737:26 9.60571e-05
61 *701:16 *737:26 0.0133333
62 *701:22 *737:46 0.00118716
63 *702:43 *737:54 0.00463051
64 *706:27 *737:46 0.0030455
65 *711:11 *737:6 0.000390794
66 *711:11 *737:20 0.000427831
67 *712:11 *737:6 0.000281198
68 *712:11 *737:20 0.00157817
69 *713:11 *737:20 0.000473095
70 *718:27 *737:46 0.0125014
71 *725:35 *737:46 0
72 *725:43 *737:46 0.000348962
73 *726:15 *737:34 0
74 *729:15 *737:34 0
75 *729:23 *737:42 4.35727e-05
76 *731:41 *737:20 0.000130986
77 *734:43 *737:46 0.119619
78 *736:15 *737:34 0
*RES
1 *739:slot_c_o[1] *737:4 8 
2 *737:4 *737:6 72.3445 
3 *737:6 *737:20 28.0784 
4 *737:20 *737:26 42.1731 
5 *737:26 *737:32 24.7296 
6 *737:32 *737:34 1057.82 
7 *737:34 *737:40 24.0254 
8 *737:40 *737:42 135.639 
9 *737:42 *737:44 8 
10 *737:44 *737:46 1560.84 
11 *737:46 *737:52 16.1848 
12 *737:52 *737:54 116.073 
13 *737:54 *740:slot_c[1] 10.716 
*END

*D_NET *738 0.430823
*CONN
*I *740:start I *D ntt_engine_256
*I *739:start_o O *D ntt_wb_bridge
*CAP
1 *740:start 0.00116308
2 *739:start_o 2.30967e-05
3 *738:19 0.0166032
4 *738:17 0.0155377
5 *738:11 0.0358614
6 *738:9 0.0357638
7 *738:7 0.0372324
8 *738:5 0.0372555
9 *740:mem_wdata[16] *738:19 0.00117707
10 *74:17 *738:19 0
11 *77:41 *738:7 0.000366314
12 *104:23 *738:11 0
13 *115:21 *738:7 0.00122037
14 *654:11 *740:start 0.000441607
15 *685:45 *738:19 0.00946366
16 *690:11 *738:19 0.0845006
17 *699:15 *738:17 1.28794e-06
18 *699:19 *738:19 0.000289681
19 *700:19 *738:19 0.00132555
20 *708:19 *738:19 0.0925009
21 *724:11 *738:11 0.043941
22 *724:11 *738:19 0.00173467
23 *730:11 *738:11 0.0102495
24 *730:19 *738:11 0.00417071
25 *730:19 *738:19 0
*RES
1 *739:start_o *738:5 0.0914667 
2 *738:5 *738:7 124.906 
3 *738:7 *738:9 8 
4 *738:9 *738:11 152.503 
5 *738:11 *738:17 16.1848 
6 *738:17 *738:19 1186.16 
7 *738:19 *740:start 10.6283 
*END
