*SPEF "ieee 1481-1999"
*DESIGN "user_project_wrapper"
*DATE "11:11:11 Fri 11 11, 1111"
*VENDOR "OpenRCX"
*PROGRAM "Parallel Extraction"
*VERSION "1.0"
*DESIGN_FLOW "NAME_SCOPE LOCAL" "PIN_CAP NONE"
*DIVIDER /
*DELIMITER :
*BUS_DELIMITER []
*T_UNIT 1 NS
*C_UNIT 1 PF
*R_UNIT 1 OHM
*L_UNIT 1 HENRY

*NAME_MAP
*1 analog_io[0]
*2 analog_io[10]
*3 analog_io[11]
*4 analog_io[12]
*5 analog_io[13]
*6 analog_io[14]
*7 analog_io[15]
*8 analog_io[16]
*9 analog_io[17]
*10 analog_io[18]
*11 analog_io[19]
*12 analog_io[1]
*13 analog_io[20]
*14 analog_io[21]
*15 analog_io[22]
*16 analog_io[23]
*17 analog_io[24]
*18 analog_io[25]
*19 analog_io[26]
*20 analog_io[27]
*21 analog_io[28]
*22 analog_io[2]
*23 analog_io[3]
*24 analog_io[4]
*25 analog_io[5]
*26 analog_io[6]
*27 analog_io[7]
*28 analog_io[8]
*29 analog_io[9]
*30 io_in[0]
*31 io_in[10]
*32 io_in[11]
*33 io_in[12]
*34 io_in[13]
*35 io_in[14]
*36 io_in[15]
*37 io_in[16]
*38 io_in[17]
*39 io_in[18]
*40 io_in[19]
*41 io_in[1]
*42 io_in[20]
*43 io_in[21]
*44 io_in[22]
*45 io_in[23]
*46 io_in[24]
*47 io_in[25]
*48 io_in[26]
*49 io_in[27]
*50 io_in[28]
*51 io_in[29]
*52 io_in[2]
*53 io_in[30]
*54 io_in[31]
*55 io_in[32]
*56 io_in[33]
*57 io_in[34]
*58 io_in[35]
*59 io_in[36]
*60 io_in[37]
*61 io_in[3]
*62 io_in[4]
*63 io_in[5]
*64 io_in[6]
*65 io_in[7]
*66 io_in[8]
*67 io_in[9]
*68 io_oeb[0]
*69 io_oeb[10]
*70 io_oeb[11]
*71 io_oeb[12]
*72 io_oeb[13]
*73 io_oeb[14]
*74 io_oeb[15]
*75 io_oeb[16]
*76 io_oeb[17]
*77 io_oeb[18]
*78 io_oeb[19]
*79 io_oeb[1]
*80 io_oeb[20]
*81 io_oeb[21]
*82 io_oeb[22]
*83 io_oeb[23]
*84 io_oeb[24]
*85 io_oeb[25]
*86 io_oeb[26]
*87 io_oeb[27]
*88 io_oeb[28]
*89 io_oeb[29]
*90 io_oeb[2]
*91 io_oeb[30]
*92 io_oeb[31]
*93 io_oeb[32]
*94 io_oeb[33]
*95 io_oeb[34]
*96 io_oeb[35]
*97 io_oeb[36]
*98 io_oeb[37]
*99 io_oeb[3]
*100 io_oeb[4]
*101 io_oeb[5]
*102 io_oeb[6]
*103 io_oeb[7]
*104 io_oeb[8]
*105 io_oeb[9]
*106 io_out[0]
*107 io_out[10]
*108 io_out[11]
*109 io_out[12]
*110 io_out[13]
*111 io_out[14]
*112 io_out[15]
*113 io_out[16]
*114 io_out[17]
*115 io_out[18]
*116 io_out[19]
*117 io_out[1]
*118 io_out[20]
*119 io_out[21]
*120 io_out[22]
*121 io_out[23]
*122 io_out[24]
*123 io_out[25]
*124 io_out[26]
*125 io_out[27]
*126 io_out[28]
*127 io_out[29]
*128 io_out[2]
*129 io_out[30]
*130 io_out[31]
*131 io_out[32]
*132 io_out[33]
*133 io_out[34]
*134 io_out[35]
*135 io_out[36]
*136 io_out[37]
*137 io_out[3]
*138 io_out[4]
*139 io_out[5]
*140 io_out[6]
*141 io_out[7]
*142 io_out[8]
*143 io_out[9]
*144 la_data_in[0]
*145 la_data_in[100]
*146 la_data_in[101]
*147 la_data_in[102]
*148 la_data_in[103]
*149 la_data_in[104]
*150 la_data_in[105]
*151 la_data_in[106]
*152 la_data_in[107]
*153 la_data_in[108]
*154 la_data_in[109]
*155 la_data_in[10]
*156 la_data_in[110]
*157 la_data_in[111]
*158 la_data_in[112]
*159 la_data_in[113]
*160 la_data_in[114]
*161 la_data_in[115]
*162 la_data_in[116]
*163 la_data_in[117]
*164 la_data_in[118]
*165 la_data_in[119]
*166 la_data_in[11]
*167 la_data_in[120]
*168 la_data_in[121]
*169 la_data_in[122]
*170 la_data_in[123]
*171 la_data_in[124]
*172 la_data_in[125]
*173 la_data_in[126]
*174 la_data_in[127]
*175 la_data_in[12]
*176 la_data_in[13]
*177 la_data_in[14]
*178 la_data_in[15]
*179 la_data_in[16]
*180 la_data_in[17]
*181 la_data_in[18]
*182 la_data_in[19]
*183 la_data_in[1]
*184 la_data_in[20]
*185 la_data_in[21]
*186 la_data_in[22]
*187 la_data_in[23]
*188 la_data_in[24]
*189 la_data_in[25]
*190 la_data_in[26]
*191 la_data_in[27]
*192 la_data_in[28]
*193 la_data_in[29]
*194 la_data_in[2]
*195 la_data_in[30]
*196 la_data_in[31]
*197 la_data_in[32]
*198 la_data_in[33]
*199 la_data_in[34]
*200 la_data_in[35]
*201 la_data_in[36]
*202 la_data_in[37]
*203 la_data_in[38]
*204 la_data_in[39]
*205 la_data_in[3]
*206 la_data_in[40]
*207 la_data_in[41]
*208 la_data_in[42]
*209 la_data_in[43]
*210 la_data_in[44]
*211 la_data_in[45]
*212 la_data_in[46]
*213 la_data_in[47]
*214 la_data_in[48]
*215 la_data_in[49]
*216 la_data_in[4]
*217 la_data_in[50]
*218 la_data_in[51]
*219 la_data_in[52]
*220 la_data_in[53]
*221 la_data_in[54]
*222 la_data_in[55]
*223 la_data_in[56]
*224 la_data_in[57]
*225 la_data_in[58]
*226 la_data_in[59]
*227 la_data_in[5]
*228 la_data_in[60]
*229 la_data_in[61]
*230 la_data_in[62]
*231 la_data_in[63]
*232 la_data_in[64]
*233 la_data_in[65]
*234 la_data_in[66]
*235 la_data_in[67]
*236 la_data_in[68]
*237 la_data_in[69]
*238 la_data_in[6]
*239 la_data_in[70]
*240 la_data_in[71]
*241 la_data_in[72]
*242 la_data_in[73]
*243 la_data_in[74]
*244 la_data_in[75]
*245 la_data_in[76]
*246 la_data_in[77]
*247 la_data_in[78]
*248 la_data_in[79]
*249 la_data_in[7]
*250 la_data_in[80]
*251 la_data_in[81]
*252 la_data_in[82]
*253 la_data_in[83]
*254 la_data_in[84]
*255 la_data_in[85]
*256 la_data_in[86]
*257 la_data_in[87]
*258 la_data_in[88]
*259 la_data_in[89]
*260 la_data_in[8]
*261 la_data_in[90]
*262 la_data_in[91]
*263 la_data_in[92]
*264 la_data_in[93]
*265 la_data_in[94]
*266 la_data_in[95]
*267 la_data_in[96]
*268 la_data_in[97]
*269 la_data_in[98]
*270 la_data_in[99]
*271 la_data_in[9]
*272 la_data_out[0]
*273 la_data_out[100]
*274 la_data_out[101]
*275 la_data_out[102]
*276 la_data_out[103]
*277 la_data_out[104]
*278 la_data_out[105]
*279 la_data_out[106]
*280 la_data_out[107]
*281 la_data_out[108]
*282 la_data_out[109]
*283 la_data_out[10]
*284 la_data_out[110]
*285 la_data_out[111]
*286 la_data_out[112]
*287 la_data_out[113]
*288 la_data_out[114]
*289 la_data_out[115]
*290 la_data_out[116]
*291 la_data_out[117]
*292 la_data_out[118]
*293 la_data_out[119]
*294 la_data_out[11]
*295 la_data_out[120]
*296 la_data_out[121]
*297 la_data_out[122]
*298 la_data_out[123]
*299 la_data_out[124]
*300 la_data_out[125]
*301 la_data_out[126]
*302 la_data_out[127]
*303 la_data_out[12]
*304 la_data_out[13]
*305 la_data_out[14]
*306 la_data_out[15]
*307 la_data_out[16]
*308 la_data_out[17]
*309 la_data_out[18]
*310 la_data_out[19]
*311 la_data_out[1]
*312 la_data_out[20]
*313 la_data_out[21]
*314 la_data_out[22]
*315 la_data_out[23]
*316 la_data_out[24]
*317 la_data_out[25]
*318 la_data_out[26]
*319 la_data_out[27]
*320 la_data_out[28]
*321 la_data_out[29]
*322 la_data_out[2]
*323 la_data_out[30]
*324 la_data_out[31]
*325 la_data_out[32]
*326 la_data_out[33]
*327 la_data_out[34]
*328 la_data_out[35]
*329 la_data_out[36]
*330 la_data_out[37]
*331 la_data_out[38]
*332 la_data_out[39]
*333 la_data_out[3]
*334 la_data_out[40]
*335 la_data_out[41]
*336 la_data_out[42]
*337 la_data_out[43]
*338 la_data_out[44]
*339 la_data_out[45]
*340 la_data_out[46]
*341 la_data_out[47]
*342 la_data_out[48]
*343 la_data_out[49]
*344 la_data_out[4]
*345 la_data_out[50]
*346 la_data_out[51]
*347 la_data_out[52]
*348 la_data_out[53]
*349 la_data_out[54]
*350 la_data_out[55]
*351 la_data_out[56]
*352 la_data_out[57]
*353 la_data_out[58]
*354 la_data_out[59]
*355 la_data_out[5]
*356 la_data_out[60]
*357 la_data_out[61]
*358 la_data_out[62]
*359 la_data_out[63]
*360 la_data_out[64]
*361 la_data_out[65]
*362 la_data_out[66]
*363 la_data_out[67]
*364 la_data_out[68]
*365 la_data_out[69]
*366 la_data_out[6]
*367 la_data_out[70]
*368 la_data_out[71]
*369 la_data_out[72]
*370 la_data_out[73]
*371 la_data_out[74]
*372 la_data_out[75]
*373 la_data_out[76]
*374 la_data_out[77]
*375 la_data_out[78]
*376 la_data_out[79]
*377 la_data_out[7]
*378 la_data_out[80]
*379 la_data_out[81]
*380 la_data_out[82]
*381 la_data_out[83]
*382 la_data_out[84]
*383 la_data_out[85]
*384 la_data_out[86]
*385 la_data_out[87]
*386 la_data_out[88]
*387 la_data_out[89]
*388 la_data_out[8]
*389 la_data_out[90]
*390 la_data_out[91]
*391 la_data_out[92]
*392 la_data_out[93]
*393 la_data_out[94]
*394 la_data_out[95]
*395 la_data_out[96]
*396 la_data_out[97]
*397 la_data_out[98]
*398 la_data_out[99]
*399 la_data_out[9]
*400 la_oenb[0]
*401 la_oenb[100]
*402 la_oenb[101]
*403 la_oenb[102]
*404 la_oenb[103]
*405 la_oenb[104]
*406 la_oenb[105]
*407 la_oenb[106]
*408 la_oenb[107]
*409 la_oenb[108]
*410 la_oenb[109]
*411 la_oenb[10]
*412 la_oenb[110]
*413 la_oenb[111]
*414 la_oenb[112]
*415 la_oenb[113]
*416 la_oenb[114]
*417 la_oenb[115]
*418 la_oenb[116]
*419 la_oenb[117]
*420 la_oenb[118]
*421 la_oenb[119]
*422 la_oenb[11]
*423 la_oenb[120]
*424 la_oenb[121]
*425 la_oenb[122]
*426 la_oenb[123]
*427 la_oenb[124]
*428 la_oenb[125]
*429 la_oenb[126]
*430 la_oenb[127]
*431 la_oenb[12]
*432 la_oenb[13]
*433 la_oenb[14]
*434 la_oenb[15]
*435 la_oenb[16]
*436 la_oenb[17]
*437 la_oenb[18]
*438 la_oenb[19]
*439 la_oenb[1]
*440 la_oenb[20]
*441 la_oenb[21]
*442 la_oenb[22]
*443 la_oenb[23]
*444 la_oenb[24]
*445 la_oenb[25]
*446 la_oenb[26]
*447 la_oenb[27]
*448 la_oenb[28]
*449 la_oenb[29]
*450 la_oenb[2]
*451 la_oenb[30]
*452 la_oenb[31]
*453 la_oenb[32]
*454 la_oenb[33]
*455 la_oenb[34]
*456 la_oenb[35]
*457 la_oenb[36]
*458 la_oenb[37]
*459 la_oenb[38]
*460 la_oenb[39]
*461 la_oenb[3]
*462 la_oenb[40]
*463 la_oenb[41]
*464 la_oenb[42]
*465 la_oenb[43]
*466 la_oenb[44]
*467 la_oenb[45]
*468 la_oenb[46]
*469 la_oenb[47]
*470 la_oenb[48]
*471 la_oenb[49]
*472 la_oenb[4]
*473 la_oenb[50]
*474 la_oenb[51]
*475 la_oenb[52]
*476 la_oenb[53]
*477 la_oenb[54]
*478 la_oenb[55]
*479 la_oenb[56]
*480 la_oenb[57]
*481 la_oenb[58]
*482 la_oenb[59]
*483 la_oenb[5]
*484 la_oenb[60]
*485 la_oenb[61]
*486 la_oenb[62]
*487 la_oenb[63]
*488 la_oenb[64]
*489 la_oenb[65]
*490 la_oenb[66]
*491 la_oenb[67]
*492 la_oenb[68]
*493 la_oenb[69]
*494 la_oenb[6]
*495 la_oenb[70]
*496 la_oenb[71]
*497 la_oenb[72]
*498 la_oenb[73]
*499 la_oenb[74]
*500 la_oenb[75]
*501 la_oenb[76]
*502 la_oenb[77]
*503 la_oenb[78]
*504 la_oenb[79]
*505 la_oenb[7]
*506 la_oenb[80]
*507 la_oenb[81]
*508 la_oenb[82]
*509 la_oenb[83]
*510 la_oenb[84]
*511 la_oenb[85]
*512 la_oenb[86]
*513 la_oenb[87]
*514 la_oenb[88]
*515 la_oenb[89]
*516 la_oenb[8]
*517 la_oenb[90]
*518 la_oenb[91]
*519 la_oenb[92]
*520 la_oenb[93]
*521 la_oenb[94]
*522 la_oenb[95]
*523 la_oenb[96]
*524 la_oenb[97]
*525 la_oenb[98]
*526 la_oenb[99]
*527 la_oenb[9]
*528 user_clock2
*529 user_irq[0]
*530 user_irq[1]
*531 user_irq[2]
*540 wb_clk_i
*541 wb_rst_i
*542 wbs_ack_o
*543 wbs_adr_i[0]
*544 wbs_adr_i[10]
*545 wbs_adr_i[11]
*546 wbs_adr_i[12]
*547 wbs_adr_i[13]
*548 wbs_adr_i[14]
*549 wbs_adr_i[15]
*550 wbs_adr_i[16]
*551 wbs_adr_i[17]
*552 wbs_adr_i[18]
*553 wbs_adr_i[19]
*554 wbs_adr_i[1]
*555 wbs_adr_i[20]
*556 wbs_adr_i[21]
*557 wbs_adr_i[22]
*558 wbs_adr_i[23]
*559 wbs_adr_i[24]
*560 wbs_adr_i[25]
*561 wbs_adr_i[26]
*562 wbs_adr_i[27]
*563 wbs_adr_i[28]
*564 wbs_adr_i[29]
*565 wbs_adr_i[2]
*566 wbs_adr_i[30]
*567 wbs_adr_i[31]
*568 wbs_adr_i[3]
*569 wbs_adr_i[4]
*570 wbs_adr_i[5]
*571 wbs_adr_i[6]
*572 wbs_adr_i[7]
*573 wbs_adr_i[8]
*574 wbs_adr_i[9]
*575 wbs_cyc_i
*576 wbs_dat_i[0]
*577 wbs_dat_i[10]
*578 wbs_dat_i[11]
*579 wbs_dat_i[12]
*580 wbs_dat_i[13]
*581 wbs_dat_i[14]
*582 wbs_dat_i[15]
*583 wbs_dat_i[16]
*584 wbs_dat_i[17]
*585 wbs_dat_i[18]
*586 wbs_dat_i[19]
*587 wbs_dat_i[1]
*588 wbs_dat_i[20]
*589 wbs_dat_i[21]
*590 wbs_dat_i[22]
*591 wbs_dat_i[23]
*592 wbs_dat_i[24]
*593 wbs_dat_i[25]
*594 wbs_dat_i[26]
*595 wbs_dat_i[27]
*596 wbs_dat_i[28]
*597 wbs_dat_i[29]
*598 wbs_dat_i[2]
*599 wbs_dat_i[30]
*600 wbs_dat_i[31]
*601 wbs_dat_i[3]
*602 wbs_dat_i[4]
*603 wbs_dat_i[5]
*604 wbs_dat_i[6]
*605 wbs_dat_i[7]
*606 wbs_dat_i[8]
*607 wbs_dat_i[9]
*608 wbs_dat_o[0]
*609 wbs_dat_o[10]
*610 wbs_dat_o[11]
*611 wbs_dat_o[12]
*612 wbs_dat_o[13]
*613 wbs_dat_o[14]
*614 wbs_dat_o[15]
*615 wbs_dat_o[16]
*616 wbs_dat_o[17]
*617 wbs_dat_o[18]
*618 wbs_dat_o[19]
*619 wbs_dat_o[1]
*620 wbs_dat_o[20]
*621 wbs_dat_o[21]
*622 wbs_dat_o[22]
*623 wbs_dat_o[23]
*624 wbs_dat_o[24]
*625 wbs_dat_o[25]
*626 wbs_dat_o[26]
*627 wbs_dat_o[27]
*628 wbs_dat_o[28]
*629 wbs_dat_o[29]
*630 wbs_dat_o[2]
*631 wbs_dat_o[30]
*632 wbs_dat_o[31]
*633 wbs_dat_o[3]
*634 wbs_dat_o[4]
*635 wbs_dat_o[5]
*636 wbs_dat_o[6]
*637 wbs_dat_o[7]
*638 wbs_dat_o[8]
*639 wbs_dat_o[9]
*640 wbs_sel_i[0]
*641 wbs_sel_i[1]
*642 wbs_sel_i[2]
*643 wbs_sel_i[3]
*644 wbs_stb_i
*645 wbs_we_i
*646 ntt\.busy
*647 ntt\.done
*648 ntt\.engine_rst_n
*649 ntt\.ext_rvalid_o
*650 ntt\.mac_init
*651 ntt\.mem_addr\[0\]
*652 ntt\.mem_addr\[1\]
*653 ntt\.mem_addr\[2\]
*654 ntt\.mem_addr\[3\]
*655 ntt\.mem_addr\[4\]
*656 ntt\.mem_addr\[5\]
*657 ntt\.mem_addr\[6\]
*658 ntt\.mem_addr\[7\]
*659 ntt\.mem_addr\[8\]
*660 ntt\.mem_rdata\[0\]
*661 ntt\.mem_rdata\[10\]
*662 ntt\.mem_rdata\[11\]
*663 ntt\.mem_rdata\[12\]
*664 ntt\.mem_rdata\[13\]
*665 ntt\.mem_rdata\[14\]
*666 ntt\.mem_rdata\[15\]
*667 ntt\.mem_rdata\[16\]
*668 ntt\.mem_rdata\[17\]
*669 ntt\.mem_rdata\[18\]
*670 ntt\.mem_rdata\[19\]
*671 ntt\.mem_rdata\[1\]
*672 ntt\.mem_rdata\[20\]
*673 ntt\.mem_rdata\[21\]
*674 ntt\.mem_rdata\[22\]
*675 ntt\.mem_rdata\[23\]
*676 ntt\.mem_rdata\[24\]
*677 ntt\.mem_rdata\[25\]
*678 ntt\.mem_rdata\[26\]
*679 ntt\.mem_rdata\[27\]
*680 ntt\.mem_rdata\[28\]
*681 ntt\.mem_rdata\[29\]
*682 ntt\.mem_rdata\[2\]
*683 ntt\.mem_rdata\[30\]
*684 ntt\.mem_rdata\[31\]
*685 ntt\.mem_rdata\[3\]
*686 ntt\.mem_rdata\[4\]
*687 ntt\.mem_rdata\[5\]
*688 ntt\.mem_rdata\[6\]
*689 ntt\.mem_rdata\[7\]
*690 ntt\.mem_rdata\[8\]
*691 ntt\.mem_rdata\[9\]
*692 ntt\.mem_re
*693 ntt\.mem_slot\[0\]
*694 ntt\.mem_slot\[1\]
*695 ntt\.mem_target
*696 ntt\.mem_wdata\[0\]
*697 ntt\.mem_wdata\[10\]
*698 ntt\.mem_wdata\[11\]
*699 ntt\.mem_wdata\[12\]
*700 ntt\.mem_wdata\[13\]
*701 ntt\.mem_wdata\[14\]
*702 ntt\.mem_wdata\[15\]
*703 ntt\.mem_wdata\[16\]
*704 ntt\.mem_wdata\[17\]
*705 ntt\.mem_wdata\[18\]
*706 ntt\.mem_wdata\[19\]
*707 ntt\.mem_wdata\[1\]
*708 ntt\.mem_wdata\[20\]
*709 ntt\.mem_wdata\[21\]
*710 ntt\.mem_wdata\[22\]
*711 ntt\.mem_wdata\[23\]
*712 ntt\.mem_wdata\[24\]
*713 ntt\.mem_wdata\[25\]
*714 ntt\.mem_wdata\[26\]
*715 ntt\.mem_wdata\[27\]
*716 ntt\.mem_wdata\[28\]
*717 ntt\.mem_wdata\[29\]
*718 ntt\.mem_wdata\[2\]
*719 ntt\.mem_wdata\[30\]
*720 ntt\.mem_wdata\[31\]
*721 ntt\.mem_wdata\[3\]
*722 ntt\.mem_wdata\[4\]
*723 ntt\.mem_wdata\[5\]
*724 ntt\.mem_wdata\[6\]
*725 ntt\.mem_wdata\[7\]
*726 ntt\.mem_wdata\[8\]
*727 ntt\.mem_wdata\[9\]
*728 ntt\.mem_we
*729 ntt\.op\[0\]
*730 ntt\.op\[1\]
*731 ntt\.op\[2\]
*732 ntt\.slot_a\[0\]
*733 ntt\.slot_a\[1\]
*734 ntt\.slot_b\[0\]
*735 ntt\.slot_b\[1\]
*736 ntt\.slot_c\[0\]
*737 ntt\.slot_c\[1\]
*738 ntt\.start
*739 ntt\.u_bridge
*740 ntt\.u_engine

*PORTS
analog_io[0] I
analog_io[10] I
analog_io[11] I
analog_io[12] I
analog_io[13] I
analog_io[14] I
analog_io[15] I
analog_io[16] I
analog_io[17] I
analog_io[18] I
analog_io[19] I
analog_io[1] I
analog_io[20] I
analog_io[21] I
analog_io[22] I
analog_io[23] I
analog_io[24] I
analog_io[25] I
analog_io[26] I
analog_io[27] I
analog_io[28] I
analog_io[2] I
analog_io[3] I
analog_io[4] I
analog_io[5] I
analog_io[6] I
analog_io[7] I
analog_io[8] I
analog_io[9] I
io_in[0] I
io_in[10] I
io_in[11] I
io_in[12] I
io_in[13] I
io_in[14] I
io_in[15] I
io_in[16] I
io_in[17] I
io_in[18] I
io_in[19] I
io_in[1] I
io_in[20] I
io_in[21] I
io_in[22] I
io_in[23] I
io_in[24] I
io_in[25] I
io_in[26] I
io_in[27] I
io_in[28] I
io_in[29] I
io_in[2] I
io_in[30] I
io_in[31] I
io_in[32] I
io_in[33] I
io_in[34] I
io_in[35] I
io_in[36] I
io_in[37] I
io_in[3] I
io_in[4] I
io_in[5] I
io_in[6] I
io_in[7] I
io_in[8] I
io_in[9] I
io_oeb[0] O
io_oeb[10] O
io_oeb[11] O
io_oeb[12] O
io_oeb[13] O
io_oeb[14] O
io_oeb[15] O
io_oeb[16] O
io_oeb[17] O
io_oeb[18] O
io_oeb[19] O
io_oeb[1] O
io_oeb[20] O
io_oeb[21] O
io_oeb[22] O
io_oeb[23] O
io_oeb[24] O
io_oeb[25] O
io_oeb[26] O
io_oeb[27] O
io_oeb[28] O
io_oeb[29] O
io_oeb[2] O
io_oeb[30] O
io_oeb[31] O
io_oeb[32] O
io_oeb[33] O
io_oeb[34] O
io_oeb[35] O
io_oeb[36] O
io_oeb[37] O
io_oeb[3] O
io_oeb[4] O
io_oeb[5] O
io_oeb[6] O
io_oeb[7] O
io_oeb[8] O
io_oeb[9] O
io_out[0] O
io_out[10] O
io_out[11] O
io_out[12] O
io_out[13] O
io_out[14] O
io_out[15] O
io_out[16] O
io_out[17] O
io_out[18] O
io_out[19] O
io_out[1] O
io_out[20] O
io_out[21] O
io_out[22] O
io_out[23] O
io_out[24] O
io_out[25] O
io_out[26] O
io_out[27] O
io_out[28] O
io_out[29] O
io_out[2] O
io_out[30] O
io_out[31] O
io_out[32] O
io_out[33] O
io_out[34] O
io_out[35] O
io_out[36] O
io_out[37] O
io_out[3] O
io_out[4] O
io_out[5] O
io_out[6] O
io_out[7] O
io_out[8] O
io_out[9] O
la_data_in[0] I
la_data_in[100] I
la_data_in[101] I
la_data_in[102] I
la_data_in[103] I
la_data_in[104] I
la_data_in[105] I
la_data_in[106] I
la_data_in[107] I
la_data_in[108] I
la_data_in[109] I
la_data_in[10] I
la_data_in[110] I
la_data_in[111] I
la_data_in[112] I
la_data_in[113] I
la_data_in[114] I
la_data_in[115] I
la_data_in[116] I
la_data_in[117] I
la_data_in[118] I
la_data_in[119] I
la_data_in[11] I
la_data_in[120] I
la_data_in[121] I
la_data_in[122] I
la_data_in[123] I
la_data_in[124] I
la_data_in[125] I
la_data_in[126] I
la_data_in[127] I
la_data_in[12] I
la_data_in[13] I
la_data_in[14] I
la_data_in[15] I
la_data_in[16] I
la_data_in[17] I
la_data_in[18] I
la_data_in[19] I
la_data_in[1] I
la_data_in[20] I
la_data_in[21] I
la_data_in[22] I
la_data_in[23] I
la_data_in[24] I
la_data_in[25] I
la_data_in[26] I
la_data_in[27] I
la_data_in[28] I
la_data_in[29] I
la_data_in[2] I
la_data_in[30] I
la_data_in[31] I
la_data_in[32] I
la_data_in[33] I
la_data_in[34] I
la_data_in[35] I
la_data_in[36] I
la_data_in[37] I
la_data_in[38] I
la_data_in[39] I
la_data_in[3] I
la_data_in[40] I
la_data_in[41] I
la_data_in[42] I
la_data_in[43] I
la_data_in[44] I
la_data_in[45] I
la_data_in[46] I
la_data_in[47] I
la_data_in[48] I
la_data_in[49] I
la_data_in[4] I
la_data_in[50] I
la_data_in[51] I
la_data_in[52] I
la_data_in[53] I
la_data_in[54] I
la_data_in[55] I
la_data_in[56] I
la_data_in[57] I
la_data_in[58] I
la_data_in[59] I
la_data_in[5] I
la_data_in[60] I
la_data_in[61] I
la_data_in[62] I
la_data_in[63] I
la_data_in[64] I
la_data_in[65] I
la_data_in[66] I
la_data_in[67] I
la_data_in[68] I
la_data_in[69] I
la_data_in[6] I
la_data_in[70] I
la_data_in[71] I
la_data_in[72] I
la_data_in[73] I
la_data_in[74] I
la_data_in[75] I
la_data_in[76] I
la_data_in[77] I
la_data_in[78] I
la_data_in[79] I
la_data_in[7] I
la_data_in[80] I
la_data_in[81] I
la_data_in[82] I
la_data_in[83] I
la_data_in[84] I
la_data_in[85] I
la_data_in[86] I
la_data_in[87] I
la_data_in[88] I
la_data_in[89] I
la_data_in[8] I
la_data_in[90] I
la_data_in[91] I
la_data_in[92] I
la_data_in[93] I
la_data_in[94] I
la_data_in[95] I
la_data_in[96] I
la_data_in[97] I
la_data_in[98] I
la_data_in[99] I
la_data_in[9] I
la_data_out[0] O
la_data_out[100] O
la_data_out[101] O
la_data_out[102] O
la_data_out[103] O
la_data_out[104] O
la_data_out[105] O
la_data_out[106] O
la_data_out[107] O
la_data_out[108] O
la_data_out[109] O
la_data_out[10] O
la_data_out[110] O
la_data_out[111] O
la_data_out[112] O
la_data_out[113] O
la_data_out[114] O
la_data_out[115] O
la_data_out[116] O
la_data_out[117] O
la_data_out[118] O
la_data_out[119] O
la_data_out[11] O
la_data_out[120] O
la_data_out[121] O
la_data_out[122] O
la_data_out[123] O
la_data_out[124] O
la_data_out[125] O
la_data_out[126] O
la_data_out[127] O
la_data_out[12] O
la_data_out[13] O
la_data_out[14] O
la_data_out[15] O
la_data_out[16] O
la_data_out[17] O
la_data_out[18] O
la_data_out[19] O
la_data_out[1] O
la_data_out[20] O
la_data_out[21] O
la_data_out[22] O
la_data_out[23] O
la_data_out[24] O
la_data_out[25] O
la_data_out[26] O
la_data_out[27] O
la_data_out[28] O
la_data_out[29] O
la_data_out[2] O
la_data_out[30] O
la_data_out[31] O
la_data_out[32] O
la_data_out[33] O
la_data_out[34] O
la_data_out[35] O
la_data_out[36] O
la_data_out[37] O
la_data_out[38] O
la_data_out[39] O
la_data_out[3] O
la_data_out[40] O
la_data_out[41] O
la_data_out[42] O
la_data_out[43] O
la_data_out[44] O
la_data_out[45] O
la_data_out[46] O
la_data_out[47] O
la_data_out[48] O
la_data_out[49] O
la_data_out[4] O
la_data_out[50] O
la_data_out[51] O
la_data_out[52] O
la_data_out[53] O
la_data_out[54] O
la_data_out[55] O
la_data_out[56] O
la_data_out[57] O
la_data_out[58] O
la_data_out[59] O
la_data_out[5] O
la_data_out[60] O
la_data_out[61] O
la_data_out[62] O
la_data_out[63] O
la_data_out[64] O
la_data_out[65] O
la_data_out[66] O
la_data_out[67] O
la_data_out[68] O
la_data_out[69] O
la_data_out[6] O
la_data_out[70] O
la_data_out[71] O
la_data_out[72] O
la_data_out[73] O
la_data_out[74] O
la_data_out[75] O
la_data_out[76] O
la_data_out[77] O
la_data_out[78] O
la_data_out[79] O
la_data_out[7] O
la_data_out[80] O
la_data_out[81] O
la_data_out[82] O
la_data_out[83] O
la_data_out[84] O
la_data_out[85] O
la_data_out[86] O
la_data_out[87] O
la_data_out[88] O
la_data_out[89] O
la_data_out[8] O
la_data_out[90] O
la_data_out[91] O
la_data_out[92] O
la_data_out[93] O
la_data_out[94] O
la_data_out[95] O
la_data_out[96] O
la_data_out[97] O
la_data_out[98] O
la_data_out[99] O
la_data_out[9] O
la_oenb[0] I
la_oenb[100] I
la_oenb[101] I
la_oenb[102] I
la_oenb[103] I
la_oenb[104] I
la_oenb[105] I
la_oenb[106] I
la_oenb[107] I
la_oenb[108] I
la_oenb[109] I
la_oenb[10] I
la_oenb[110] I
la_oenb[111] I
la_oenb[112] I
la_oenb[113] I
la_oenb[114] I
la_oenb[115] I
la_oenb[116] I
la_oenb[117] I
la_oenb[118] I
la_oenb[119] I
la_oenb[11] I
la_oenb[120] I
la_oenb[121] I
la_oenb[122] I
la_oenb[123] I
la_oenb[124] I
la_oenb[125] I
la_oenb[126] I
la_oenb[127] I
la_oenb[12] I
la_oenb[13] I
la_oenb[14] I
la_oenb[15] I
la_oenb[16] I
la_oenb[17] I
la_oenb[18] I
la_oenb[19] I
la_oenb[1] I
la_oenb[20] I
la_oenb[21] I
la_oenb[22] I
la_oenb[23] I
la_oenb[24] I
la_oenb[25] I
la_oenb[26] I
la_oenb[27] I
la_oenb[28] I
la_oenb[29] I
la_oenb[2] I
la_oenb[30] I
la_oenb[31] I
la_oenb[32] I
la_oenb[33] I
la_oenb[34] I
la_oenb[35] I
la_oenb[36] I
la_oenb[37] I
la_oenb[38] I
la_oenb[39] I
la_oenb[3] I
la_oenb[40] I
la_oenb[41] I
la_oenb[42] I
la_oenb[43] I
la_oenb[44] I
la_oenb[45] I
la_oenb[46] I
la_oenb[47] I
la_oenb[48] I
la_oenb[49] I
la_oenb[4] I
la_oenb[50] I
la_oenb[51] I
la_oenb[52] I
la_oenb[53] I
la_oenb[54] I
la_oenb[55] I
la_oenb[56] I
la_oenb[57] I
la_oenb[58] I
la_oenb[59] I
la_oenb[5] I
la_oenb[60] I
la_oenb[61] I
la_oenb[62] I
la_oenb[63] I
la_oenb[64] I
la_oenb[65] I
la_oenb[66] I
la_oenb[67] I
la_oenb[68] I
la_oenb[69] I
la_oenb[6] I
la_oenb[70] I
la_oenb[71] I
la_oenb[72] I
la_oenb[73] I
la_oenb[74] I
la_oenb[75] I
la_oenb[76] I
la_oenb[77] I
la_oenb[78] I
la_oenb[79] I
la_oenb[7] I
la_oenb[80] I
la_oenb[81] I
la_oenb[82] I
la_oenb[83] I
la_oenb[84] I
la_oenb[85] I
la_oenb[86] I
la_oenb[87] I
la_oenb[88] I
la_oenb[89] I
la_oenb[8] I
la_oenb[90] I
la_oenb[91] I
la_oenb[92] I
la_oenb[93] I
la_oenb[94] I
la_oenb[95] I
la_oenb[96] I
la_oenb[97] I
la_oenb[98] I
la_oenb[99] I
la_oenb[9] I
user_clock2 I
user_irq[0] O
user_irq[1] O
user_irq[2] O
wb_clk_i I
wb_rst_i I
wbs_ack_o O
wbs_adr_i[0] I
wbs_adr_i[10] I
wbs_adr_i[11] I
wbs_adr_i[12] I
wbs_adr_i[13] I
wbs_adr_i[14] I
wbs_adr_i[15] I
wbs_adr_i[16] I
wbs_adr_i[17] I
wbs_adr_i[18] I
wbs_adr_i[19] I
wbs_adr_i[1] I
wbs_adr_i[20] I
wbs_adr_i[21] I
wbs_adr_i[22] I
wbs_adr_i[23] I
wbs_adr_i[24] I
wbs_adr_i[25] I
wbs_adr_i[26] I
wbs_adr_i[27] I
wbs_adr_i[28] I
wbs_adr_i[29] I
wbs_adr_i[2] I
wbs_adr_i[30] I
wbs_adr_i[31] I
wbs_adr_i[3] I
wbs_adr_i[4] I
wbs_adr_i[5] I
wbs_adr_i[6] I
wbs_adr_i[7] I
wbs_adr_i[8] I
wbs_adr_i[9] I
wbs_cyc_i I
wbs_dat_i[0] I
wbs_dat_i[10] I
wbs_dat_i[11] I
wbs_dat_i[12] I
wbs_dat_i[13] I
wbs_dat_i[14] I
wbs_dat_i[15] I
wbs_dat_i[16] I
wbs_dat_i[17] I
wbs_dat_i[18] I
wbs_dat_i[19] I
wbs_dat_i[1] I
wbs_dat_i[20] I
wbs_dat_i[21] I
wbs_dat_i[22] I
wbs_dat_i[23] I
wbs_dat_i[24] I
wbs_dat_i[25] I
wbs_dat_i[26] I
wbs_dat_i[27] I
wbs_dat_i[28] I
wbs_dat_i[29] I
wbs_dat_i[2] I
wbs_dat_i[30] I
wbs_dat_i[31] I
wbs_dat_i[3] I
wbs_dat_i[4] I
wbs_dat_i[5] I
wbs_dat_i[6] I
wbs_dat_i[7] I
wbs_dat_i[8] I
wbs_dat_i[9] I
wbs_dat_o[0] O
wbs_dat_o[10] O
wbs_dat_o[11] O
wbs_dat_o[12] O
wbs_dat_o[13] O
wbs_dat_o[14] O
wbs_dat_o[15] O
wbs_dat_o[16] O
wbs_dat_o[17] O
wbs_dat_o[18] O
wbs_dat_o[19] O
wbs_dat_o[1] O
wbs_dat_o[20] O
wbs_dat_o[21] O
wbs_dat_o[22] O
wbs_dat_o[23] O
wbs_dat_o[24] O
wbs_dat_o[25] O
wbs_dat_o[26] O
wbs_dat_o[27] O
wbs_dat_o[28] O
wbs_dat_o[29] O
wbs_dat_o[2] O
wbs_dat_o[30] O
wbs_dat_o[31] O
wbs_dat_o[3] O
wbs_dat_o[4] O
wbs_dat_o[5] O
wbs_dat_o[6] O
wbs_dat_o[7] O
wbs_dat_o[8] O
wbs_dat_o[9] O
wbs_sel_i[0] I
wbs_sel_i[1] I
wbs_sel_i[2] I
wbs_sel_i[3] I
wbs_stb_i I
wbs_we_i I

*D_NET *68 0.290082
*CONN
*P io_oeb[0] O
*I *739:io_oeb_o[0] O *D ntt_wb_bridge
*CAP
1 io_oeb[0] 0.00537508
2 *739:io_oeb_o[0] 0.000793312
3 *68:27 0.0238424
4 *68:25 0.0189663
5 *68:19 0.00855387
6 *68:17 0.00884814
7 io_oeb[0] *90:27 0.00458492
8 io_oeb[0] *100:31 0.00206102
9 io_oeb[0] *101:31 0.00204868
10 *68:17 *108:19 3.40193e-05
11 *68:17 *117:18 0.000147839
12 *68:17 *141:25 0.000142919
13 *68:19 *74:13 0.00558202
14 *68:19 *75:13 0.00490352
15 *68:19 *81:15 0.000494384
16 *68:19 *90:21 0.00113784
17 *68:19 *100:21 0.00428261
18 *68:19 *101:17 0.0012823
19 *68:19 *101:19 3.34733e-05
20 *68:19 *102:17 0.00212529
21 *68:19 *102:19 0.0209688
22 *68:19 *104:17 1.36114e-05
23 *68:19 *104:19 0.0368949
24 *68:19 *105:15 0.00528756
25 *68:19 *108:19 0.00349923
26 *68:19 *108:27 0.0084245
27 *68:19 *109:23 0.000660786
28 *68:19 *117:18 0.00121318
29 *68:19 *142:15 0.000574418
30 *68:25 *101:25 0.000849257
31 *68:27 *100:29 0
32 *68:27 *101:27 0.0845037
33 *68:27 *141:33 0.0319524
*RES
1 *739:io_oeb_o[0] *68:17 15.6792 
2 *68:17 *68:19 72.5461 
3 *68:19 *68:25 8.67807 
4 *68:25 *68:27 134.956 
5 *68:27 io_oeb[0] 26.9501 
*END

*D_NET *69 0.52784
*CONN
*P io_oeb[10] O
*I *739:io_oeb_o[10] O *D ntt_wb_bridge
*CAP
1 io_oeb[10] 0.0085504
2 *739:io_oeb_o[10] 0.00172286
3 *69:21 0.126128
4 *69:19 0.117578
5 *69:17 0.0237932
6 *69:15 0.025516
7 *69:15 *141:25 7.9537e-05
8 *69:17 *70:20 0.000171372
9 *69:17 *138:13 0.0599482
10 *69:17 *281:23 0.0167143
11 *69:17 *352:27 0.000347251
12 *69:17 *357:31 0.0370709
13 *69:17 *358:31 0.00107641
14 *69:21 *103:17 0.025838
15 *69:21 *114:145 0.0169769
16 *69:21 *655:131 0.0236889
17 *69:21 *679:39 0.0256629
18 *69:21 *723:133 0.0169769
*RES
1 *739:io_oeb_o[10] *69:15 10.7445 
2 *69:15 *69:17 164.359 
3 *69:17 *69:19 3.41 
4 *69:19 *69:21 375.151 
5 *69:21 io_oeb[10] 29.8099 
*END

*D_NET *70 0.440863
*CONN
*P io_oeb[11] O
*I *739:io_oeb_o[11] O *D ntt_wb_bridge
*CAP
1 io_oeb[11] 0.0010845
2 *739:io_oeb_o[11] 0.00185415
3 *70:30 0.00788508
4 *70:28 0.00680058
5 *70:26 0.115131
6 *70:24 0.115131
7 *70:22 0.0266007
8 *70:20 0.0284548
9 io_oeb[11] *111:35 0.000367446
10 *70:20 *83:13 0.00114476
11 *70:20 *352:27 0.00261158
12 *70:20 *357:31 0.00105696
13 *70:20 *358:31 0.000402919
14 *70:22 io_oeb[37] 0.00893081
15 *70:22 *71:22 0.0960048
16 *70:22 *85:13 0.0139095
17 *70:22 *281:23 0.0113362
18 *70:22 *353:27 0.00198505
19 *69:17 *70:20 0.000171372
*RES
1 *739:io_oeb_o[11] *70:20 23.5891 
2 *70:20 *70:22 909.036 
3 *70:22 *70:24 4.5 
4 *70:24 *70:26 2367.68 
5 *70:26 *70:28 4.5 
6 *70:28 *70:30 129.089 
7 *70:30 io_oeb[11] 15.0907 
*END

*D_NET *71 0.500987
*CONN
*P io_oeb[12] O
*I *739:io_oeb_o[12] O *D ntt_wb_bridge
*CAP
1 io_oeb[12] 0.000991808
2 *739:io_oeb_o[12] 0.00120481
3 *71:30 0.00687073
4 *71:28 0.00587892
5 *71:26 0.12677
6 *71:24 0.12677
7 *71:22 0.0125702
8 *71:20 0.013775
9 io_oeb[12] *111:35 0.000117101
10 *71:20 *79:13 5.01384e-05
11 *71:20 *95:19 4.73891e-05
12 *71:22 io_oeb[37] 0.00643245
13 *71:22 *72:25 0.0973047
14 *71:22 *85:13 0.000714125
15 *71:22 *107:18 0.000483427
16 *71:22 *281:23 0.00408049
17 *71:22 *353:27 0.000920437
18 *70:22 *71:22 0.0960048
*RES
1 *739:io_oeb_o[12] *71:20 19.027 
2 *71:20 *71:22 933.679 
3 *71:22 *71:24 4.5 
4 *71:24 *71:26 2607.8 
5 *71:26 *71:28 4.5 
6 *71:28 *71:30 116.768 
7 *71:30 io_oeb[12] 12.055 
*END

*D_NET *72 0.523981
*CONN
*P io_oeb[13] O
*I *739:io_oeb_o[13] O *D ntt_wb_bridge
*CAP
1 io_oeb[13] 0.00107525
2 *739:io_oeb_o[13] 0.00155451
3 *72:33 0.00622968
4 *72:31 0.00515443
5 *72:29 0.138107
6 *72:27 0.138107
7 *72:25 0.0127129
8 *72:23 0.0142675
9 io_oeb[13] *111:35 0.000342552
10 *72:23 *79:13 0.000141644
11 *72:23 *95:19 0.000138345
12 *72:23 *141:25 8.42714e-05
13 *72:25 *73:20 0.0979508
14 *72:25 *107:18 0.000712927
15 *72:25 *281:23 0.00349488
16 *72:25 *353:27 0.00660297
17 *71:22 *72:25 0.0973047
*RES
1 *739:io_oeb_o[13] *72:23 19.2294 
2 *72:23 *72:25 939.839 
3 *72:25 *72:27 4.5 
4 *72:27 *72:29 2841.55 
5 *72:29 *72:31 4.5 
6 *72:31 *72:33 98.2857 
7 *72:33 io_oeb[13] 14.7871 
*END

*D_NET *73 0.546562
*CONN
*P io_oeb[14] O
*I *739:io_oeb_o[14] O *D ntt_wb_bridge
*CAP
1 io_oeb[14] 0.000993853
2 *739:io_oeb_o[14] 0.00121321
3 *73:28 0.00549496
4 *73:26 0.00450111
5 *73:24 0.149763
6 *73:22 0.149763
7 *73:20 0.012583
8 *73:18 0.0137962
9 *73:18 *79:13 0.000324656
10 *73:18 *95:19 0.000321357
11 *73:20 *107:18 0.0992478
12 *73:20 *281:23 0.00349488
13 *73:20 *353:27 0.00711348
14 *72:25 *73:20 0.0979508
*RES
1 *739:io_oeb_o[14] *73:18 18.8115 
2 *73:18 *73:20 939.839 
3 *73:20 *73:22 4.5 
4 *73:22 *73:24 3081.68 
5 *73:24 *73:26 4.5 
6 *73:26 *73:28 85.9643 
7 *73:28 io_oeb[14] 11.7514 
*END

*D_NET *74 0.734964
*CONN
*P io_oeb[15] O
*I *739:io_oeb_o[15] O *D ntt_wb_bridge
*CAP
1 io_oeb[15] 0.000698271
2 *739:io_oeb_o[15] 0.00100509
3 *74:21 0.00349621
4 *74:19 0.00279794
5 *74:17 0.0948396
6 *74:15 0.0948396
7 *74:13 0.0110551
8 *74:11 0.0120602
9 *74:11 *94:13 0.000108251
10 *74:11 *141:25 0.000286065
11 *74:13 *75:13 0.0904027
12 *74:13 *104:19 0.0138878
13 *74:13 *105:15 0.000725281
14 *74:13 *108:27 0.0917071
15 *74:17 *77:163 0
16 *74:17 *113:17 0.251524
17 *74:17 *142:19 0
18 *74:17 *659:111 0.0248576
19 *74:17 *679:23 0
20 *74:17 *685:29 0
21 *74:17 *690:11 0
22 *74:17 *705:11 0.0184883
23 *74:17 *705:19 0
24 *74:17 *708:19 0
25 *74:17 *730:11 0.00741162
26 *74:17 *738:19 0
27 *74:21 *113:21 0.00919056
28 *68:19 *74:13 0.00558202
*RES
1 *739:io_oeb_o[15] *74:11 18.3652 
2 *74:11 *74:13 863.036 
3 *74:13 *74:15 4.5 
4 *74:15 *74:17 3091.39 
5 *74:17 *74:19 4.5 
6 *74:19 *74:21 86.375 
7 *74:21 io_oeb[15] 18.6786 
*END

*D_NET *75 0.702607
*CONN
*P io_oeb[16] O
*I *739:io_oeb_o[16] O *D ntt_wb_bridge
*CAP
1 io_oeb[16] 0.000742729
2 *739:io_oeb_o[16] 0.000898129
3 *75:21 0.0146376
4 *75:19 0.0138949
5 *75:17 0.105694
6 *75:15 0.105694
7 *75:13 0.022555
8 *75:11 0.0234531
9 *75:11 *82:13 0.000124543
10 *75:11 *86:13 0.000124543
11 *75:11 *87:13 0.000130024
12 *75:11 *91:13 0.000134297
13 *75:11 *94:13 0.000142714
14 *75:11 *141:31 0.000250973
15 *75:13 *102:19 0.000480251
16 *75:13 *104:19 0.0121065
17 *75:13 *105:15 0.0298045
18 *75:13 *108:27 0.000363512
19 *75:13 *110:13 0
20 *75:17 *78:129 0
21 *75:17 *115:145 0
22 *75:17 *142:19 0
23 *75:17 *665:29 0.00227458
24 *75:17 *671:17 0
25 *75:17 *680:11 0.0282232
26 *75:17 *720:11 0.201893
27 *75:21 *78:189 0.0113028
28 *75:21 *113:21 0.0323757
29 *68:19 *75:13 0.00490352
30 *74:13 *75:13 0.0904027
*RES
1 *739:io_oeb_o[16] *75:11 18.9131 
2 *75:11 *75:13 856.875 
3 *75:13 *75:15 4.5 
4 *75:15 *75:17 3091.09 
5 *75:17 *75:19 4.5 
6 *75:19 *75:21 382.089 
7 *75:21 io_oeb[16] 19.2857 
*END

*D_NET *76 0.64309
*CONN
*P io_oeb[17] O
*I *739:io_oeb_o[17] O *D ntt_wb_bridge
*CAP
1 io_oeb[17] 0.00186298
2 *739:io_oeb_o[17] 0.000387824
3 *76:159 0.00389248
4 *76:151 0.00581452
5 *76:149 0.0051316
6 *76:145 0.00345579
7 *76:139 0.00499514
8 *76:137 0.00288593
9 *76:135 0.00277414
10 *76:133 0.00390851
11 *76:129 0.00248611
12 *76:119 0.00394289
13 *76:117 0.00306346
14 *76:113 0.00218317
15 *76:105 0.0036031
16 *76:101 0.00247773
17 *76:95 0.0185392
18 *76:93 0.0179537
19 *76:91 0.0696379
20 *76:89 0.0720922
21 *76:85 0.00307932
22 *76:79 0.0045368
23 *76:77 0.0039118
24 *76:75 0.00492088
25 *76:73 0.00492088
26 *76:71 0.00453438
27 *76:69 0.00575894
28 *76:63 0.00531352
29 *76:61 0.00515845
30 *76:57 0.00237598
31 *76:47 0.00448916
32 *76:45 0.00502175
33 *76:39 0.00566235
34 *76:37 0.00382326
35 *76:35 0.00287479
36 *76:33 0.00287479
37 *76:31 0.00285805
38 *76:29 0.00285805
39 *76:27 0.00286431
40 *76:25 0.00286431
41 *76:23 0.00559351
42 *76:21 0.00559351
43 *76:19 0.0113269
44 *76:17 0.0113269
45 *76:15 0.00401499
46 *76:13 0.00440282
47 io_oeb[17] *78:189 0.000546563
48 *76:13 *141:31 0.000217921
49 *76:15 *80:23 0.00188792
50 *76:15 *92:13 0.00765163
51 *76:15 *100:23 0.00533058
52 *76:15 *112:29 0.00297567
53 *76:15 *114:13 0.000167291
54 *76:15 *115:13 0.0255172
55 *76:19 *78:23 0
56 *76:19 *79:19 0.00536375
57 *76:19 *79:23 0.000517423
58 *76:19 *115:19 0
59 *76:19 *363:71 0.0293543
60 *76:19 *693:11 0
61 *76:19 *696:11 0
62 *76:19 *697:11 0
63 *76:19 *701:8 0.000130761
64 *76:19 *702:9 0.000118344
65 *76:19 *727:9 0.000118344
66 *76:19 *729:9 0.000236689
67 *76:19 *731:9 0.000236689
68 *76:19 *737:6 0.00011602
69 *76:23 *708:9 0.000941488
70 *76:27 *651:11 0.00756163
71 *76:31 *671:21 0.00226156
72 *76:35 la_data_out[90] 0.00392634
73 *76:47 *669:65 0.00266226
74 *76:69 la_data_out[104] 0
75 *76:75 *78:123 0.00245331
76 *76:79 *296:15 0.00278512
77 *76:79 *300:15 2.98786e-05
78 *76:89 *102:27 0.000998843
79 *76:91 *103:17 0
80 *76:91 *114:145 0.16619
81 *76:91 *115:137 0
82 *76:91 *665:11 0
83 *76:95 *115:149 0.0165239
84 *76:95 *646:33 0.00104419
85 *76:105 *646:19 0
86 *76:105 *648:23 0.000230243
87 *76:105 *715:95 0.000945072
88 *76:151 *114:183 0
*RES
1 *739:io_oeb_o[17] *76:13 10.8915 
2 *76:13 *76:15 242.857 
3 *76:15 *76:17 4.5 
4 *76:17 *76:19 361.679 
5 *76:19 *76:21 4.5 
6 *76:21 *76:23 99.1071 
7 *76:23 *76:25 4.5 
8 *76:25 *76:27 92.7143 
9 *76:27 *76:29 4.5 
10 *76:29 *76:31 55.1607 
11 *76:31 *76:33 4.5 
12 *76:33 *76:35 86.3393 
13 *76:35 *76:37 4.5 
14 *76:37 *76:39 74.0536 
15 *76:39 *76:45 46.1607 
16 *76:45 *76:47 58.8571 
17 *76:47 *76:57 38.3571 
18 *76:57 *76:61 25.875 
19 *76:61 *76:63 77.3393 
20 *76:63 *76:69 33.7143 
21 *76:69 *76:71 89.25 
22 *76:71 *76:73 4.5 
23 *76:73 *76:75 98.7857 
24 *76:75 *76:77 4.5 
25 *76:77 *76:79 101.571 
26 *76:79 *76:85 21.5714 
27 *76:85 *76:89 48.1607 
28 *76:89 *76:91 2158.52 
29 *76:91 *76:93 4.5 
30 *76:93 *76:95 357.446 
31 *76:95 *76:101 19.1429 
32 *76:101 *76:105 43.2321 
33 *76:105 *76:113 41.5714 
34 *76:113 *76:117 13.7321 
35 *76:117 *76:119 49.4107 
36 *76:119 *76:129 40.0357 
37 *76:129 *76:133 27.6964 
38 *76:133 *76:135 52.6964 
39 *76:135 *76:137 4.5 
40 *76:137 *76:139 59.0179 
41 *76:139 *76:145 48.9643 
42 *76:145 *76:149 31.9464 
43 *76:149 *76:151 74.4643 
44 *76:151 *76:159 48.9643 
45 *76:159 io_oeb[17] 49.9643 
*END

*D_NET *77 0.796373
*CONN
*P io_oeb[18] O
*I *739:io_oeb_o[18] O *D ntt_wb_bridge
*CAP
1 io_oeb[18] 0.000708122
2 *739:io_oeb_o[18] 0.000915023
3 *77:241 0.0301403
4 *77:239 0.0296465
5 *77:233 0.002936
6 *77:227 0.00430357
7 *77:219 0.00429679
8 *77:211 0.00524807
9 *77:197 0.00694315
10 *77:185 0.00629318
11 *77:171 0.023081
12 *77:169 0.0218264
13 *77:163 0.00933932
14 *77:161 0.00924183
15 *77:155 0.0075346
16 *77:153 0.00728195
17 *77:147 0.00383863
18 *77:145 0.00356014
19 *77:143 0.00272043
20 *77:137 0.00603846
21 *77:123 0.00997201
22 *77:121 0.00811554
23 *77:115 0.00345967
24 *77:107 0.00603247
25 *77:105 0.00476357
26 *77:99 0.00572786
27 *77:97 0.00657915
28 *77:87 0.0105867
29 *77:75 0.0117377
30 *77:73 0.00822147
31 *77:65 0.00847631
32 *77:57 0.00859212
33 *77:45 0.0078552
34 *77:41 0.00432223
35 *77:33 0.00611638
36 *77:29 0.00570564
37 *77:15 0.00379771
38 *77:13 0.00305058
39 *77:13 *141:31 0.000238759
40 *77:15 *81:15 0.00320298
41 *77:15 *101:19 0.00270306
42 *77:15 *105:15 0.00462428
43 *77:15 *110:13 0.00479576
44 *77:29 *96:13 0
45 *77:29 *104:19 0.0084605
46 *77:29 *117:18 0.0084605
47 *77:33 *99:27 0.0108612
48 *77:33 *113:13 0.00315855
49 *77:33 *141:33 0.019325
50 *77:41 *648:7 0
51 *77:41 *738:7 0.000375897
52 *77:57 la_data_out[93] 0.000418752
53 *77:73 la_data_out[96] 0.000482136
54 *77:87 *652:37 6.1617e-05
55 *77:87 *655:7 0
56 *77:115 la_data_out[113] 0.00328292
57 *77:121 *720:7 0
58 *77:137 *665:57 0
59 *77:137 *686:47 0.00086065
60 *77:143 *665:29 6.58294e-06
61 *77:143 *686:47 0.00240547
62 *77:147 *112:33 0
63 *77:147 *672:25 0.0014587
64 *77:147 *721:133 0.000347294
65 *77:153 *298:31 0.000694189
66 *77:153 *655:121 0.000205858
67 *77:153 *669:51 0
68 *77:155 *667:19 0
69 *77:155 *673:23 0.0134667
70 *77:155 *674:11 0
71 *77:155 *686:19 0.00330342
72 *77:155 *714:123 0.000183911
73 *77:155 *721:141 0
74 *77:155 *723:127 0
75 *77:161 *740:mem_wdata[6] 0.000689491
76 *77:163 *740:mem_wdata[13] 0.00343695
77 *77:163 *705:19 0.0232747
78 *77:171 *646:35 0.1294
79 *77:171 *658:123 0.00450388
80 *77:171 *714:139 0.137476
81 *77:185 *78:143 0.00099489
82 *77:185 *115:149 0.000973907
83 *77:185 *646:33 0.000282053
84 *77:197 *78:151 0
85 *77:233 *78:189 0.000363165
86 *77:241 *78:189 0.092587
87 *74:17 *77:163 0
*RES
1 *739:io_oeb_o[18] *77:13 18.5089 
2 *77:13 *77:15 111.429 
3 *77:15 *77:29 37.33 
4 *77:29 *77:33 33.725 
5 *77:33 *77:41 34.5513 
6 *77:41 *77:45 49.0707 
7 *77:45 *77:57 34.7208 
8 *77:57 *77:65 42.2803 
9 *77:65 *77:73 37.274 
10 *77:73 *77:75 55.375 
11 *77:75 *77:87 47.5575 
12 *77:87 *77:97 28.247 
13 *77:97 *77:99 102.125 
14 *77:99 *77:105 9.029 
15 *77:105 *77:107 82.6964 
16 *77:107 *77:115 49.2975 
17 *77:115 *77:121 11.1189 
18 *77:121 *77:123 136.125 
19 *77:123 *77:137 47.1926 
20 *77:137 *77:143 48.244 
21 *77:143 *77:145 3.41 
22 *77:145 *77:147 74.8036 
23 *77:147 *77:153 7.948 
24 *77:153 *77:155 216.875 
25 *77:155 *77:161 8.1642 
26 *77:161 *77:163 285.482 
27 *77:163 *77:169 8.09213 
28 *77:169 *77:171 1684.95 
29 *77:171 *77:185 40.8832 
30 *77:185 *77:197 38.0552 
31 *77:197 *77:211 49.7733 
32 *77:211 *77:219 41.8479 
33 *77:219 *77:227 28.4384 
34 *77:227 *77:233 48.7485 
35 *77:233 *77:239 10.5879 
36 *77:239 *77:241 143.892 
37 *77:241 io_oeb[18] 17.4368 
*END

*D_NET *78 0.840466
*CONN
*P io_oeb[19] O
*I *739:io_oeb_o[19] O *D ntt_wb_bridge
*CAP
1 io_oeb[19] 0.000720918
2 *739:io_oeb_o[19] 0.000419734
3 *78:189 0.0489083
4 *78:187 0.0491889
5 *78:181 0.00354983
6 *78:179 0.00538238
7 *78:171 0.00409498
8 *78:159 0.00419055
9 *78:151 0.00371055
10 *78:143 0.00383411
11 *78:129 0.0322402
12 *78:127 0.0343675
13 *78:123 0.0134289
14 *78:113 0.0115964
15 *78:111 0.00733919
16 *78:103 0.00676044
17 *78:95 0.00483255
18 *78:85 0.00679981
19 *78:77 0.00767082
20 *78:71 0.00757733
21 *78:57 0.013675
22 *78:55 0.0101258
23 *78:49 0.00338238
24 *78:45 0.00586983
25 *78:33 0.00520336
26 *78:31 0.00546965
27 *78:23 0.00701275
28 *78:13 0.0106276
29 *78:11 0.00788228
30 *78:11 *141:31 0.000166973
31 *78:13 *91:13 0.0118434
32 *78:13 *94:13 0.00117914
33 *78:13 *113:13 0.00263178
34 *78:13 *141:31 0.000907154
35 *78:13 *141:33 0.00395777
36 *78:13 *143:43 0
37 *78:23 *101:27 0.000523345
38 *78:23 *115:19 0.000357547
39 *78:23 *282:23 0.00086443
40 *78:31 *354:27 0.0027717
41 *78:31 *730:7 0
42 *78:33 *279:19 0.00425874
43 *78:45 *114:39 0.0002845
44 *78:45 *115:35 0
45 *78:45 *692:9 0
46 *78:55 *654:7 0.00272309
47 *78:57 la_data_out[90] 0.012393
48 *78:57 *114:51 0
49 *78:71 *658:49 0.000508846
50 *78:71 *671:21 0
51 *78:71 *715:23 0.000263837
52 *78:71 *720:7 0.00159326
53 *78:85 *274:19 0.00223294
54 *78:95 la_data_out[100] 0.000445024
55 *78:103 *114:89 0
56 *78:103 *669:65 0
57 *78:111 *672:27 0.00139581
58 *78:113 la_data_out[107] 0
59 *78:113 *115:105 0
60 *78:123 *681:25 0.00555748
61 *78:127 *658:121 0.0013817
62 *78:127 *673:27 0.0139823
63 *78:127 *680:35 0
64 *78:129 *740:mem_wdata[5] 0.00152313
65 *78:129 *104:23 0.00504642
66 *78:129 *115:145 0.0521796
67 *78:129 *142:19 0.0666436
68 *78:129 *659:111 0.00824224
69 *78:129 *671:17 0.174255
70 *78:129 *679:31 0.0130403
71 *78:129 *681:13 0.0109743
72 *78:143 *115:149 0.000698448
73 *78:143 *646:33 0.000347077
74 *78:143 *648:21 0
75 *78:143 *679:21 5.10691e-05
76 *78:143 *715:93 0.00053273
77 *78:189 io_out[18] 0.000598731
78 io_oeb[17] *78:189 0.000546563
79 *75:17 *78:129 0
80 *75:21 *78:189 0.0113028
81 *76:19 *78:23 0
82 *76:75 *78:123 0.00245331
83 *77:185 *78:143 0.00099489
84 *77:197 *78:151 0
85 *77:233 *78:189 0.000363165
86 *77:241 *78:189 0.092587
*RES
1 *739:io_oeb_o[19] *78:11 9.4582 
2 *78:11 *78:13 216.571 
3 *78:13 *78:23 24.5418 
4 *78:23 *78:31 49.0635 
5 *78:31 *78:33 52.3393 
6 *78:33 *78:45 47.8272 
7 *78:45 *78:49 49.6779 
8 *78:49 *78:55 11.191 
9 *78:55 *78:57 271.518 
10 *78:57 *78:71 42.6167 
11 *78:71 *78:77 48.9232 
12 *78:77 *78:85 46.6368 
13 *78:85 *78:95 25.0168 
14 *78:95 *78:103 46.087 
15 *78:103 *78:111 33.5571 
16 *78:111 *78:113 68.125 
17 *78:113 *78:123 38.4316 
18 *78:123 *78:127 27.203 
19 *78:127 *78:129 2135.45 
20 *78:129 *78:143 49.1581 
21 *78:143 *78:151 17.5711 
22 *78:151 *78:159 49.1228 
23 *78:159 *78:171 21.9882 
24 *78:171 *78:179 44.235 
25 *78:179 *78:181 52.3393 
26 *78:181 *78:187 6.73917 
27 *78:187 *78:189 202.23 
28 *78:189 io_oeb[19] 18.0439 
*END

*D_NET *79 0.262621
*CONN
*P io_oeb[1] O
*I *739:io_oeb_o[1] O *D ntt_wb_bridge
*CAP
1 io_oeb[1] 0.044611
2 *739:io_oeb_o[1] 0.00123093
3 *79:23 0.0468893
4 *79:19 0.0121704
5 *79:13 0.0211368
6 *79:11 0.0124756
7 io_oeb[1] *652:57 0
8 io_oeb[1] *721:25 0.00154226
9 io_oeb[1] *727:9 0.00027117
10 *79:11 *141:25 6.53338e-05
11 *79:13 io_oeb[37] 0.00375136
12 *79:13 *95:17 0.000106902
13 *79:13 *95:19 0.0200778
14 *79:13 *101:19 0
15 *79:13 *102:19 0
16 *79:13 *107:18 0.00953387
17 *79:13 *140:21 0.0102806
18 *79:13 *353:27 0.0390864
19 *79:19 *117:24 0.0190702
20 *79:19 *363:71 0.00420712
21 *79:19 *650:9 0.000284346
22 *79:19 *656:9 0.000207921
23 *79:19 *658:15 0.000360771
24 *79:19 *693:11 0.000997825
25 *79:19 *695:15 0.000284346
26 *79:19 *696:11 0.000395891
27 *79:19 *722:9 0.000360771
28 *79:19 *729:9 0.000437196
29 *79:19 *731:9 0.000437196
30 *79:19 *736:9 0.000360771
31 *79:19 *737:6 0.00479222
32 *79:23 *363:71 0.000559879
33 *79:23 *727:9 0.000237214
34 *79:23 *737:6 0
35 *71:20 *79:13 5.01384e-05
36 *72:23 *79:13 0.000141644
37 *73:18 *79:13 0.000324656
38 *76:19 *79:19 0.00536375
39 *76:19 *79:23 0.000517423
*RES
1 *739:io_oeb_o[1] *79:11 9.72303 
2 *79:11 *79:13 73.4109 
3 *79:13 *79:19 49.3259 
4 *79:19 *79:23 9.80513 
5 *79:23 io_oeb[1] 134.212 
*END

*D_NET *80 0.883863
*CONN
*P io_oeb[20] O
*I *739:io_oeb_o[20] O *D ntt_wb_bridge
*CAP
1 io_oeb[20] 0.000691211
2 *739:io_oeb_o[20] 0.000614488
3 *80:267 0.0125531
4 *80:265 0.012676
5 *80:257 0.00407016
6 *80:239 0.00554304
7 *80:237 0.00296294
8 *80:233 0.00293238
9 *80:229 0.00344274
10 *80:219 0.00393906
11 *80:205 0.00526013
12 *80:187 0.0165378
13 *80:185 0.0143052
14 *80:179 0.027861
15 *80:177 0.0310352
16 *80:169 0.00549031
17 *80:161 0.00371239
18 *80:153 0.00607366
19 *80:145 0.00798974
20 *80:131 0.00586595
21 *80:129 0.00473756
22 *80:115 0.0105324
23 *80:113 0.0100016
24 *80:105 0.00487114
25 *80:97 0.00595853
26 *80:83 0.0055366
27 *80:75 0.00610295
28 *80:73 0.00620282
29 *80:67 0.00789658
30 *80:65 0.00839332
31 *80:51 0.00574442
32 *80:49 0.00498882
33 *80:45 0.0045925
34 *80:41 0.0073615
35 *80:23 0.014611
36 *80:21 0.0100943
37 *80:21 *100:23 0.000831134
38 *80:21 *103:13 0.000290511
39 *80:21 *113:13 0.000147489
40 *80:21 *114:13 0.000313264
41 *80:21 *141:31 0.00152221
42 *80:23 *89:13 0.00296689
43 *80:23 *90:23 0.00358714
44 *80:23 *92:13 0.0648203
45 *80:23 *106:21 0.00478874
46 *80:23 *115:13 0.0228763
47 *80:23 *118:13 0.026932
48 *80:23 *120:13 1.00073e-05
49 *80:23 *133:27 0.00616125
50 *80:41 *86:29 0.00106151
51 *80:41 *91:49 0.000605363
52 *80:41 *118:23 0.000841313
53 *80:41 *135:20 0.000147485
54 *80:41 *317:29 0.000109657
55 *80:49 *575:17 0.00611513
56 *80:49 *644:9 0
57 *80:51 *118:43 0
58 *80:65 *305:25 0
59 *80:65 *554:9 0
60 *80:65 *565:9 0.000416538
61 *80:65 *568:9 0.00378626
62 *80:65 *569:9 0
63 *80:73 io_out[36] 0.0125104
64 *80:73 *556:9 0.00344031
65 *80:75 la_data_out[5] 0
66 *80:83 la_data_out[4] 0
67 *80:83 *576:9 0.00097195
68 *80:83 *587:9 0
69 *80:97 la_data_out[2] 0.000331881
70 *80:97 *604:9 0.00111321
71 *80:97 *605:9 0
72 *80:97 *606:9 0.00107801
73 *80:97 *607:9 0
74 *80:105 *118:97 0
75 *80:105 *579:9 0
76 *80:105 *580:9 0.00287189
77 *80:105 *610:11 0
78 *80:113 *581:9 0
79 *80:113 *582:9 0.00159824
80 *80:115 *596:5 0
81 *80:129 *609:7 0
82 *80:129 *637:7 0
83 *80:129 *638:7 0.000554067
84 *80:129 *639:7 0.00172384
85 *80:131 wbs_dat_o[25] 0
86 *80:131 *540:95 0.00222614
87 *80:145 *118:129 0
88 *80:145 *617:7 0.0021326
89 *80:145 *618:7 0
90 *80:145 *621:7 0.000983497
91 *80:177 *118:151 0
92 *80:179 *740:mem_wdata[14] 0.000495203
93 *80:179 *116:137 0.139216
94 *80:179 *118:169 0
95 *80:179 *701:22 0.0061783
96 *80:179 *706:27 0.0169748
97 *80:179 *729:27 0
98 *80:179 *734:43 0.121434
99 *80:179 *737:46 0.00160655
100 *80:179 *737:54 0.00708388
101 *80:187 *116:137 0
102 *80:187 *116:145 0.0145237
103 *80:187 *118:177 5.93407e-05
104 *80:187 *691:11 0.00114401
105 *80:187 *704:35 0
106 *80:187 *734:51 0.0117348
107 *80:205 *118:201 0.000772119
108 *80:205 *120:23 0.00307666
109 *80:205 *662:13 0.000481154
110 *80:205 *675:13 0.000312012
111 *80:205 *704:39 0
112 *80:205 *734:67 0.000117814
113 *80:219 *118:205 0.000751087
114 *80:257 io_out[22] 0.0010925
115 *80:267 *118:249 0.0541993
116 *80:267 *119:29 0.0296728
117 *76:15 *80:23 0.00188792
*RES
1 *739:io_oeb_o[20] *80:21 20.7494 
2 *80:21 *80:23 659.732 
3 *80:23 *80:41 36.7769 
4 *80:41 *80:45 47.2493 
5 *80:45 *80:49 13.186 
6 *80:49 *80:51 52.3393 
7 *80:51 *80:65 34.8571 
8 *80:65 *80:67 105.161 
9 *80:67 *80:73 26.325 
10 *80:73 *80:75 71.1607 
11 *80:75 *80:83 46.6942 
12 *80:83 *80:97 35.7309 
13 *80:97 *80:105 41.9525 
14 *80:105 *80:113 23.9633 
15 *80:113 *80:115 157.375 
16 *80:115 *80:129 30.4611 
17 *80:129 *80:131 55.375 
18 *80:131 *80:145 41.4528 
19 *80:145 *80:153 42.6119 
20 *80:153 *80:161 25.6604 
21 *80:161 *80:169 33.728 
22 *80:169 *80:177 35.4793 
23 *80:177 *80:179 1762.05 
24 *80:179 *80:185 7.5156 
25 *80:185 *80:187 437.875 
26 *80:187 *80:205 31.8867 
27 *80:205 *80:219 47.2745 
28 *80:219 *80:229 10.815 
29 *80:229 *80:233 49.6779 
30 *80:233 *80:237 5.619 
31 *80:237 *80:239 46.875 
32 *80:239 *80:257 44.7286 
33 *80:257 *80:265 19.9814 
34 *80:265 *80:267 84.2929 
35 *80:267 io_oeb[20] 17.4368 
*END

*D_NET *81 0.805243
*CONN
*P io_oeb[21] O
*I *739:io_oeb_o[21] O *D ntt_wb_bridge
*CAP
1 io_oeb[21] 0.000647206
2 *739:io_oeb_o[21] 0.000893327
3 *81:27 0.0125025
4 *81:25 0.0118553
5 *81:23 0.0757907
6 *81:21 0.0759845
7 *81:15 0.0399269
8 *81:13 0.0406265
9 *81:13 *141:31 7.717e-05
10 *81:15 *93:19 0.00020357
11 *81:15 *99:21 0.000478632
12 *81:15 *101:19 0.00366231
13 *81:15 *105:15 0.00315552
14 *81:15 *106:19 0.00535905
15 *81:15 *108:19 0.00535544
16 *81:15 *108:27 0
17 *81:15 *109:23 0
18 *81:15 *110:13 0.0530204
19 *81:15 *122:13 0.10267
20 *81:15 *123:15 0.000897839
21 *81:15 *124:15 0.000441336
22 *81:15 *124:23 0.0280624
23 *81:15 *125:13 0.000347339
24 *81:15 *125:21 0.00235757
25 *81:15 *126:13 0
26 *81:15 *130:15 0
27 *81:15 *141:23 0.000506408
28 *81:21 *119:25 0.000109635
29 *81:21 *581:5 0
30 *81:23 *119:25 0
31 *81:23 *581:5 0.0171422
32 *81:23 *676:21 0.00151402
33 *81:23 *689:19 0
34 *81:23 *691:11 0.0105475
35 *81:23 *710:35 0.0690311
36 *81:23 *717:35 0.0236687
37 *81:23 *733:35 0.177255
38 *81:27 io_oeb[22] 6.83242e-05
39 *81:27 *119:29 0.0373869
40 *68:19 *81:15 0.000494384
41 *77:15 *81:15 0.00320298
*RES
1 *739:io_oeb_o[21] *81:13 19.1565 
2 *81:13 *81:15 1353.43 
3 *81:15 *81:21 8.45536 
4 *81:21 *81:23 3091.7 
5 *81:23 *81:25 3.41 
6 *81:25 *81:27 58.3489 
7 *81:27 io_oeb[21] 16.2225 
*END

*D_NET *82 0.760268
*CONN
*P io_oeb[22] O
*I *739:io_oeb_o[22] O *D ntt_wb_bridge
*CAP
1 io_oeb[22] 0.00335138
2 *739:io_oeb_o[22] 0.000458964
3 *82:25 0.0997881
4 *82:23 0.0964368
5 *82:21 0.0189224
6 *82:19 0.0189903
7 *82:13 0.0109239
8 *82:11 0.011315
9 io_oeb[22] *119:29 0.00258995
10 *82:11 *94:13 0.000104274
11 *82:11 *141:31 0.000135935
12 *82:13 *86:13 0.0734443
13 *82:13 *87:43 0.00060762
14 *82:13 *90:21 0.000110902
15 *82:13 *91:13 0.0588718
16 *82:13 *91:47 0.000536739
17 *82:13 *94:55 0.000865099
18 *82:13 *94:79 0.00101979
19 *82:13 *95:39 0.000235279
20 *82:13 *95:49 3.05782e-05
21 *82:13 *95:55 0.00136395
22 *82:13 *95:77 0.000225358
23 *82:13 *103:11 0.000147899
24 *82:13 *116:29 0.000230035
25 *82:13 *120:13 0
26 *82:13 *122:11 0.000108583
27 *82:13 *126:11 0.000122105
28 *82:13 *132:17 0.00011088
29 *82:13 *136:17 0.000130762
30 *82:13 *141:23 0.0001489
31 *82:13 *141:25 0.005931
32 *82:13 *141:31 0.000320578
33 *82:13 *143:13 0.000899981
34 *82:13 *143:25 0.000132088
35 *82:19 *325:19 0.000207565
36 *82:19 *327:35 0.000205858
37 *82:21 *86:29 0.0391893
38 *82:21 *87:53 0.0215511
39 *82:21 *610:15 0.0335687
40 *82:25 wbs_dat_o[13] 0.0240388
41 *82:25 *118:153 0
42 *82:25 *118:169 0
43 *82:25 *120:17 0.232587
44 *82:25 *662:15 0
45 *82:25 *675:15 0.000116642
46 *82:25 *695:35 0
47 *82:25 *718:19 0
48 *82:25 *725:35 0
49 *75:11 *82:13 0.000124543
50 *81:27 io_oeb[22] 6.83242e-05
*RES
1 *739:io_oeb_o[22] *82:11 8.92625 
2 *82:11 *82:13 696.286 
3 *82:13 *82:19 10.6154 
4 *82:19 *82:21 119.029 
5 *82:21 *82:23 3.41 
6 *82:23 *82:25 3078.95 
7 *82:25 io_oeb[22] 31.1579 
*END

*D_NET *83 0.65629
*CONN
*P io_oeb[23] O
*I *739:io_oeb_o[23] O *D ntt_wb_bridge
*CAP
1 io_oeb[23] 0.000720918
2 *739:io_oeb_o[23] 0.00141857
3 *83:31 0.0117899
4 *83:25 0.161875
5 *83:23 0.150806
6 *83:21 0.0176613
7 *83:19 0.017737
8 *83:13 0.0141044
9 *83:11 0.0154474
10 *83:11 *141:31 0.000121027
11 *83:13 io_oeb[37] 0.00387481
12 *83:13 *84:13 0.0749882
13 *83:13 *85:13 0.00021039
14 *83:13 *343:35 0.00971335
15 *83:13 *347:41 0.000474914
16 *83:13 *348:43 0.0497436
17 *83:13 *349:43 0.00118715
18 *83:13 *352:27 0.00749544
19 *83:19 *332:11 0.000202474
20 *83:19 *336:23 0.000204134
21 *83:21 io_oeb[37] 0.000413621
22 *83:21 *85:21 0.0757464
23 *83:21 *93:19 0.0386867
24 *83:21 *124:23 0.000521943
25 *83:25 *545:5 0
26 *70:20 *83:13 0.00114476
*RES
1 *739:io_oeb_o[23] *83:11 25.6819 
2 *83:11 *83:13 727.089 
3 *83:13 *83:19 10.6154 
4 *83:19 *83:21 122.777 
5 *83:21 *83:23 3.41 
6 *83:23 *83:25 3095.95 
7 *83:25 *83:31 41.0266 
8 *83:31 io_oeb[23] 14.6339 
*END

*D_NET *84 0.835494
*CONN
*P io_oeb[24] O
*I *739:io_oeb_o[24] O *D ntt_wb_bridge
*CAP
1 io_oeb[24] 0.0148681
2 *739:io_oeb_o[24] 0.00128154
3 *84:37 0.0874899
4 *84:35 0.0730075
5 *84:29 0.044228
6 *84:27 0.0439542
7 *84:21 0.013912
8 *84:19 0.0138509
9 *84:13 0.00941978
10 *84:11 0.0106504
11 *84:11 *141:33 9.07814e-05
12 *84:13 io_oeb[37] 0.0034754
13 *84:13 *85:13 0.0762871
14 *84:13 *342:51 0.00865138
15 *84:13 *352:27 0.00482509
16 *84:19 *320:31 8.34352e-05
17 *84:19 *325:29 8.19176e-05
18 *84:21 io_oeb[37] 0.0752986
19 *84:21 *85:21 0.0748718
20 *84:21 *93:19 3.29586e-05
21 *84:21 *135:14 0.000220276
22 *84:27 *547:5 0
23 *84:29 *86:33 0.0838285
24 *84:29 *92:25 0.00920982
25 *84:29 *93:23 0.0124968
26 *84:29 *121:31 0.000164884
27 *84:29 *547:5 0
28 *84:29 *580:5 0
29 *84:29 *662:15 0
30 *84:35 io_oeb[31] 0.000102153
31 *84:37 *86:41 0.0981224
32 *83:13 *84:13 0.0749882
*RES
1 *739:io_oeb_o[24] *84:11 25.1339 
2 *84:11 *84:13 721.339 
3 *84:13 *84:19 9.0975 
4 *84:19 *84:21 120.11 
5 *84:21 *84:27 5.42786 
6 *84:27 *84:29 1275.59 
7 *84:29 *84:35 7.8399 
8 *84:35 *84:37 286.409 
9 *84:37 io_oeb[24] 48.6914 
*END

*D_NET *85 0.705396
*CONN
*P io_oeb[25] O
*I *739:io_oeb_o[25] O *D ntt_wb_bridge
*CAP
1 io_oeb[25] 0.0139335
2 *739:io_oeb_o[25] 0.00129478
3 *85:25 0.169494
4 *85:23 0.155561
5 *85:21 0.0142666
6 *85:19 0.0143578
7 *85:13 0.0119391
8 *85:11 0.0131427
9 *85:11 *141:33 0.000116217
10 *85:13 io_oeb[37] 0.00322627
11 *85:13 *107:18 0.00156593
12 *85:13 *342:51 0.00933737
13 *85:13 *347:41 0.0471676
14 *85:13 *352:27 0.00558737
15 *85:19 *342:47 0.00010326
16 *85:21 io_oeb[37] 0.00124513
17 *85:21 *93:19 0.000436351
18 *85:25 *546:5 0.000880878
19 *70:22 *85:13 0.0139095
20 *71:22 *85:13 0.000714125
21 *83:13 *85:13 0.00021039
22 *83:21 *85:21 0.0757464
23 *84:13 *85:13 0.0762871
24 *84:21 *85:21 0.0748718
*RES
1 *739:io_oeb_o[25] *85:11 24.9086 
2 *85:11 *85:13 739.411 
3 *85:13 *85:19 9.40107 
4 *85:19 *85:21 123.173 
5 *85:21 *85:23 3.41 
6 *85:23 *85:25 469.539 
7 *85:25 io_oeb[25] 45.8087 
*END

*D_NET *86 0.710384
*CONN
*P io_oeb[26] O
*I *739:io_oeb_o[26] O *D ntt_wb_bridge
*CAP
1 io_oeb[26] 0.0159874
2 *739:io_oeb_o[26] 0.000188957
3 *86:41 0.0523087
4 *86:39 0.0366151
5 *86:33 0.0320712
6 *86:31 0.0317773
7 *86:29 0.0313615
8 *86:27 0.0318717
9 *86:13 0.0102571
10 *86:11 0.00993577
11 *86:11 *87:13 0.000108286
12 *86:11 *91:13 0.000113995
13 *86:11 *94:13 0.000118855
14 *86:11 *141:33 0.000318388
15 *86:13 *87:51 0.00141342
16 *86:13 *90:21 0.00010104
17 *86:13 *91:13 0.00253024
18 *86:13 *91:47 0.000341488
19 *86:13 *94:13 0.0660917
20 *86:13 *95:39 0.000214358
21 *86:13 *95:77 0.000174638
22 *86:13 *103:11 0.000147899
23 *86:13 *116:29 0.00073026
24 *86:13 *122:11 0.000108583
25 *86:13 *126:11 0.000122105
26 *86:13 *132:17 0.00010102
27 *86:13 *136:17 0.000119135
28 *86:13 *141:23 0.000135659
29 *86:13 *141:25 0.00414941
30 *86:13 *141:31 0.000417769
31 *86:13 *141:33 0.00016596
32 *86:13 *143:13 0.000599816
33 *86:13 *143:25 0.000120342
34 *86:13 *351:39 0.00358279
35 *86:27 *325:19 6.97592e-05
36 *86:27 *327:35 6.8099e-05
37 *86:27 *351:39 0
38 *86:29 *610:15 0.000229699
39 *86:33 *93:23 0.026954
40 *86:33 *547:5 0
41 *86:39 io_oeb[32] 0.000143841
42 *86:41 *87:57 0.0527458
43 *86:41 *661:11 0
44 *75:11 *86:13 0.000124543
45 *80:41 *86:29 0.00106151
46 *82:13 *86:13 0.0734443
47 *82:21 *86:29 0.0391893
48 *84:29 *86:33 0.0838285
49 *84:37 *86:41 0.0981224
*RES
1 *739:io_oeb_o[26] *86:11 9.02965 
2 *86:11 *86:13 733.661 
3 *86:13 *86:27 26.5261 
4 *86:27 *86:29 120.182 
5 *86:29 *86:31 3.41 
6 *86:31 *86:33 1029.23 
7 *86:33 *86:39 7.6237 
8 *86:39 *86:41 244.754 
9 *86:41 io_oeb[26] 48.8355 
*END

*D_NET *87 0.70809
*CONN
*P io_oeb[27] O
*I *739:io_oeb_o[27] O *D ntt_wb_bridge
*CAP
1 io_oeb[27] 0.0151491
2 *739:io_oeb_o[27] 0.000232158
3 *87:57 0.0900588
4 *87:55 0.0749097
5 *87:53 0.0167844
6 *87:51 0.0170484
7 *87:43 0.00303393
8 *87:13 0.011396
9 *87:11 0.00885821
10 *87:11 *141:33 0.000150433
11 *87:13 *91:47 0.000243648
12 *87:13 *94:13 0.0667977
13 *87:13 *95:39 0.000144402
14 *87:13 *103:11 0.000152969
15 *87:13 *118:11 0.00010104
16 *87:13 *122:11 0.000114324
17 *87:13 *126:11 0.000127608
18 *87:13 *141:25 0.00243909
19 *87:13 *141:33 0.000124027
20 *87:13 *143:13 0.000360225
21 *87:13 *143:43 0.0143118
22 *87:13 *351:39 0.0406821
23 *87:43 *91:47 0.00527922
24 *87:43 *94:55 0.00411006
25 *87:43 *94:79 0.00341831
26 *87:43 *95:77 0.00217078
27 *87:43 *106:19 0.000449812
28 *87:43 *128:19 1.89026e-05
29 *87:43 *137:11 3.09899e-05
30 *87:43 *138:11 4.31094e-05
31 *87:43 *139:15 3.31408e-05
32 *87:43 *140:19 3.75635e-05
33 *87:43 *141:23 0
34 *87:51 *95:77 0.000133977
35 *87:51 *351:39 0.0007653
36 *87:53 *91:47 0.000594011
37 *87:53 *91:49 0.0765017
38 *87:53 *95:79 1.94276e-05
39 *87:53 *116:29 0.0087953
40 *87:53 *610:15 0.0345703
41 *87:57 *91:53 0.125463
42 *87:57 *547:5 0.0058788
43 *87:57 *661:11 0
44 *75:11 *87:13 0.000130024
45 *82:13 *87:43 0.00060762
46 *82:21 *87:53 0.0215511
47 *86:11 *87:13 0.000108286
48 *86:13 *87:51 0.00141342
49 *86:41 *87:57 0.0527458
*RES
1 *739:io_oeb_o[27] *87:11 8.78525 
2 *87:11 *87:13 631.393 
3 *87:13 *87:43 42.0165 
4 *87:43 *87:51 22.0618 
5 *87:51 *87:53 124.398 
6 *87:53 *87:55 3.41 
7 *87:55 *87:57 384.952 
8 *87:57 io_oeb[27] 49.1238 
*END

*D_NET *88 0.729269
*CONN
*P io_oeb[28] O
*I *739:io_oeb_o[28] O *D ntt_wb_bridge
*CAP
1 io_oeb[28] 0.00136242
2 *739:io_oeb_o[28] 0.000547063
3 *88:29 0.0394093
4 *88:27 0.0380469
5 *88:25 0.0059608
6 *88:23 0.00613748
7 *88:17 0.0464625
8 *88:15 0.0468329
9 *88:15 *141:33 0.00012984
10 *88:17 *89:13 0.0168923
11 *88:17 *111:31 0.0569102
12 *88:17 *112:29 0.0530633
13 *88:17 *120:13 0
14 *88:17 *121:21 0
15 *88:17 *128:21 0.0150801
16 *88:17 *130:23 0
17 *88:17 *130:31 0.015442
18 *88:25 *95:79 0.0375973
19 *88:25 *131:25 0.0376051
20 *88:29 *89:25 0.145666
21 *88:29 *123:27 0.165209
22 *88:29 *575:13 0.000914777
*RES
1 *739:io_oeb_o[28] *88:15 14.0587 
2 *88:15 *88:17 1355.07 
3 *88:17 *88:23 10.6154 
4 *88:23 *88:25 58.9615 
5 *88:25 *88:27 3.41 
6 *88:27 *88:29 344.682 
7 *88:29 io_oeb[28] 7.03683 
*END

*D_NET *89 0.680484
*CONN
*P io_oeb[29] O
*I *739:io_oeb_o[29] O *D ntt_wb_bridge
*CAP
1 io_oeb[29] 0.00136825
2 *739:io_oeb_o[29] 0.000375397
3 *89:25 0.0704315
4 *89:23 0.0690632
5 *89:21 0.0182451
6 *89:19 0.0183272
7 *89:13 0.0120638
8 *89:11 0.0123571
9 *89:11 *141:33 5.40795e-05
10 *89:13 *92:13 0.0767841
11 *89:13 *106:21 0.0147549
12 *89:13 *112:29 0.0545511
13 *89:13 *120:13 0
14 *89:13 *130:31 0.00202046
15 *89:13 *133:27 0.00185815
16 *89:21 *92:21 0.0420139
17 *89:21 *121:31 0.0174844
18 *89:21 *122:23 0.001795
19 *89:21 *130:31 0.101288
20 *89:25 *123:27 0.000122836
21 *80:23 *89:13 0.00296689
22 *88:17 *89:13 0.0168923
23 *88:29 *89:25 0.145666
*RES
1 *739:io_oeb_o[29] *89:11 12.5903 
2 *89:11 *89:13 802.25 
3 *89:13 *89:19 9.0975 
4 *89:19 *89:21 158.269 
5 *89:21 *89:23 3.41 
6 *89:23 *89:25 304.413 
7 *89:25 io_oeb[29] 7.18097 
*END

*D_NET *90 0.40775
*CONN
*P io_oeb[2] O
*I *739:io_oeb_o[2] O *D ntt_wb_bridge
*CAP
1 io_oeb[2] 0.000926541
2 *739:io_oeb_o[2] 0.00186415
3 *90:27 0.0160363
4 *90:25 0.0151098
5 *90:23 0.0185917
6 *90:21 0.0204558
7 *90:21 *100:21 0.00136378
8 *90:21 *109:23 0.000435167
9 *90:21 *117:18 0.00337984
10 *90:21 *141:25 0.000530401
11 *90:21 *142:15 0.000403561
12 *90:21 *143:41 0.000101769
13 *90:23 *92:13 0.00624798
14 *90:23 *100:23 0.12379
15 *90:23 *106:21 0.126535
16 *90:23 *113:13 0.000142975
17 *90:23 *114:13 0.000372176
18 *90:23 *115:13 0.000480268
19 *90:23 *128:21 0.000108891
20 *90:23 *141:25 0.000529531
21 *90:27 io_out[0] 4.66249e-05
22 *90:27 *99:31 0.0388727
23 *90:27 *101:31 0.00665391
24 *90:27 *128:25 0.00804781
25 *90:27 *141:37 0.00720106
26 io_oeb[0] *90:27 0.00458492
27 *68:19 *90:21 0.00113784
28 *80:23 *90:23 0.00358714
29 *82:13 *90:21 0.000110902
30 *86:13 *90:21 0.00010104
*RES
1 *739:io_oeb_o[2] *90:21 28.7094 
2 *90:21 *90:23 197.654 
3 *90:23 *90:25 3.41 
4 *90:25 *90:27 81.2254 
5 *90:27 io_oeb[2] 5.88377 
*END

*D_NET *91 0.633818
*CONN
*P io_oeb[30] O
*I *739:io_oeb_o[30] O *D ntt_wb_bridge
*CAP
1 io_oeb[30] 0.0153442
2 *739:io_oeb_o[30] 0.000268596
3 *91:53 0.0460456
4 *91:51 0.0307014
5 *91:49 0.0168909
6 *91:47 0.020242
7 *91:13 0.0217618
8 *91:11 0.0186793
9 *91:11 *94:13 0.000133435
10 *91:11 *141:33 0.000357447
11 *91:13 *94:13 0.00180466
12 *91:13 *95:39 0.000210406
13 *91:13 *103:11 0.000159482
14 *91:13 *113:13 0
15 *91:13 *118:11 0.000102507
16 *91:13 *120:13 0
17 *91:13 *122:11 0.000117087
18 *91:13 *126:11 0.000131668
19 *91:13 *136:17 0.00011348
20 *91:13 *141:23 0.000126797
21 *91:13 *141:25 0.00691114
22 *91:13 *141:31 0.000679935
23 *91:13 *141:33 0.00104015
24 *91:13 *143:13 0.00103208
25 *91:13 *143:25 0.00393045
26 *91:47 *94:13 0.000286576
27 *91:47 *94:79 0.00144972
28 *91:47 *94:81 6.74684e-05
29 *91:47 *95:39 0.00212095
30 *91:47 *95:55 0.0010719
31 *91:47 *95:77 0.00558844
32 *91:47 *116:27 0
33 *91:47 *131:25 0.00874629
34 *91:47 *141:23 9.55055e-05
35 *91:47 *142:13 0.000124431
36 *91:49 *94:81 0.0242271
37 *91:49 *95:79 0.000489237
38 *91:49 *116:29 0.00807617
39 *91:49 *118:23 0.00572107
40 *91:53 *92:25 0.10591
41 *91:53 *661:11 0
42 *75:11 *91:13 0.000134297
43 *78:13 *91:13 0.0118434
44 *80:41 *91:49 0.000605363
45 *82:13 *91:13 0.0588718
46 *82:13 *91:47 0.000536739
47 *86:11 *91:13 0.000113995
48 *86:13 *91:13 0.00253024
49 *86:13 *91:47 0.000341488
50 *87:13 *91:47 0.000243648
51 *87:43 *91:47 0.00527922
52 *87:53 *91:47 0.000594011
53 *87:53 *91:49 0.0765017
54 *87:57 *91:53 0.125463
*RES
1 *739:io_oeb_o[30] *91:11 9.43662 
2 *91:11 *91:13 640.429 
3 *91:13 *91:47 41.3164 
4 *91:47 *91:49 122.128 
5 *91:49 *91:51 3.41 
6 *91:51 *91:53 262.545 
7 *91:53 io_oeb[30] 49.2679 
*END

*D_NET *92 0.633061
*CONN
*P io_oeb[31] O
*I *739:io_oeb_o[31] O *D ntt_wb_bridge
*CAP
1 io_oeb[31] 0.0153926
2 *739:io_oeb_o[31] 0.000507083
3 *92:25 0.0419621
4 *92:23 0.0265696
5 *92:21 0.0152463
6 *92:19 0.015423
7 *92:13 0.00986629
8 *92:11 0.0101966
9 *92:11 *141:33 0.00026122
10 *92:13 *106:21 0.00344724
11 *92:13 *112:29 0.00102614
12 *92:13 *133:27 0.00676625
13 *92:21 *96:23 0.0724291
14 *92:21 *97:15 0.00865925
15 *92:21 *121:31 0.000133908
16 *92:21 *122:23 0.000558233
17 *92:21 *130:31 0.000105933
18 *92:21 *132:19 0.00253985
19 *92:25 *93:23 0.086913
20 *92:25 *661:11 0.00231774
21 *76:15 *92:13 0.00765163
22 *80:23 *92:13 0.0648203
23 *84:29 *92:25 0.00920982
24 *84:35 io_oeb[31] 0.000102153
25 *89:13 *92:13 0.0767841
26 *89:21 *92:21 0.0420139
27 *90:23 *92:13 0.00624798
28 *91:53 *92:25 0.10591
*RES
1 *739:io_oeb_o[31] *92:11 12.8351 
2 *92:11 *92:13 739.411 
3 *92:13 *92:19 10.6154 
4 *92:19 *92:21 130.091 
5 *92:21 *92:23 3.41 
6 *92:23 *92:25 222.915 
7 *92:25 io_oeb[31] 49.412 
*END

*D_NET *93 0.541839
*CONN
*P io_oeb[32] O
*I *739:io_oeb_o[32] O *D ntt_wb_bridge
*CAP
1 io_oeb[32] 0.0163747
2 *739:io_oeb_o[32] 0.00104108
3 *93:23 0.0576913
4 *93:21 0.0413166
5 *93:19 0.0405833
6 *93:17 0.0416244
7 *93:17 *95:19 5.36757e-05
8 *93:17 *101:19 0.000189974
9 *93:17 *141:33 0.000169435
10 *93:19 *95:19 0.0564519
11 *93:19 *99:17 0.000414501
12 *93:19 *99:21 0.0154768
13 *93:19 *101:19 0.00137023
14 *93:19 *107:16 0.000189979
15 *93:19 *108:19 0.00121514
16 *93:19 *119:21 0.0369211
17 *93:19 *124:23 0.00073164
18 *93:19 *129:15 0.0438863
19 *93:19 *135:14 0.0105688
20 *93:19 *136:17 0.00250293
21 *93:19 *136:25 0.000354853
22 *93:19 *140:19 0.000243235
23 *93:23 *580:5 0.00198957
24 *93:23 *661:11 0.00256981
25 *93:23 *664:11 0.00204008
26 *93:23 *688:11 0
27 *81:15 *93:19 0.00020357
28 *83:21 *93:19 0.0386867
29 *84:21 *93:19 3.29586e-05
30 *84:29 *93:23 0.0124968
31 *85:21 *93:19 0.000436351
32 *86:33 *93:23 0.026954
33 *86:39 io_oeb[32] 0.000143841
34 *92:25 *93:23 0.086913
*RES
1 *739:io_oeb_o[32] *93:17 19.4348 
2 *93:17 *93:19 261.793 
3 *93:19 *93:21 3.41 
4 *93:21 *93:23 183.284 
5 *93:23 io_oeb[32] 49.5562 
*END

*D_NET *94 0.466595
*CONN
*P io_oeb[33] O
*I *739:io_oeb_o[33] O *D ntt_wb_bridge
*CAP
1 io_oeb[33] 0.0168125
2 *739:io_oeb_o[33] 8.64947e-05
3 *94:87 0.0168125
4 *94:85 0.0461193
5 *94:83 0.0461193
6 *94:81 0.0146845
7 *94:79 0.0164822
8 *94:55 0.00357546
9 *94:13 0.0113415
10 *94:11 0.00965021
11 *94:11 *141:33 5.35573e-05
12 *94:13 *95:39 0.00018634
13 *94:13 *103:11 0.000167899
14 *94:13 *110:11 0.000101623
15 *94:13 *118:11 0.000110902
16 *94:13 *122:11 0.000125482
17 *94:13 *126:11 0.000140063
18 *94:13 *136:17 0.000109355
19 *94:13 *141:23 0.000117928
20 *94:13 *141:25 0.00260642
21 *94:13 *141:31 0.000418995
22 *94:13 *141:33 0.000580523
23 *94:13 *143:13 0.00036979
24 *94:13 *143:25 0.00010743
25 *94:13 *143:43 0.00267075
26 *94:13 *351:39 0.000139146
27 *94:55 *137:11 4.98422e-05
28 *94:55 *138:11 6.58294e-06
29 *94:55 *139:15 9.61096e-05
30 *94:55 *140:19 0.000359948
31 *94:79 *95:77 0.0047557
32 *94:79 *106:19 3.43244e-05
33 *94:79 *120:13 0
34 *94:79 *128:19 5.66375e-05
35 *94:79 *131:25 0.00077585
36 *94:81 *95:79 0.0762429
37 *94:81 *118:23 0.0109593
38 *94:81 *131:25 1.53584e-05
39 *94:85 *581:5 0.00397915
40 *94:85 *701:22 0.000394846
41 *94:85 *716:27 0.00550205
42 *94:85 *717:27 0.000664112
43 *94:85 *726:27 4.39428e-05
44 *94:85 *729:27 0.000607793
45 *94:85 *729:35 0.000436037
46 *74:11 *94:13 0.000108251
47 *75:11 *94:13 0.000142714
48 *78:13 *94:13 0.00117914
49 *82:11 *94:13 0.000104274
50 *82:13 *94:55 0.000865099
51 *82:13 *94:79 0.00101979
52 *86:11 *94:13 0.000118855
53 *86:13 *94:13 0.0660917
54 *87:13 *94:13 0.0667977
55 *87:43 *94:55 0.00411006
56 *87:43 *94:79 0.00341831
57 *91:11 *94:13 0.000133435
58 *91:13 *94:13 0.00180466
59 *91:47 *94:13 0.000286576
60 *91:47 *94:79 0.00144972
61 *91:47 *94:81 6.74684e-05
62 *91:49 *94:81 0.0242271
*RES
1 *739:io_oeb_o[33] *94:11 8.39985 
2 *94:11 *94:13 701.625 
3 *94:13 *94:55 49.0173 
4 *94:55 *94:79 40.0643 
5 *94:79 *94:81 119.245 
6 *94:81 *94:83 3.41 
7 *94:83 *94:85 140.245 
8 *94:85 *94:87 3.41 
9 *94:87 io_oeb[33] 48.8847 
*END

*D_NET *95 0.495232
*CONN
*P io_oeb[34] O
*I *739:io_oeb_o[34] O *D ntt_wb_bridge
*CAP
1 io_oeb[34] 0.00108217
2 *739:io_oeb_o[34] 0.00147962
3 *95:83 0.0217144
4 *95:81 0.0206322
5 *95:79 0.0235138
6 *95:77 0.0249757
7 *95:55 0.00259623
8 *95:49 0.00126873
9 *95:39 0.00523271
10 *95:19 0.0176447
11 *95:17 0.014026
12 *95:17 *101:19 0.000739009
13 *95:17 *110:13 0.000155726
14 *95:17 *141:33 0.000659133
15 *95:19 io_oeb[37] 0.000819958
16 *95:19 *101:19 0.000272226
17 *95:19 *107:18 0.000654729
18 *95:19 *135:14 0.00834341
19 *95:19 *140:21 0.000753171
20 *95:39 *113:13 0.000494396
21 *95:39 *116:19 0.00160141
22 *95:39 *120:11 0
23 *95:39 *120:13 0.00208028
24 *95:39 *131:25 0.00290715
25 *95:39 *133:27 5.91641e-05
26 *95:39 *136:27 0.00254458
27 *95:39 *141:23 5.0303e-05
28 *95:39 *141:25 0.0099254
29 *95:39 *143:13 0.00717919
30 *95:39 *143:35 0.00388456
31 *95:49 *120:13 0.000118635
32 *95:55 *120:13 0.00136052
33 *95:79 *131:25 0.0384331
34 *95:79 *610:15 0
35 *95:83 *122:25 0.018691
36 *95:83 *123:27 0
37 *95:83 *130:35 0.00146268
38 *95:83 *131:29 0.0477031
39 *71:20 *95:19 4.73891e-05
40 *72:23 *95:19 0.000138345
41 *73:18 *95:19 0.000321357
42 *79:13 *95:17 0.000106902
43 *79:13 *95:19 0.0200778
44 *82:13 *95:39 0.000235279
45 *82:13 *95:49 3.05782e-05
46 *82:13 *95:55 0.00136395
47 *82:13 *95:77 0.000225358
48 *86:13 *95:39 0.000214358
49 *86:13 *95:77 0.000174638
50 *87:13 *95:39 0.000144402
51 *87:43 *95:77 0.00217078
52 *87:51 *95:77 0.000133977
53 *87:53 *95:79 1.94276e-05
54 *88:25 *95:79 0.0375973
55 *91:13 *95:39 0.000210406
56 *91:47 *95:39 0.00212095
57 *91:47 *95:55 0.0010719
58 *91:47 *95:77 0.00558844
59 *91:49 *95:79 0.000489237
60 *93:17 *95:19 5.36757e-05
61 *93:19 *95:19 0.0564519
62 *94:13 *95:39 0.00018634
63 *94:79 *95:77 0.0047557
64 *94:81 *95:79 0.0762429
*RES
1 *739:io_oeb_o[34] *95:17 21.2145 
2 *95:17 *95:19 91.8599 
3 *95:19 *95:39 48.5107 
4 *95:39 *95:49 11.41 
5 *95:49 *95:55 48.9464 
6 *95:55 *95:77 32.0605 
7 *95:77 *95:79 165.26 
8 *95:79 *95:81 3.41 
9 *95:81 *95:83 99.5491 
10 *95:83 io_oeb[34] 6.17203 
*END

*D_NET *96 0.395806
*CONN
*P io_oeb[35] O
*I *739:io_oeb_o[35] O *D ntt_wb_bridge
*CAP
1 io_oeb[35] 0.0191358
2 *739:io_oeb_o[35] 0.000399805
3 *96:29 0.0191358
4 *96:27 0.0197075
5 *96:25 0.0197075
6 *96:23 0.0284148
7 *96:21 0.0285666
8 *96:15 0.00103159
9 *96:13 0.00127953
10 io_oeb[35] *605:9 0
11 io_oeb[35] *606:9 0.00521787
12 *96:13 *141:33 0.000114378
13 *96:15 *111:31 0.00766813
14 *96:15 *112:29 0.00766621
15 *96:15 *128:21 0.00174785
16 *96:23 *97:15 0.0454034
17 *96:23 *117:18 0.0803399
18 *96:23 *132:19 0.026825
19 *96:27 *586:5 0.0110149
20 *77:29 *96:13 0
21 *92:21 *96:23 0.0724291
*RES
1 *739:io_oeb_o[35] *96:13 12.747 
2 *96:13 *96:15 72 
3 *96:15 *96:21 10.3118 
4 *96:21 *96:23 238.408 
5 *96:23 *96:25 3.41 
6 *96:25 *96:27 59.7057 
7 *96:27 *96:29 3.41 
8 *96:29 io_oeb[35] 63.0098 
*END

*D_NET *97 0.353184
*CONN
*P io_oeb[36] O
*I *739:io_oeb_o[36] O *D ntt_wb_bridge
*CAP
1 io_oeb[36] 0.0422335
2 *739:io_oeb_o[36] 0.000559926
3 *97:21 0.0577721
4 *97:15 0.0333212
5 *97:13 0.0183425
6 io_oeb[36] *544:9 0
7 io_oeb[36] *545:9 0.0442951
8 *97:13 *141:33 0.000258231
9 *97:15 *117:18 0.00348274
10 *97:15 *128:21 0.0802608
11 *97:15 *130:31 0.0100501
12 *97:21 *129:19 0
13 *97:21 *134:21 0
14 *97:21 *304:25 0.0013261
15 *97:21 *336:23 0.000379687
16 *97:21 *337:41 0.00263283
17 *97:21 *338:39 0.000379687
18 *97:21 *339:39 0.00243373
19 *97:21 *345:35 0.000379687
20 *97:21 *347:37 0.000633624
21 *97:21 *349:39 0.000379687
22 *92:21 *97:15 0.00865925
23 *96:23 *97:15 0.0454034
*RES
1 *739:io_oeb_o[36] *97:13 8.36003 
2 *97:13 *97:15 153.261 
3 *97:15 *97:21 35.631 
4 *97:21 io_oeb[36] 162.462 
*END

*D_NET *98 0.408482
*CONN
*P io_oeb[37] O
*I *739:io_oeb_o[37] O *D ntt_wb_bridge
*CAP
1 io_oeb[37] 0.0653297
2 *739:io_oeb_o[37] 0.00128676
3 *98:12 0.0666165
4 io_oeb[37] *123:23 0
5 io_oeb[37] *124:23 0
6 io_oeb[37] *134:17 0.000779656
7 io_oeb[37] *135:14 0.0256724
8 io_oeb[37] *138:13 0
9 io_oeb[37] *339:43 0.000144798
10 io_oeb[37] *340:39 8.39548e-05
11 io_oeb[37] *342:51 0.0422394
12 io_oeb[37] *343:35 0.0014414
13 io_oeb[37] *346:41 0.0104976
14 io_oeb[37] *347:41 0.0100838
15 io_oeb[37] *348:43 0.00121525
16 io_oeb[37] *349:43 0.00135553
17 io_oeb[37] *352:27 0.0379961
18 io_oeb[37] *353:27 0.0362713
19 *70:22 io_oeb[37] 0.00893081
20 *71:22 io_oeb[37] 0.00643245
21 *79:13 io_oeb[37] 0.00375136
22 *83:13 io_oeb[37] 0.00387481
23 *83:21 io_oeb[37] 0.000413621
24 *84:13 io_oeb[37] 0.0034754
25 *84:21 io_oeb[37] 0.0752986
26 *85:13 io_oeb[37] 0.00322627
27 *85:21 io_oeb[37] 0.00124513
28 *95:19 io_oeb[37] 0.000819958
*RES
1 *739:io_oeb_o[37] *98:12 9.86873 
2 *98:12 io_oeb[37] 317.982 
*END

*D_NET *99 0.409262
*CONN
*P io_oeb[3] O
*I *739:io_oeb_o[3] O *D ntt_wb_bridge
*CAP
1 io_oeb[3] 0.000988043
2 *739:io_oeb_o[3] 0.00121732
3 *99:31 0.0264761
4 *99:29 0.025488
5 *99:27 0.0192426
6 *99:25 0.0199578
7 *99:21 0.00717443
8 *99:17 0.0076765
9 *99:17 *108:19 0.00133465
10 *99:17 *110:13 0.000262218
11 *99:17 *141:25 0.000104175
12 *99:21 *101:17 5.901e-05
13 *99:21 *101:19 0.0266755
14 *99:21 *108:19 0.0012561
15 *99:21 *110:13 0.00650069
16 *99:27 *100:23 0.0980826
17 *99:27 *103:13 0.0163841
18 *99:27 *113:13 0.0119384
19 *99:27 *114:13 0.00258518
20 *99:27 *141:33 0.0293042
21 *99:31 io_out[0] 0.00383582
22 *99:31 *101:31 0.000736604
23 *99:31 *111:35 0.0230088
24 *99:31 *143:47 0.0128691
25 *77:33 *99:27 0.0108612
26 *81:15 *99:21 0.000478632
27 *90:27 *99:31 0.0388727
28 *93:19 *99:17 0.000414501
29 *93:19 *99:21 0.0154768
*RES
1 *739:io_oeb_o[3] *99:17 20.4225 
2 *99:17 *99:21 49.94 
3 *99:21 *99:25 5.055 
4 *99:25 *99:27 152.972 
5 *99:27 *99:29 3.41 
6 *99:29 *99:31 112.227 
7 *99:31 io_oeb[3] 6.0279 
*END

*D_NET *100 0.393622
*CONN
*P io_oeb[4] O
*I *739:io_oeb_o[4] O *D ntt_wb_bridge
*CAP
1 io_oeb[4] 0.00075461
2 *739:io_oeb_o[4] 0.00174067
3 *100:31 0.0290249
4 *100:29 0.0284496
5 *100:23 0.0195965
6 *100:21 0.021158
7 *100:21 la_data_out[56] 0.000652782
8 *100:21 *109:23 0.000841786
9 *100:21 *117:18 0.00160874
10 *100:21 *141:25 0.000122527
11 *100:21 *142:15 0.000907714
12 *100:23 *103:13 0.00400674
13 *100:23 *113:13 0.00173602
14 *100:23 *114:13 0.00471704
15 *100:23 *115:13 0.00829535
16 *100:23 *141:25 0.00289163
17 *100:23 *141:31 0.00301677
18 *100:23 *141:33 0.00154377
19 *100:29 *128:21 1.72415e-05
20 *100:29 *141:33 1.47728e-05
21 *100:31 user_irq[0] 0.000832575
22 *100:31 *101:31 0.0259504
23 *100:31 *128:25 0
24 io_oeb[0] *100:31 0.00206102
25 *68:19 *100:21 0.00428261
26 *68:27 *100:29 0
27 *76:15 *100:23 0.00533058
28 *80:21 *100:23 0.000831134
29 *90:21 *100:21 0.00136378
30 *90:23 *100:23 0.12379
31 *99:27 *100:23 0.0980826
*RES
1 *739:io_oeb_o[4] *100:21 30.3067 
2 *100:21 *100:23 193.042 
3 *100:23 *100:29 4.0069 
4 *100:29 *100:31 817.339 
5 *100:31 io_oeb[4] 5.4874 
*END

*D_NET *101 0.455762
*CONN
*P io_oeb[5] O
*I *739:io_oeb_o[5] O *D ntt_wb_bridge
*CAP
1 io_oeb[5] 0.000818999
2 *739:io_oeb_o[5] 0.00128603
3 *101:31 0.0206017
4 *101:29 0.0197827
5 *101:27 0.0231647
6 *101:25 0.024045
7 *101:19 0.00832221
8 *101:17 0.00872789
9 *101:17 *108:19 0.00107429
10 *101:17 *141:25 0.000322261
11 *101:19 *102:17 0.00118241
12 *101:19 *102:19 0.0370055
13 *101:19 *110:13 0.00108399
14 *101:27 *143:43 0.0310162
15 *101:27 *282:23 0.0477437
16 *101:31 *102:31 0.00313415
17 *101:31 *105:27 0.019562
18 *101:31 *128:25 0.0324504
19 *101:31 *141:37 0.0161852
20 io_oeb[0] *101:31 0.00204868
21 *68:19 *101:17 0.0012823
22 *68:19 *101:19 3.34733e-05
23 *68:25 *101:25 0.000849257
24 *68:27 *101:27 0.0845037
25 *77:15 *101:19 0.00270306
26 *78:23 *101:27 0.000523345
27 *79:13 *101:19 0
28 *81:15 *101:19 0.00366231
29 *90:27 *101:31 0.00665391
30 *93:17 *101:19 0.000189974
31 *93:19 *101:19 0.00137023
32 *95:17 *101:19 0.000739009
33 *95:19 *101:19 0.000272226
34 *99:21 *101:17 5.901e-05
35 *99:21 *101:19 0.0266755
36 *99:31 *101:31 0.000736604
37 *100:31 *101:31 0.0259504
*RES
1 *739:io_oeb_o[5] *101:17 19.5874 
2 *101:17 *101:19 61.0154 
3 *101:19 *101:25 9.1042 
4 *101:25 *101:27 134.704 
5 *101:27 *101:29 3.41 
6 *101:29 *101:31 990.982 
7 *101:31 io_oeb[5] 5.7036 
*END

*D_NET *102 0.458773
*CONN
*P io_oeb[6] O
*I *739:io_oeb_o[6] O *D ntt_wb_bridge
*CAP
1 io_oeb[6] 0.000966169
2 *739:io_oeb_o[6] 0.00149424
3 *102:31 0.0246745
4 *102:29 0.0237083
5 *102:27 0.0301459
6 *102:25 0.0301459
7 *102:23 0.0460531
8 *102:21 0.0460531
9 *102:19 0.00838755
10 *102:17 0.00988179
11 *102:17 *141:25 0.000487537
12 *102:19 *104:19 0.00151413
13 *102:19 *105:15 0.00055246
14 *102:19 *110:13 0.000212929
15 *102:19 *353:27 0
16 *102:23 la_data_out[82] 0.00656095
17 *102:23 *739:mem_rdata_i[30] 0.00642401
18 *102:23 *365:23 0.0114406
19 *102:23 *371:27 0.0118267
20 *102:23 *381:29 0.0123437
21 *102:23 *699:11 0
22 *102:23 *733:19 0.0115933
23 *102:27 *352:21 0.00161521
24 *102:27 *353:21 9.77021e-06
25 *102:27 *358:25 0.000655048
26 *102:27 *663:47 0.000678522
27 *102:27 *673:45 0
28 *102:27 *674:15 0.0634076
29 *102:27 *679:61 0.0004223
30 *102:27 *685:73 0.00235597
31 *102:31 *105:27 0.00716602
32 *102:31 *111:35 0.0155823
33 *102:31 *141:37 0.0077935
34 *102:31 *143:47 0.0087243
35 *68:19 *102:17 0.00212529
36 *68:19 *102:19 0.0209688
37 *75:13 *102:19 0.000480251
38 *76:89 *102:27 0.000998843
39 *79:13 *102:19 0
40 *101:19 *102:17 0.00118241
41 *101:19 *102:19 0.0370055
42 *101:31 *102:31 0.00313415
*RES
1 *739:io_oeb_o[6] *102:17 21.0225 
2 *102:17 *102:19 64.3305 
3 *102:19 *102:21 3.41 
4 *102:21 *102:23 131.829 
5 *102:23 *102:25 3.41 
6 *102:25 *102:27 127.605 
7 *102:27 *102:29 3.41 
8 *102:29 *102:31 75.4726 
9 *102:31 io_oeb[6] 6.0279 
*END

*D_NET *103 0.392675
*CONN
*P io_oeb[7] O
*I *739:io_oeb_o[7] O *D ntt_wb_bridge
*CAP
1 io_oeb[7] 0.00109717
2 *739:io_oeb_o[7] 0.000435233
3 *103:21 0.00824884
4 *103:19 0.00715167
5 *103:17 0.0592952
6 *103:15 0.0592952
7 *103:13 0.0250612
8 *103:11 0.0254964
9 io_oeb[7] *111:35 0.000342552
10 *103:11 *141:25 0.000436327
11 *103:13 *111:31 0
12 *103:13 *112:29 0
13 *103:13 *113:13 0.100775
14 *103:13 *114:13 0.0370041
15 *103:17 la_data_out[119] 0
16 *103:17 *114:145 0
17 *103:17 *679:39 0.0207413
18 *69:21 *103:17 0.025838
19 *76:91 *103:17 0
20 *80:21 *103:13 0.000290511
21 *82:13 *103:11 0.000147899
22 *86:13 *103:11 0.000147899
23 *87:13 *103:11 0.000152969
24 *91:13 *103:11 0.000159482
25 *94:13 *103:11 0.000167899
26 *99:27 *103:13 0.0163841
27 *100:23 *103:13 0.00400674
*RES
1 *739:io_oeb_o[7] *103:11 11.806 
2 *103:11 *103:13 963.25 
3 *103:13 *103:15 4.5 
4 *103:15 *103:17 1405.36 
5 *103:17 *103:19 4.5 
6 *103:19 *103:21 135.25 
7 *103:21 io_oeb[7] 14.7871 
*END

*D_NET *104 0.536488
*CONN
*P io_oeb[8] O
*I *739:io_oeb_o[8] O *D ntt_wb_bridge
*CAP
1 io_oeb[8] 0.0130357
2 *739:io_oeb_o[8] 0.000700252
3 *104:23 0.0730202
4 *104:21 0.0599845
5 *104:19 0.0426854
6 *104:17 0.0433857
7 io_oeb[8] io_out[8] 4.65519e-05
8 io_oeb[8] *105:27 0.00102439
9 io_oeb[8] *111:35 0.00214393
10 io_oeb[8] *143:47 0.00119913
11 *104:17 *117:18 5.40377e-05
12 *104:17 *141:25 0.000102136
13 *104:19 *105:15 0.00158836
14 *104:19 *108:27 0.0128792
15 *104:19 *109:23 0.0202739
16 *104:19 *117:18 0.0170501
17 *104:19 *128:21 0
18 *104:19 *142:15 0.0218617
19 *104:23 *113:17 0.00388259
20 *104:23 *115:145 0.00199468
21 *104:23 *142:19 0.0283174
22 *104:23 *648:11 0.00352569
23 *104:23 *652:123 0.0084855
24 *104:23 *653:11 0.00551935
25 *104:23 *659:111 0.00307495
26 *104:23 *665:29 0
27 *104:23 *669:21 0.0271923
28 *104:23 *671:17 0.00568322
29 *104:23 *681:13 0.0457187
30 *104:23 *705:11 0.00410166
31 *104:23 *730:11 0
32 *104:23 *732:11 0.0100327
33 *104:23 *738:11 0
34 *68:19 *104:17 1.36114e-05
35 *68:19 *104:19 0.0368949
36 *74:13 *104:19 0.0138878
37 *75:13 *104:19 0.0121065
38 *77:29 *104:19 0.0084605
39 *78:129 *104:23 0.00504642
40 *102:19 *104:19 0.00151413
*RES
1 *739:io_oeb_o[8] *104:17 15.3658 
2 *104:17 *104:19 165.944 
3 *104:19 *104:21 3.41 
4 *104:21 *104:23 279.59 
5 *104:23 io_oeb[8] 49.4327 
*END

*D_NET *105 0.422307
*CONN
*P io_oeb[9] O
*I *739:io_oeb_o[9] O *D ntt_wb_bridge
*CAP
1 io_oeb[9] 0.000840461
2 *739:io_oeb_o[9] 0.000768347
3 *105:27 0.032271
4 *105:25 0.0314305
5 *105:23 0.0382267
6 *105:21 0.0382267
7 *105:19 0.0355009
8 *105:17 0.0355009
9 *105:15 0.00829039
10 *105:13 0.00905873
11 *105:13 *141:25 0.000120488
12 *105:15 *108:27 0.0029107
13 *105:15 *110:13 0.001813
14 *105:19 *373:21 0
15 *105:19 *379:27 0
16 *105:19 *531:21 0.00282448
17 *105:19 *668:19 0
18 *105:19 *675:31 0.000381707
19 *105:19 *677:29 0.00510244
20 *105:19 *699:11 0.00848157
21 *105:23 *699:15 0.0246564
22 *105:23 *715:61 0
23 *105:27 io_out[6] 0.000167686
24 *105:27 *111:35 0.00192265
25 *105:27 *141:37 0.0485884
26 *105:27 *143:47 0.0217323
27 io_oeb[8] *105:27 0.00102439
28 *68:19 *105:15 0.00528756
29 *74:13 *105:15 0.000725281
30 *75:13 *105:15 0.0298045
31 *77:15 *105:15 0.00462428
32 *81:15 *105:15 0.00315552
33 *101:31 *105:27 0.019562
34 *102:19 *105:15 0.00055246
35 *102:31 *105:27 0.00716602
36 *104:19 *105:15 0.00158836
*RES
1 *739:io_oeb_o[9] *105:13 17.9171 
2 *105:13 *105:15 361.964 
3 *105:15 *105:17 4.5 
4 *105:17 *105:19 762.696 
5 *105:19 *105:21 4.5 
6 *105:21 *105:23 722.161 
7 *105:23 *105:25 4.5 
8 *105:25 *105:27 1129.26 
9 *105:27 io_oeb[9] 5.77567 
*END

*D_NET *106 0.468522
*CONN
*P io_out[0] O
*I *739:io_out_o[0] O *D ntt_wb_bridge
*CAP
1 io_out[0] 0.00307563
2 *739:io_out_o[0] 0.00420806
3 *106:21 0.0292063
4 *106:19 0.0303387
5 *106:19 *108:17 5.11306e-05
6 *106:19 *122:13 0.00288939
7 *106:19 *123:15 0.000609662
8 *106:19 *124:15 0.000771414
9 *106:19 *125:21 0.00145538
10 *106:19 *126:23 0.000363365
11 *106:19 *127:15 0.00107642
12 *106:19 *128:19 0.00799371
13 *106:19 *129:15 0.00428301
14 *106:19 *141:23 0.00482776
15 *106:21 *112:29 0.0260533
16 *106:21 *115:13 0.00162845
17 *106:21 *128:21 0.165947
18 *106:21 *133:27 0.0216484
19 *106:21 *141:25 0
20 *106:21 *143:35 0.00284361
21 *80:23 *106:21 0.00478874
22 *81:15 *106:19 0.00535905
23 *87:43 *106:19 0.000449812
24 *89:13 *106:21 0.0147549
25 *90:23 *106:21 0.126535
26 *90:27 io_out[0] 4.66249e-05
27 *92:13 *106:21 0.00344724
28 *94:79 *106:19 3.43244e-05
29 *99:31 io_out[0] 0.00383582
*RES
1 *739:io_out_o[0] *106:19 47.9281 
2 *106:19 *106:21 258.766 
3 *106:21 io_out[0] 18.0452 
*END

*D_NET *107 0.611821
*CONN
*P io_out[10] O
*I *739:io_out_o[10] O *D ntt_wb_bridge
*CAP
1 io_out[10] 0.00172613
2 *739:io_out_o[10] 0.0011846
3 *107:22 0.0863227
4 *107:20 0.0845965
5 *107:18 0.0230014
6 *107:16 0.024186
7 io_out[10] *111:35 0
8 *107:16 *135:14 0.000370928
9 *107:18 *135:14 0.00644923
10 *107:18 *140:21 0.155589
11 *107:18 *341:59 0.0217392
12 *107:18 *345:39 0.00276266
13 *107:18 *346:41 0.000627834
14 *107:18 *347:41 0.000436306
15 *107:18 *353:27 0.000324012
16 *107:22 *140:25 0.0901167
17 *71:22 *107:18 0.000483427
18 *72:25 *107:18 0.000712927
19 *73:20 *107:18 0.0992478
20 *79:13 *107:18 0.00953387
21 *85:13 *107:18 0.00156593
22 *93:19 *107:16 0.000189979
23 *95:19 *107:18 0.000654729
*RES
1 *739:io_out_o[10] *107:16 18.5017 
2 *107:16 *107:18 1472.54 
3 *107:18 *107:20 4.5 
4 *107:20 *107:22 2072.61 
5 *107:22 io_out[10] 28.1819 
*END

*D_NET *108 0.578646
*CONN
*P io_out[11] O
*I *739:io_out_o[11] O *D ntt_wb_bridge
*CAP
1 io_out[11] 0.000953565
2 *739:io_out_o[11] 0.00101747
3 *108:35 0.00515235
4 *108:33 0.00419879
5 *108:31 0.112057
6 *108:29 0.112057
7 *108:27 0.0154579
8 *108:25 0.015574
9 *108:19 0.00872665
10 *108:17 0.00962802
11 io_out[11] *111:35 1.94945e-05
12 *108:17 *119:13 0.000298021
13 *108:17 *123:15 0.000296894
14 *108:17 *124:15 0.00027533
15 *108:17 *125:13 0.000267545
16 *108:17 *127:15 0.00140401
17 *108:17 *131:23 0.000361417
18 *108:17 *141:23 0.000419404
19 *108:17 *143:13 0.00011641
20 *108:19 *109:21 0.0139444
21 *108:19 *117:18 0.0010321
22 *108:19 *122:13 0.00283009
23 *108:19 *123:15 0.00316934
24 *108:19 *124:15 0.0036716
25 *108:19 *127:15 0.00352949
26 *108:19 *129:15 0.00084881
27 *108:19 *132:19 3.34733e-05
28 *108:19 *133:25 0.00323201
29 *108:19 *136:17 0.00774168
30 *108:19 *136:25 0.00879121
31 *108:19 *141:23 0.00143157
32 *108:27 *109:23 0.110003
33 *108:27 *110:13 0
34 *108:31 la_data_out[123] 0
35 *68:17 *108:19 3.40193e-05
36 *68:19 *108:19 0.00349923
37 *68:19 *108:27 0.0084245
38 *74:13 *108:27 0.0917071
39 *75:13 *108:27 0.000363512
40 *81:15 *108:19 0.00535544
41 *81:15 *108:27 0
42 *93:19 *108:19 0.00121514
43 *99:17 *108:19 0.00133465
44 *99:21 *108:19 0.0012561
45 *101:17 *108:19 0.00107429
46 *104:19 *108:27 0.0128792
47 *105:15 *108:27 0.0029107
48 *106:19 *108:17 5.11306e-05
*RES
1 *739:io_out_o[11] *108:17 19.2991 
2 *108:17 *108:19 61.2676 
3 *108:19 *108:25 9.70464 
4 *108:25 *108:27 1035.12 
5 *108:27 *108:29 4.5 
6 *108:29 *108:31 2305.45 
7 *108:31 *108:33 4.5 
8 *108:33 *108:35 79.8036 
9 *108:35 io_out[11] 10.8407 
*END

*D_NET *109 0.60774
*CONN
*P io_out[12] O
*I *739:io_out_o[12] O *D ntt_wb_bridge
*CAP
1 io_out[12] 0.00105675
2 *739:io_out_o[12] 0.00287675
3 *109:31 0.00460222
4 *109:29 0.00354547
5 *109:27 0.123397
6 *109:25 0.123397
7 *109:23 0.020988
8 *109:21 0.0238647
9 io_out[12] *111:35 0.000292765
10 *109:21 *119:13 0.00227631
11 *109:21 *122:11 0.000107093
12 *109:21 *125:13 0.00280837
13 *109:21 *127:15 0.0139387
14 *109:21 *143:13 0.000322365
15 *109:23 *110:13 0
16 *109:23 *117:18 0.00092836
17 *109:23 *126:13 0.000743744
18 *109:23 *130:15 0.0072523
19 *109:23 *132:17 0.000601321
20 *109:23 *132:19 0.00155813
21 *109:23 *133:25 0.000286754
22 *109:23 *142:15 0.126737
23 *68:19 *109:23 0.000660786
24 *81:15 *109:23 0
25 *90:21 *109:23 0.000435167
26 *100:21 *109:23 0.000841786
27 *104:19 *109:23 0.0202739
28 *108:19 *109:21 0.0139444
29 *108:27 *109:23 0.110003
*RES
1 *739:io_out_o[12] *109:21 48.3572 
2 *109:21 *109:23 1272.52 
3 *109:23 *109:25 4.5 
4 *109:25 *109:27 2539.2 
5 *109:27 *109:29 4.5 
6 *109:29 *109:31 67.4821 
7 *109:31 io_out[12] 14.18 
*END

*D_NET *110 0.474438
*CONN
*P io_out[13] O
*I *739:io_out_o[13] O *D ntt_wb_bridge
*CAP
1 io_out[13] 0.00102382
2 *739:io_out_o[13] 0.00114707
3 *110:21 0.00379761
4 *110:19 0.00277379
5 *110:17 0.135177
6 *110:15 0.135177
7 *110:13 0.0599586
8 *110:11 0.0611056
9 io_out[13] *111:35 6.8099e-05
10 *110:11 *143:13 0.000268311
11 *110:13 *129:15 0.000445467
12 *110:13 *136:17 0.00155663
13 *110:13 *136:25 0.00372621
14 *110:13 *140:21 0
15 *110:13 *141:23 0.000267534
16 *75:13 *110:13 0
17 *77:15 *110:13 0.00479576
18 *81:15 *110:13 0.0530204
19 *94:13 *110:11 0.000101623
20 *95:17 *110:13 0.000155726
21 *99:17 *110:13 0.000262218
22 *99:21 *110:13 0.00650069
23 *101:19 *110:13 0.00108399
24 *102:19 *110:13 0.000212929
25 *105:15 *110:13 0.001813
26 *108:27 *110:13 0
27 *109:23 *110:13 0
*RES
1 *739:io_out_o[13] *110:11 20.4432 
2 *110:11 *110:13 1395.73 
3 *110:13 *110:15 4.5 
4 *110:15 *110:17 2782.05 
5 *110:17 *110:19 4.5 
6 *110:19 *110:21 55.1607 
7 *110:21 io_out[13] 11.4479 
*END

*D_NET *111 0.691741
*CONN
*P io_out[14] O
*I *739:io_out_o[14] O *D ntt_wb_bridge
*CAP
1 io_out[14] 0.00090485
2 *739:io_out_o[14] 0.00124349
3 *111:35 0.11311
4 *111:33 0.112205
5 *111:31 0.0516995
6 *111:29 0.0519003
7 *111:25 0.00144429
8 *111:25 *112:19 0.000390568
9 *111:25 *117:18 0.00100823
10 *111:25 *121:21 0.00222979
11 *111:25 *131:17 1.98839e-05
12 *111:25 *132:19 0.00100823
13 *111:25 *142:15 0.0020658
14 *111:25 *143:13 0.00035907
15 *111:29 *121:19 3.06466e-05
16 *111:31 *112:29 0.0374079
17 *111:31 *128:21 0.0568848
18 *111:31 *130:23 0
19 *111:31 *131:15 0
20 *111:31 *131:17 0
21 *111:35 io_out[8] 0.000264459
22 *111:35 *128:25 0.000110241
23 *111:35 *141:37 0.000105882
24 *111:35 *143:47 0.148563
25 io_oeb[11] *111:35 0.000367446
26 io_oeb[12] *111:35 0.000117101
27 io_oeb[13] *111:35 0.000342552
28 io_oeb[7] *111:35 0.000342552
29 io_oeb[8] *111:35 0.00214393
30 io_out[10] *111:35 0
31 io_out[11] *111:35 1.94945e-05
32 io_out[12] *111:35 0.000292765
33 io_out[13] *111:35 6.8099e-05
34 *88:17 *111:31 0.0569102
35 *96:15 *111:31 0.00766813
36 *99:31 *111:35 0.0230088
37 *102:31 *111:35 0.0155823
38 *103:13 *111:31 0
39 *105:27 *111:35 0.00192265
*RES
1 *739:io_out_o[14] *111:25 49.1998 
2 *111:25 *111:29 7.66071 
3 *111:29 *111:31 1413.39 
4 *111:31 *111:33 4.5 
5 *111:33 *111:35 3013.22 
6 *111:35 io_out[14] 5.99187 
*END

*D_NET *112 0.635843
*CONN
*P io_out[15] O
*I *739:io_out_o[15] O *D ntt_wb_bridge
*CAP
1 io_out[15] 0.000906621
2 *739:io_out_o[15] 0.00105694
3 *112:69 0.107584
4 *112:67 0.111258
5 *112:33 0.0415494
6 *112:31 0.0369685
7 *112:29 0.0295891
8 *112:27 0.0295891
9 *112:25 0.000779111
10 *112:19 0.00183605
11 *112:19 *117:18 0.00199026
12 *112:19 *121:19 4.15526e-05
13 *112:19 *121:21 0.000425049
14 *112:19 *132:19 0.00199026
15 *112:19 *141:25 0.000126279
16 *112:25 *121:13 0.00390314
17 *112:25 *126:13 0.00394888
18 *112:25 *127:15 0.000900888
19 *112:25 *142:15 2.14757e-05
20 *112:29 *114:13 0
21 *112:33 la_data_out[117] 0
22 *112:33 *291:19 0
23 *112:33 *659:105 0.000212609
24 *112:33 *672:25 0.00132131
25 *112:33 *694:157 0
26 *112:33 *694:161 0.00109862
27 *112:33 *721:133 0
28 *112:67 *658:121 0.000581292
29 *112:67 *659:109 0.000536914
30 *112:67 *672:25 0.00353854
31 *112:67 *680:35 0.000399815
32 *112:67 *690:17 0.000288448
33 *112:67 *700:11 0.00118004
34 *112:69 *654:11 0.0452499
35 *112:69 *663:31 0.020982
36 *112:69 *669:19 0.000237214
37 *112:69 *674:9 0.000237214
38 *112:69 *686:9 0.000237214
39 *112:69 *700:11 0.00214275
40 *76:15 *112:29 0.00297567
41 *77:147 *112:33 0
42 *88:17 *112:29 0.0530633
43 *89:13 *112:29 0.0545511
44 *92:13 *112:29 0.00102614
45 *96:15 *112:29 0.00766621
46 *103:13 *112:29 0
47 *106:21 *112:29 0.0260533
48 *111:25 *112:19 0.000390568
49 *111:31 *112:29 0.0374079
*RES
1 *739:io_out_o[15] *112:19 27.6574 
2 *112:19 *112:25 46.2679 
3 *112:25 *112:27 4.5 
4 *112:27 *112:29 1208.04 
5 *112:29 *112:31 4.5 
6 *112:31 *112:33 760.723 
7 *112:33 *112:67 33.2719 
8 *112:67 *112:69 391.469 
9 *112:69 io_out[15] 23.9655 
*END

*D_NET *113 0.89724
*CONN
*P io_out[16] O
*I *739:io_out_o[16] O *D ntt_wb_bridge
*CAP
1 io_out[16] 0.000723805
2 *739:io_out_o[16] 0.000359067
3 *113:21 0.00880265
4 *113:19 0.00807885
5 *113:17 0.0422274
6 *113:15 0.0422274
7 *113:13 0.0412394
8 *113:11 0.0415985
9 *113:11 *141:25 0.000136931
10 *113:13 *114:13 0.0152575
11 *113:13 *120:13 0.00660102
12 *113:13 *133:27 0.000794561
13 *113:13 *141:31 0.000782453
14 *113:13 *141:33 0.000939016
15 *113:13 *143:25 0.0002503
16 *113:17 *142:19 0
17 *113:17 *648:11 0.234764
18 *113:17 *653:11 3.38439e-05
19 *113:17 *659:111 0.0268216
20 *113:17 *705:11 0.00756164
21 *113:17 *732:11 4.19175e-05
22 *74:17 *113:17 0.251524
23 *74:21 *113:21 0.00919056
24 *75:21 *113:21 0.0323757
25 *77:33 *113:13 0.00315855
26 *78:13 *113:13 0.00263178
27 *80:21 *113:13 0.000147489
28 *90:23 *113:13 0.000142975
29 *91:13 *113:13 0
30 *95:39 *113:13 0.000494396
31 *99:27 *113:13 0.0119384
32 *100:23 *113:13 0.00173602
33 *103:13 *113:13 0.100775
34 *104:23 *113:17 0.00388259
*RES
1 *739:io_out_o[16] *113:11 10.6847 
2 *113:11 *113:13 1270.05 
3 *113:13 *113:15 4.5 
4 *113:15 *113:17 3083.8 
5 *113:17 *113:19 4.5 
6 *113:19 *113:21 304.054 
7 *113:21 io_out[16] 18.9821 
*END

*D_NET *114 0.804661
*CONN
*P io_out[17] O
*I *739:io_out_o[17] O *D ntt_wb_bridge
*CAP
1 io_out[17] 0.000877928
2 *739:io_out_o[17] 0.000534219
3 *114:191 0.00281757
4 *114:183 0.00379016
5 *114:179 0.00374561
6 *114:175 0.0039263
7 *114:167 0.00319717
8 *114:161 0.00559463
9 *114:159 0.00442867
10 *114:157 0.0273049
11 *114:155 0.0273049
12 *114:153 0.00586623
13 *114:151 0.00608575
14 *114:145 0.0257082
15 *114:143 0.0254887
16 *114:141 0.00297631
17 *114:139 0.00297631
18 *114:137 0.00271755
19 *114:135 0.00352797
20 *114:129 0.00305376
21 *114:123 0.00326855
22 *114:119 0.00250323
23 *114:115 0.00228917
24 *114:109 0.00344714
25 *114:107 0.00263599
26 *114:105 0.00375909
27 *114:103 0.00375909
28 *114:101 0.00317325
29 *114:99 0.00469242
30 *114:95 0.00292273
31 *114:89 0.00364125
32 *114:83 0.00434878
33 *114:79 0.00409027
34 *114:75 0.00364729
35 *114:71 0.00267218
36 *114:65 0.0109491
37 *114:63 0.00994504
38 *114:61 0.00378587
39 *114:59 0.00456998
40 *114:55 0.00238335
41 *114:51 0.00334829
42 *114:41 0.00598759
43 *114:39 0.00563878
44 *114:31 0.00332623
45 *114:21 0.0072957
46 *114:19 0.0053697
47 *114:17 0.00327159
48 *114:15 0.00327159
49 *114:13 0.0090884
50 *114:11 0.00962262
51 *114:11 *141:25 0.000229252
52 *114:13 *115:13 0.068437
53 *114:13 *116:19 0.00033923
54 *114:13 *118:13 0.000580225
55 *114:13 *120:13 0.00528958
56 *114:13 *141:25 0.000252029
57 *114:13 *143:35 0.0044738
58 *114:17 *117:24 0.00148839
59 *114:17 *356:31 0
60 *114:17 *356:35 0
61 *114:17 *363:71 0.00829755
62 *114:31 *279:19 0
63 *114:39 la_data_out[88] 0.00102238
64 *114:39 *692:11 0.00018752
65 *114:51 *529:19 0
66 *114:59 la_data_out[92] 0
67 *114:59 *276:19 0
68 *114:75 la_data_out[98] 0
69 *114:83 la_data_out[100] 0
70 *114:101 *115:105 0
71 *114:129 la_data_out[115] 0
72 *114:129 *721:109 0.000214081
73 *114:137 la_data_out[116] 0
74 *114:137 *694:141 0.0014802
75 *114:141 *651:15 0.00069735
76 *114:145 *655:131 0.000208286
77 *114:145 *679:39 6.05121e-05
78 *114:145 *723:133 0.164538
79 *114:153 *694:167 0
80 *114:153 *721:143 0
81 *114:153 *723:147 0.000186208
82 *114:157 *685:27 0
83 *114:157 *714:145 0
84 *114:157 *715:93 0.00218483
85 *69:21 *114:145 0.0169769
86 *76:15 *114:13 0.000167291
87 *76:91 *114:145 0.16619
88 *76:151 *114:183 0
89 *78:45 *114:39 0.0002845
90 *78:57 *114:51 0
91 *78:103 *114:89 0
92 *80:21 *114:13 0.000313264
93 *90:23 *114:13 0.000372176
94 *99:27 *114:13 0.00258518
95 *100:23 *114:13 0.00471704
96 *103:13 *114:13 0.0370041
97 *103:17 *114:145 0
98 *112:29 *114:13 0
99 *113:13 *114:13 0.0152575
*RES
1 *739:io_out_o[17] *114:11 11.5362 
2 *114:11 *114:13 657.268 
3 *114:13 *114:15 4.5 
4 *114:15 *114:17 102.429 
5 *114:17 *114:19 4.5 
6 *114:19 *114:21 94.5893 
7 *114:21 *114:31 49.8571 
8 *114:31 *114:39 41.4107 
9 *114:39 *114:41 86.0357 
10 *114:41 *114:51 47.4643 
11 *114:51 *114:55 35.4286 
12 *114:55 *114:59 20.1071 
13 *114:59 *114:61 71.1786 
14 *114:61 *114:63 4.5 
15 *114:63 *114:65 203.518 
16 *114:65 *114:71 27.6071 
17 *114:71 *114:75 38.3214 
18 *114:75 *114:79 41.5893 
19 *114:79 *114:83 48.0357 
20 *114:83 *114:89 47.8571 
21 *114:89 *114:95 36.6429 
22 *114:95 *114:99 35.2857 
23 *114:99 *114:101 61.7321 
24 *114:101 *114:103 4.5 
25 *114:103 *114:105 74.1964 
26 *114:105 *114:107 4.5 
27 *114:107 *114:109 52.2857 
28 *114:109 *114:115 25.2143 
29 *114:115 *114:119 32.5536 
30 *114:119 *114:123 25.5714 
31 *114:123 *114:129 48.9643 
32 *114:129 *114:135 23.9107 
33 *114:135 *114:137 58.1071 
34 *114:137 *114:139 4.5 
35 *114:139 *114:141 53.1071 
36 *114:141 *114:143 4.5 
37 *114:143 *114:145 2036.48 
38 *114:145 *114:151 12.8214 
39 *114:151 *114:153 120.036 
40 *114:153 *114:155 4.5 
41 *114:155 *114:157 517.625 
42 *114:157 *114:159 4.5 
43 *114:159 *114:161 89.375 
44 *114:161 *114:167 30.8929 
45 *114:167 *114:175 49.0357 
46 *114:175 *114:179 41.9643 
47 *114:179 *114:183 39.5357 
48 *114:183 *114:191 46.5714 
49 *114:191 io_out[17] 17.5179 
*END

*D_NET *115 0.740861
*CONN
*P io_out[18] O
*I *739:io_out_o[18] O *D ntt_wb_bridge
*CAP
1 io_out[18] 0.00187408
2 *739:io_out_o[18] 0.000422183
3 *115:195 0.00369858
4 *115:187 0.00332029
5 *115:179 0.00316535
6 *115:169 0.00513567
7 *115:167 0.00346611
8 *115:165 0.00437066
9 *115:163 0.00618072
10 *115:157 0.00455379
11 *115:155 0.0044873
12 *115:149 0.0360526
13 *115:147 0.0343091
14 *115:145 0.0458034
15 *115:143 0.0461599
16 *115:137 0.0183759
17 *115:135 0.0197599
18 *115:131 0.00371895
19 *115:125 0.00595385
20 *115:123 0.00488691
21 *115:117 0.00414774
22 *115:115 0.00489147
23 *115:111 0.00299022
24 *115:105 0.0034401
25 *115:97 0.00720345
26 *115:95 0.00577005
27 *115:89 0.00817222
28 *115:87 0.00924341
29 *115:81 0.00378941
30 *115:73 0.00585156
31 *115:71 0.00380512
32 *115:69 0.00295429
33 *115:67 0.00387505
34 *115:61 0.00341128
35 *115:59 0.00325893
36 *115:55 0.00281028
37 *115:47 0.00386915
38 *115:41 0.00460749
39 *115:39 0.00278021
40 *115:37 0.0029618
41 *115:35 0.00476388
42 *115:31 0.00340795
43 *115:25 0.00406171
44 *115:23 0.00245584
45 *115:21 0.00489944
46 *115:19 0.00599097
47 *115:13 0.0102725
48 *115:11 0.00960313
49 *115:11 *141:25 3.5508e-05
50 *115:11 *143:25 0.000212435
51 *115:13 *116:19 0.0001303
52 *115:13 *118:13 0.00162826
53 *115:13 *133:27 0.001949
54 *115:21 *738:7 0.00127228
55 *115:25 la_data_out[86] 0
56 *115:41 la_data_out[91] 0
57 *115:47 *653:7 0.000484717
58 *115:87 *700:7 0.000775113
59 *115:89 la_data_out[105] 0
60 *115:111 *672:27 0.000853545
61 *115:131 la_data_out[117] 0
62 *115:131 *291:19 0.000180038
63 *115:137 la_data_out[119] 0
64 *115:137 *646:43 0.0444973
65 *115:137 *665:11 0.0585864
66 *115:137 *686:11 0.00010113
67 *115:137 *720:11 0
68 *115:145 *740:mem_wdata[5] 0.00152143
69 *115:145 *142:19 0.00782261
70 *115:145 *679:31 0.0130383
71 *115:149 *740:mem_wdata[3] 0.0019493
72 *115:149 *646:33 0.000169615
73 *115:149 *715:93 0.00129008
74 *115:149 *721:147 0.0128188
75 *75:17 *115:145 0
76 *76:15 *115:13 0.0255172
77 *76:19 *115:19 0
78 *76:91 *115:137 0
79 *76:95 *115:149 0.0165239
80 *77:185 *115:149 0.000973907
81 *78:23 *115:19 0.000357547
82 *78:45 *115:35 0
83 *78:113 *115:105 0
84 *78:129 *115:145 0.0521796
85 *78:143 *115:149 0.000698448
86 *78:189 io_out[18] 0.000598731
87 *80:23 *115:13 0.0228763
88 *90:23 *115:13 0.000480268
89 *100:23 *115:13 0.00829535
90 *104:23 *115:145 0.00199468
91 *106:21 *115:13 0.00162845
92 *114:13 *115:13 0.068437
93 *114:101 *115:105 0
*RES
1 *739:io_out_o[18] *115:11 11.6518 
2 *115:11 *115:13 643.714 
3 *115:13 *115:19 31.5893 
4 *115:19 *115:21 89.25 
5 *115:21 *115:23 4.5 
6 *115:23 *115:25 49.6071 
7 *115:25 *115:31 39.9286 
8 *115:31 *115:35 41.3571 
9 *115:35 *115:37 55.5714 
10 *115:37 *115:39 4.5 
11 *115:39 *115:41 55.6786 
12 *115:41 *115:47 43.2143 
13 *115:47 *115:55 48.875 
14 *115:55 *115:59 20.1071 
15 *115:59 *115:61 46.5357 
16 *115:61 *115:67 27.6429 
17 *115:67 *115:69 55.5714 
18 *115:69 *115:71 4.5 
19 *115:71 *115:73 77.2321 
20 *115:73 *115:81 49.5179 
21 *115:81 *115:87 43.2143 
22 *115:87 *115:89 153.732 
23 *115:89 *115:95 21.4464 
24 *115:95 *115:97 104.554 
25 *115:97 *115:105 49.3393 
26 *115:105 *115:111 33.7679 
27 *115:111 *115:115 38.3214 
28 *115:115 *115:117 61.7321 
29 *115:117 *115:123 27.6429 
30 *115:123 *115:125 77.3393 
31 *115:125 *115:131 49.5 
32 *115:131 *115:135 35.0179 
33 *115:135 *115:137 803.982 
34 *115:137 *115:143 14.4643 
35 *115:143 *115:145 1413.4 
36 *115:145 *115:147 3.41 
37 *115:147 *115:149 117.948 
38 *115:149 *115:155 42.1868 
39 *115:155 *115:157 52.2857 
40 *115:157 *115:163 46.1607 
41 *115:163 *115:165 83.5 
42 *115:165 *115:167 4.5 
43 *115:167 *115:169 71.1607 
44 *115:169 *115:179 46.8571 
45 *115:179 *115:187 37.8571 
46 *115:187 *115:195 44.4107 
47 *115:195 io_out[18] 40.75 
*END

*D_NET *116 0.724045
*CONN
*P io_out[19] O
*I *739:io_out_o[19] O *D ntt_wb_bridge
*CAP
1 io_out[19] 0.0031208
2 *739:io_out_o[19] 0.00100395
3 *116:167 0.0031208
4 *116:165 0.0039416
5 *116:163 0.0039416
6 *116:161 0.00495659
7 *116:159 0.00705596
8 *116:155 0.00367961
9 *116:149 0.0452658
10 *116:147 0.0436856
11 *116:145 0.00221841
12 *116:143 0.00244028
13 *116:137 0.0648995
14 *116:135 0.0670981
15 *116:131 0.00416804
16 *116:127 0.00253853
17 *116:121 0.00397793
18 *116:119 0.00318698
19 *116:117 0.00248183
20 *116:115 0.00248183
21 *116:113 0.00319171
22 *116:111 0.00385452
23 *116:107 0.00214738
24 *116:103 0.00354882
25 *116:95 0.00320799
26 *116:89 0.00754592
27 *116:87 0.00741522
28 *116:81 0.00261678
29 *116:79 0.00329041
30 *116:73 0.00566169
31 *116:71 0.00562889
32 *116:65 0.00570509
33 *116:63 0.00558698
34 *116:59 0.00284745
35 *116:51 0.00269014
36 *116:47 0.00284804
37 *116:39 0.00305376
38 *116:29 0.0212205
39 *116:27 0.0198754
40 *116:21 0.00338211
41 *116:19 0.00414696
42 *116:19 *118:13 0.000147132
43 *116:19 *120:13 0.00058758
44 *116:19 *133:27 0.00159822
45 *116:19 *136:27 6.58294e-06
46 *116:19 *141:25 4.41625e-05
47 *116:19 *143:25 0.000259336
48 *116:19 *143:35 0
49 *116:21 *118:13 0.0121917
50 *116:21 *120:13 0.0219858
51 *116:21 *131:25 0.00333607
52 *116:21 *136:27 0.00127759
53 *116:29 *351:39 0.00228604
54 *116:39 *578:13 0
55 *116:39 *610:11 0
56 *116:47 *540:21 0
57 *116:47 *548:13 0.00198616
58 *116:51 *600:5 0.00350234
59 *116:59 *599:5 0.000584137
60 *116:65 wbs_dat_o[28] 0.00524527
61 *116:71 *556:9 0.00138181
62 *116:73 wbs_dat_o[26] 0.0102748
63 *116:79 *577:9 0.000598704
64 *116:81 wbs_dat_o[24] 0.00206645
65 *116:87 io_out[35] 0.000239224
66 *116:89 wbs_dat_o[23] 0
67 *116:89 *591:5 0
68 *116:107 wbs_dat_o[21] 0.00195646
69 *116:111 *617:7 0.000536961
70 *116:113 wbs_dat_o[20] 0
71 *116:131 *540:181 0.000714626
72 *116:135 *691:23 0.00152668
73 *116:137 *740:mem_wdata[14] 0.000442689
74 *116:137 *650:19 0.00314076
75 *116:137 *656:35 0.00838236
76 *116:137 *689:19 0
77 *116:137 *701:22 0.00169619
78 *116:137 *709:19 0
79 *116:137 *717:27 0
80 *116:137 *718:27 0.00495944
81 *116:137 *725:43 0.00199765
82 *116:137 *729:27 0
83 *116:137 *734:51 0
84 *116:137 *737:54 0.00331307
85 *116:145 *734:51 0.014522
86 *116:149 *540:193 0.0428849
87 *80:179 *116:137 0.139216
88 *80:187 *116:137 0
89 *80:187 *116:145 0.0145237
90 *82:13 *116:29 0.000230035
91 *86:13 *116:29 0.00073026
92 *87:53 *116:29 0.0087953
93 *91:47 *116:27 0
94 *91:49 *116:29 0.00807617
95 *95:39 *116:19 0.00160141
96 *114:13 *116:19 0.00033923
97 *115:13 *116:19 0.0001303
*RES
1 *739:io_out_o[19] *116:19 23.0649 
2 *116:19 *116:21 206.714 
3 *116:21 *116:27 12.7679 
4 *116:27 *116:29 394 
5 *116:29 *116:39 44.2321 
6 *116:39 *116:47 46.2679 
7 *116:47 *116:51 47.7321 
8 *116:51 *116:59 37.6071 
9 *116:59 *116:63 32.5536 
10 *116:63 *116:65 117 
11 *116:65 *116:71 39.5179 
12 *116:71 *116:73 126.411 
13 *116:73 *116:79 40.3393 
14 *116:79 *116:81 46.2679 
15 *116:81 *116:87 27.6071 
16 *116:87 *116:89 129.446 
17 *116:89 *116:95 30.4821 
18 *116:95 *116:103 49.6607 
19 *116:103 *116:107 47.7321 
20 *116:107 *116:111 16.9464 
21 *116:111 *116:113 64.7857 
22 *116:113 *116:115 4.5 
23 *116:115 *116:117 49.4107 
24 *116:117 *116:119 4.5 
25 *116:119 *116:121 65.0893 
26 *116:121 *116:127 23.9107 
27 *116:127 *116:131 38.3214 
28 *116:131 *116:135 48.5714 
29 *116:135 *116:137 1962.11 
30 *116:137 *116:143 12.8214 
31 *116:143 *116:145 178.018 
32 *116:145 *116:147 4.5 
33 *116:147 *116:149 871.661 
34 *116:149 *116:155 40.6964 
35 *116:155 *116:159 44.4643 
36 *116:159 *116:161 101.821 
37 *116:161 *116:163 4.5 
38 *116:163 *116:165 75.2857 
39 *116:165 *116:167 4.5 
40 *116:167 io_out[19] 63.9643 
*END

*D_NET *117 0.32276
*CONN
*P io_out[1] O
*I *739:io_out_o[1] O *D ntt_wb_bridge
*CAP
1 io_out[1] 0.0450672
2 *739:io_out_o[1] 0.000828221
3 *117:24 0.0542266
4 *117:18 0.0262362
5 *117:16 0.017905
6 io_out[1] *707:9 0
7 io_out[1] *718:9 0
8 *117:18 *121:21 0.00326985
9 *117:18 *128:21 0.00117836
10 *117:18 *130:23 0.00422727
11 *117:18 *131:15 0.000724992
12 *117:18 *131:17 0.00391694
13 *117:18 *132:17 0.0028646
14 *117:18 *132:19 0.0186096
15 *117:18 *133:25 0.00138261
16 *117:18 *142:15 0.00106795
17 *68:17 *117:18 0.000147839
18 *68:19 *117:18 0.00121318
19 *77:29 *117:18 0.0084605
20 *79:19 *117:24 0.0190702
21 *90:21 *117:18 0.00337984
22 *96:23 *117:18 0.0803399
23 *97:15 *117:18 0.00348274
24 *100:21 *117:18 0.00160874
25 *104:17 *117:18 5.40377e-05
26 *104:19 *117:18 0.0170501
27 *108:19 *117:18 0.0010321
28 *109:23 *117:18 0.00092836
29 *111:25 *117:18 0.00100823
30 *112:19 *117:18 0.00199026
31 *114:17 *117:24 0.00148839
*RES
1 *739:io_out_o[1] *117:16 8.7658 
2 *117:16 *117:18 146.631 
3 *117:18 *117:24 47.0301 
4 *117:24 io_out[1] 134.356 
*END

*D_NET *118 0.713634
*CONN
*P io_out[20] O
*I *739:io_out_o[20] O *D ntt_wb_bridge
*CAP
1 io_out[20] 0.000720918
2 *739:io_out_o[20] 0.000507874
3 *118:249 0.0237055
4 *118:247 0.0250417
5 *118:231 0.00439368
6 *118:223 0.00507051
7 *118:205 0.00602883
8 *118:203 0.00329485
9 *118:201 0.00354904
10 *118:177 0.00428479
11 *118:175 0.00119677
12 *118:169 0.0306047
13 *118:167 0.0306191
14 *118:161 0.0219463
15 *118:159 0.0219594
16 *118:153 0.00351605
17 *118:151 0.00736579
18 *118:137 0.00821974
19 *118:129 0.00685858
20 *118:127 0.00768133
21 *118:123 0.00714419
22 *118:113 0.00827584
23 *118:111 0.0068455
24 *118:105 0.00259019
25 *118:103 0.00228846
26 *118:97 0.0038519
27 *118:95 0.00499954
28 *118:87 0.00373858
29 *118:83 0.0034093
30 *118:79 0.00431314
31 *118:67 0.0076588
32 *118:57 0.00999678
33 *118:55 0.00836509
34 *118:43 0.00572992
35 *118:31 0.00454802
36 *118:23 0.00460999
37 *118:13 0.00637877
38 *118:11 0.00433494
39 *118:11 *141:25 0.000293177
40 *118:13 *120:13 0.000897357
41 *118:13 *133:27 0.00546723
42 *118:43 *540:215 0
43 *118:43 *541:9 0.00172314
44 *118:55 *642:9 0
45 *118:55 *643:9 0.000296622
46 *118:55 *644:9 0.00394906
47 *118:55 *645:9 0
48 *118:67 la_data_out[7] 0.00148846
49 *118:67 *549:9 0.00321311
50 *118:67 *550:9 0
51 *118:79 la_data_out[5] 0.00167687
52 *118:79 *552:9 0.000957654
53 *118:79 *553:9 0
54 *118:79 *556:9 0
55 *118:79 *557:9 0.00173602
56 *118:83 la_data_out[4] 0.00172681
57 *118:87 *563:13 0.00108286
58 *118:87 *564:9 0.00108028
59 *118:95 la_data_out[1] 0.00180687
60 *118:95 *601:9 0.00135091
61 *118:97 *578:13 0.00390061
62 *118:103 *583:9 0.000819429
63 *118:103 *584:9 0
64 *118:105 *600:5 0.00399698
65 *118:111 *592:9 0.00082428
66 *118:111 *593:9 0
67 *118:113 wbs_dat_o[29] 0
68 *118:123 *609:7 0
69 *118:127 *615:7 0.00435153
70 *118:127 *616:7 0
71 *118:129 wbs_dat_o[22] 0
72 *118:129 *540:129 0.00127234
73 *118:137 *540:129 0.0010304
74 *118:151 *126:29 0.00785543
75 *118:151 *129:23 0.000518586
76 *118:153 *725:35 0.00247516
77 *118:161 *661:19 0.0146215
78 *118:161 *662:15 0.0598869
79 *118:161 *677:11 0.0206821
80 *118:161 *695:35 0.121254
81 *118:177 *704:35 0.00215339
82 *118:177 *734:51 0.00371512
83 *118:201 *120:23 0.000855593
84 *118:201 *662:13 0
85 *118:201 *675:13 0.000397624
86 *118:201 *734:65 0.000775242
87 *118:249 *119:29 0.00275898
88 *80:23 *118:13 0.026932
89 *80:41 *118:23 0.000841313
90 *80:51 *118:43 0
91 *80:105 *118:97 0
92 *80:145 *118:129 0
93 *80:177 *118:151 0
94 *80:179 *118:169 0
95 *80:187 *118:177 5.93407e-05
96 *80:205 *118:201 0.000772119
97 *80:219 *118:205 0.000751087
98 *80:267 *118:249 0.0541993
99 *82:25 *118:153 0
100 *82:25 *118:169 0
101 *87:13 *118:11 0.00010104
102 *91:13 *118:11 0.000102507
103 *91:49 *118:23 0.00572107
104 *94:13 *118:11 0.000110902
105 *94:81 *118:23 0.0109593
106 *114:13 *118:13 0.000580225
107 *115:13 *118:13 0.00162826
108 *116:19 *118:13 0.000147132
109 *116:21 *118:13 0.0121917
*RES
1 *739:io_out_o[20] *118:11 12.3125 
2 *118:11 *118:13 253.125 
3 *118:13 *118:23 31.6719 
4 *118:23 *118:31 30.3013 
5 *118:31 *118:43 49.622 
6 *118:43 *118:55 45.914 
7 *118:55 *118:57 102.125 
8 *118:57 *118:67 46.3447 
9 *118:67 *118:79 39.3075 
10 *118:79 *118:83 44.2136 
11 *118:83 *118:87 12.105 
12 *118:87 *118:95 49.1534 
13 *118:95 *118:97 80.2679 
14 *118:97 *118:103 10.11 
15 *118:103 *118:105 49.3036 
16 *118:105 *118:111 11.2631 
17 *118:111 *118:113 117.304 
18 *118:113 *118:123 46.2757 
19 *118:123 *118:127 21.9781 
20 *118:127 *118:129 68.7321 
21 *118:129 *118:137 48.096 
22 *118:137 *118:151 39.8604 
23 *118:151 *118:153 69.9464 
24 *118:153 *118:159 7.7318 
25 *118:159 *118:161 1485.8 
26 *118:161 *118:167 7.80387 
27 *118:167 *118:169 600.589 
28 *118:169 *118:175 8.1642 
29 *118:175 *118:177 47.4821 
30 *118:177 *118:201 49.5329 
31 *118:201 *118:203 3.41 
32 *118:203 *118:205 71.1607 
33 *118:205 *118:223 41.4413 
34 *118:223 *118:231 45.6852 
35 *118:231 *118:247 41.2062 
36 *118:247 *118:249 104.544 
37 *118:249 io_out[20] 18.0439 
*END

*D_NET *119 0.820981
*CONN
*P io_out[21] O
*I *739:io_out_o[21] O *D ntt_wb_bridge
*CAP
1 io_out[21] 0.000661505
2 *739:io_out_o[21] 0.00108172
3 *119:29 0.00973843
4 *119:27 0.00907693
5 *119:25 0.0735397
6 *119:23 0.0735397
7 *119:21 0.0173705
8 *119:19 0.0175416
9 *119:13 0.00465345
10 *119:11 0.00556399
11 *119:11 *141:25 0.000159064
12 *119:13 *121:21 0
13 *119:13 *124:15 0.00108268
14 *119:13 *125:13 0.0223015
15 *119:13 *126:13 0.0157926
16 *119:13 *127:15 0.00276121
17 *119:21 *124:23 0.071962
18 *119:21 *125:21 0.00308431
19 *119:21 *129:15 0.00785393
20 *119:25 wbs_dat_o[14] 0
21 *119:25 *740:mem_wdata[24] 0
22 *119:25 *540:189 0.174024
23 *119:25 *581:5 0
24 *119:25 *710:35 0.17668
25 *119:25 *717:35 0.00928566
26 *119:25 *736:27 0.0112137
27 io_oeb[22] *119:29 0.00258995
28 *80:267 *119:29 0.0296728
29 *81:21 *119:25 0.000109635
30 *81:23 *119:25 0
31 *81:27 *119:29 0.0373869
32 *93:19 *119:21 0.0369211
33 *108:17 *119:13 0.000298021
34 *109:21 *119:13 0.00227631
35 *118:249 *119:29 0.00275898
*RES
1 *739:io_out_o[21] *119:11 18.4431 
2 *119:11 *119:13 228.071 
3 *119:13 *119:19 10.3118 
4 *119:19 *119:21 124.146 
5 *119:21 *119:23 3.41 
6 *119:23 *119:25 3094.73 
7 *119:25 *119:27 3.41 
8 *119:27 *119:29 70.8165 
9 *119:29 io_out[21] 16.8296 
*END

*D_NET *120 0.623493
*CONN
*P io_out[22] O
*I *739:io_out_o[22] O *D ntt_wb_bridge
*CAP
1 io_out[22] 0.00911232
2 *739:io_out_o[22] 0.000340177
3 *120:23 0.0148977
4 *120:17 0.0654751
5 *120:15 0.0596897
6 *120:13 0.0441031
7 *120:11 0.0444432
8 *120:11 *141:25 0.000108535
9 *120:13 *131:25 0.00181874
10 *120:13 *133:27 0.00523211
11 *120:13 *143:25 0
12 *120:13 *143:35 0.000714539
13 *120:17 wbs_dat_o[13] 0.000122672
14 *120:17 *580:5 0
15 *120:17 *675:15 0.0990721
16 *120:23 *540:193 0.00161166
17 *120:23 *675:13 0
18 *120:23 *734:65 0.000208733
19 *120:23 *734:67 0
20 *80:23 *120:13 1.00073e-05
21 *80:205 *120:23 0.00307666
22 *80:257 io_out[22] 0.0010925
23 *82:13 *120:13 0
24 *82:25 *120:17 0.232587
25 *88:17 *120:13 0
26 *89:13 *120:13 0
27 *91:13 *120:13 0
28 *94:79 *120:13 0
29 *95:39 *120:11 0
30 *95:39 *120:13 0.00208028
31 *95:49 *120:13 0.000118635
32 *95:55 *120:13 0.00136052
33 *113:13 *120:13 0.00660102
34 *114:13 *120:13 0.00528958
35 *116:19 *120:13 0.00058758
36 *116:21 *120:13 0.0219858
37 *118:13 *120:13 0.000897357
38 *118:201 *120:23 0.000855593
*RES
1 *739:io_out_o[22] *120:11 10.913 
2 *120:11 *120:13 962.018 
3 *120:13 *120:15 4.5 
4 *120:15 *120:17 2904.85 
5 *120:17 *120:23 29.2797 
6 *120:23 io_out[22] 193.741 
*END

*D_NET *121 0.501621
*CONN
*P io_out[23] O
*I *739:io_out_o[23] O *D ntt_wb_bridge
*CAP
1 io_out[23] 0.147037
2 *739:io_out_o[23] 0.000687827
3 *121:31 0.150969
4 *121:21 0.0493019
5 *121:19 0.0454289
6 *121:13 0.00100562
7 *121:11 0.00163452
8 io_out[23] wbs_dat_o[3] 0.0409686
9 *121:11 *141:25 4.20609e-05
10 *121:13 *126:13 0.00188657
11 *121:13 *132:19 0.00154551
12 *121:13 *142:15 0.00730471
13 *121:21 *122:13 0
14 *121:21 *122:23 0.00025757
15 *121:21 *123:15 0
16 *121:21 *124:15 0
17 *121:21 *126:13 0.000115684
18 *121:21 *130:23 0.00161475
19 *121:21 *131:17 0.00661299
20 *121:21 *132:19 0.00827896
21 *121:21 *142:15 0.00450627
22 *121:31 *122:23 0.00473956
23 *121:31 *547:5 0
24 *84:29 *121:31 0.000164884
25 *88:17 *121:21 0
26 *89:21 *121:31 0.0174844
27 *92:21 *121:31 0.000133908
28 *111:25 *121:21 0.00222979
29 *111:29 *121:19 3.06466e-05
30 *112:19 *121:19 4.15526e-05
31 *112:19 *121:21 0.000425049
32 *112:25 *121:13 0.00390314
33 *117:18 *121:21 0.00326985
34 *119:13 *121:21 0
*RES
1 *739:io_out_o[23] *121:11 17.1282 
2 *121:11 *121:13 68.7143 
3 *121:13 *121:19 10.0357 
4 *121:19 *121:21 912.732 
5 *121:21 *121:31 40.7785 
6 *121:31 io_out[23] 3101.96 
*END

*D_NET *122 0.642852
*CONN
*P io_out[24] O
*I *739:io_out_o[24] O *D ntt_wb_bridge
*CAP
1 io_out[24] 0.000751668
2 *739:io_out_o[24] 0.00102301
3 *122:33 0.0973617
4 *122:31 0.0969605
5 *122:25 0.0528021
6 *122:23 0.0598598
7 *122:19 0.0075811
8 *122:13 0.0259055
9 *122:11 0.0267557
10 *122:11 *141:25 0.000289935
11 *122:13 *123:15 0.0353184
12 *122:13 *123:23 0.0136459
13 *122:13 *124:23 0.000254013
14 *122:13 *125:21 0.00109317
15 *122:13 *141:23 0.000217817
16 *122:23 *123:23 0.00198451
17 *122:23 *130:31 0
18 *122:23 *132:19 0.0232279
19 *122:25 *129:27 0.013539
20 *122:25 *130:35 0.00419487
21 *122:25 *131:29 0.00313294
22 *122:25 *542:11 0
23 *122:31 io_out[32] 0.000381578
24 *122:33 *123:27 0
25 *122:33 *126:33 0.0219184
26 *122:33 *130:43 0.0195398
27 *81:15 *122:13 0.10267
28 *82:13 *122:11 0.000108583
29 *86:13 *122:11 0.000108583
30 *87:13 *122:11 0.000114324
31 *89:21 *122:23 0.001795
32 *91:13 *122:11 0.000117087
33 *92:21 *122:23 0.000558233
34 *94:13 *122:11 0.000125482
35 *95:83 *122:25 0.018691
36 *106:19 *122:13 0.00288939
37 *108:19 *122:13 0.00283009
38 *109:21 *122:11 0.000107093
39 *121:21 *122:13 0
40 *121:21 *122:23 0.00025757
41 *121:31 *122:23 0.00473956
*RES
1 *739:io_out_o[24] *122:11 20.0052 
2 *122:11 *122:13 973.518 
3 *122:13 *122:19 10.6154 
4 *122:19 *122:23 48.9311 
5 *122:23 *122:25 1097.23 
6 *122:25 *122:31 7.8399 
7 *122:31 *122:33 326.891 
8 *122:33 io_out[24] 5.45137 
*END

*D_NET *123 0.718756
*CONN
*P io_out[25] O
*I *739:io_out_o[25] O *D ntt_wb_bridge
*CAP
1 io_out[25] 0.00127255
2 *739:io_out_o[25] 0.000816808
3 *123:27 0.114286
4 *123:25 0.113014
5 *123:23 0.0200293
6 *123:21 0.0200676
7 *123:15 0.00508147
8 *123:13 0.00585999
9 *123:13 *130:21 0
10 *123:13 *141:25 0.000104182
11 *123:15 *124:15 0.0348383
12 *123:15 *125:21 0.00137587
13 *123:15 *126:23 0.000132088
14 *123:15 *127:15 0.000112662
15 *123:15 *128:19 0.00161459
16 *123:23 *125:21 0.079345
17 *123:23 *127:15 0.0828469
18 *123:23 *132:19 0.00706138
19 *123:27 *126:33 0
20 *123:27 *129:27 0
21 *123:27 *131:29 0
22 *123:27 *133:31 0
23 *123:27 *542:11 0.00964251
24 io_oeb[37] *123:23 0
25 *81:15 *123:15 0.000897839
26 *88:29 *123:27 0.165209
27 *89:25 *123:27 0.000122836
28 *95:83 *123:27 0
29 *106:19 *123:15 0.000609662
30 *108:17 *123:15 0.000296894
31 *108:19 *123:15 0.00316934
32 *121:21 *123:15 0
33 *122:13 *123:15 0.0353184
34 *122:13 *123:23 0.0136459
35 *122:23 *123:23 0.00198451
36 *122:33 *123:27 0
*RES
1 *739:io_out_o[25] *123:13 18.4992 
2 *123:13 *123:15 348 
3 *123:15 *123:21 8.49036 
4 *123:21 *123:23 157.477 
5 *123:23 *123:25 3.41 
6 *123:25 *123:27 478.914 
7 *123:27 io_out[25] 6.8927 
*END

*D_NET *124 0.614592
*CONN
*P io_out[26] O
*I *739:io_out_o[26] O *D ntt_wb_bridge
*CAP
1 io_out[26] 0.0124318
2 *739:io_out_o[26] 0.000815176
3 *124:27 0.152627
4 *124:25 0.140195
5 *124:23 0.0143333
6 *124:21 0.0144025
7 *124:15 0.0056049
8 *124:13 0.00635091
9 *124:13 *141:25 0.000132731
10 *124:15 *125:13 0.0283346
11 *124:15 *126:23 0.000122494
12 *124:15 *127:15 0.00107396
13 *124:15 *128:19 0.00174105
14 *124:21 *341:55 8.33988e-05
15 *124:21 *350:31 0
16 *124:23 *125:21 0.0809248
17 *124:27 *125:25 0
18 *124:27 *577:5 0.0128063
19 io_oeb[37] *124:23 0
20 *81:15 *124:15 0.000441336
21 *81:15 *124:23 0.0280624
22 *83:21 *124:23 0.000521943
23 *93:19 *124:23 0.00073164
24 *106:19 *124:15 0.000771414
25 *108:17 *124:15 0.00027533
26 *108:19 *124:15 0.0036716
27 *119:13 *124:15 0.00108268
28 *119:21 *124:23 0.071962
29 *121:21 *124:15 0
30 *122:13 *124:23 0.000254013
31 *123:15 *124:15 0.0348383
*RES
1 *739:io_out_o[26] *124:13 18.2395 
2 *124:13 *124:15 338.554 
3 *124:15 *124:21 9.0975 
4 *124:21 *124:23 126.416 
5 *124:23 *124:25 3.41 
6 *124:25 *124:27 438.219 
7 *124:27 io_out[26] 41.4847 
*END

*D_NET *125 0.55901
*CONN
*P io_out[27] O
*I *739:io_out_o[27] O *D ntt_wb_bridge
*CAP
1 io_out[27] 0.0129436
2 *739:io_out_o[27] 0.000809146
3 *125:25 0.139815
4 *125:23 0.126872
5 *125:21 0.0140808
6 *125:19 0.0141536
7 *125:13 0.00376925
8 *125:11 0.00450563
9 *125:11 *141:25 4.35564e-05
10 *125:13 *126:13 0.0039807
11 *125:13 *126:23 0.00137589
12 *125:13 *127:15 0.00193075
13 *125:21 *126:23 0.00801146
14 *125:21 *127:15 0.00126039
15 *125:21 *129:15 0.000199247
16 *125:25 *544:5 0.00156295
17 *81:15 *125:13 0.000347339
18 *81:15 *125:21 0.00235757
19 *106:19 *125:21 0.00145538
20 *108:17 *125:13 0.000267545
21 *109:21 *125:13 0.00280837
22 *119:13 *125:13 0.0223015
23 *119:21 *125:21 0.00308431
24 *122:13 *125:21 0.00109317
25 *123:15 *125:21 0.00137587
26 *123:23 *125:21 0.079345
27 *124:15 *125:13 0.0283346
28 *124:23 *125:21 0.0809248
29 *124:27 *125:25 0
*RES
1 *739:io_out_o[27] *125:11 18.3613 
2 *125:11 *125:13 277.357 
3 *125:13 *125:19 8.79393 
4 *125:19 *125:21 140.109 
5 *125:21 *125:23 3.41 
6 *125:23 *125:25 397.31 
7 *125:25 io_out[27] 40.4758 
*END

*D_NET *126 0.577724
*CONN
*P io_out[28] O
*I *739:io_out_o[28] O *D ntt_wb_bridge
*CAP
1 io_out[28] 0.000905799
2 *739:io_out_o[28] 0.000883677
3 *126:33 0.0398046
4 *126:31 0.0388988
5 *126:29 0.0479252
6 *126:27 0.0479252
7 *126:25 0.0517645
8 *126:23 0.0540747
9 *126:13 0.00612504
10 *126:11 0.00469858
11 *126:11 *141:25 0.000371295
12 *126:13 *127:15 0.0049414
13 *126:13 *130:15 0.00328136
14 *126:13 *142:15 0.0041688
15 *126:23 *127:15 0.0148906
16 *126:23 *128:19 0.00626119
17 *126:23 *141:23 6.25005e-05
18 *126:25 *134:21 0
19 *126:25 *272:25 0
20 *126:25 *283:17 0.00427671
21 *126:25 *283:25 0.0386491
22 *126:25 *306:17 0.00121557
23 *126:25 *317:19 0.000105594
24 *126:25 *318:19 0.00361049
25 *126:25 *326:19 0.0120338
26 *126:25 *329:17 0.00120289
27 *126:25 *335:23 0.000379687
28 *126:25 *341:55 0.00776236
29 *126:25 *388:25 0.0015859
30 *126:25 *399:25 0.000136517
31 *126:29 *129:23 0
32 *126:29 *366:27 0.0305361
33 *126:29 *399:29 0
34 *126:33 *129:27 0.0210704
35 *126:33 *130:43 0.0282597
36 *126:33 *131:29 0.0330255
37 *81:15 *126:13 0
38 *82:13 *126:11 0.000122105
39 *86:13 *126:11 0.000122105
40 *87:13 *126:11 0.000127608
41 *91:13 *126:11 0.000131668
42 *94:13 *126:11 0.000140063
43 *106:19 *126:23 0.000363365
44 *109:23 *126:13 0.000743744
45 *112:25 *126:13 0.00394888
46 *118:151 *126:29 0.00785543
47 *119:13 *126:13 0.0157926
48 *121:13 *126:13 0.00188657
49 *121:21 *126:13 0.000115684
50 *122:33 *126:33 0.0219184
51 *123:15 *126:23 0.000132088
52 *123:27 *126:33 0
53 *124:15 *126:23 0.000122494
54 *125:13 *126:13 0.0039807
55 *125:13 *126:23 0.00137589
56 *125:21 *126:23 0.00801146
*RES
1 *739:io_out_o[28] *126:11 18.5908 
2 *126:11 *126:13 222.321 
3 *126:13 *126:23 35.4924 
4 *126:23 *126:25 124.158 
5 *126:25 *126:27 3.41 
6 *126:27 *126:29 162.197 
7 *126:29 *126:31 3.41 
8 *126:31 *126:33 232.183 
9 *126:33 io_out[28] 5.88377 
*END

*D_NET *127 0.530501
*CONN
*P io_out[29] O
*I *739:io_out_o[29] O *D ntt_wb_bridge
*CAP
1 io_out[29] 0.0111038
2 *739:io_out_o[29] 0.0010443
3 *127:19 0.110619
4 *127:17 0.0995156
5 *127:15 0.0195
6 *127:13 0.0205443
7 *127:13 *141:25 0.000499779
8 *127:15 *128:19 0.000968419
9 *127:15 *130:15 0.000955168
10 *127:15 *132:19 0.126382
11 *127:15 *142:15 0.00353349
12 *127:19 *573:5 0.00516684
13 *106:19 *127:15 0.00107642
14 *108:17 *127:15 0.00140401
15 *108:19 *127:15 0.00352949
16 *109:21 *127:15 0.0139387
17 *112:25 *127:15 0.000900888
18 *119:13 *127:15 0.00276121
19 *123:15 *127:15 0.000112662
20 *123:23 *127:15 0.0828469
21 *124:15 *127:15 0.00107396
22 *125:13 *127:15 0.00193075
23 *125:21 *127:15 0.00126039
24 *126:13 *127:15 0.0049414
25 *126:23 *127:15 0.0148906
*RES
1 *739:io_out_o[29] *127:13 16.9545 
2 *127:13 *127:15 197.474 
3 *127:15 *127:17 3.41 
4 *127:17 *127:19 315.386 
5 *127:19 io_out[29] 34.9987 
*END

*D_NET *128 0.515046
*CONN
*P io_out[2] O
*I *739:io_out_o[2] O *D ntt_wb_bridge
*CAP
1 io_out[2] 0.000873331
2 *739:io_out_o[2] 0.00247684
3 *128:25 0.00610318
4 *128:23 0.00522985
5 *128:21 0.0415113
6 *128:19 0.0439882
7 *128:21 *130:31 4.73891e-05
8 *128:21 *133:27 0.00168317
9 *128:25 user_irq[0] 0
10 *128:25 *141:37 0.0326448
11 *87:43 *128:19 1.89026e-05
12 *88:17 *128:21 0.0150801
13 *90:23 *128:21 0.000108891
14 *90:27 *128:25 0.00804781
15 *94:79 *128:19 5.66375e-05
16 *96:15 *128:21 0.00174785
17 *97:15 *128:21 0.0802608
18 *100:29 *128:21 1.72415e-05
19 *100:31 *128:25 0
20 *101:31 *128:25 0.0324504
21 *104:19 *128:21 0
22 *106:19 *128:19 0.00799371
23 *106:21 *128:21 0.165947
24 *111:31 *128:21 0.0568848
25 *111:35 *128:25 0.000110241
26 *117:18 *128:21 0.00117836
27 *123:15 *128:19 0.00161459
28 *124:15 *128:19 0.00174105
29 *126:23 *128:19 0.00626119
30 *127:15 *128:19 0.000968419
*RES
1 *739:io_out_o[2] *128:19 38.9793 
2 *128:19 *128:21 264.063 
3 *128:21 *128:23 3.41 
4 *128:23 *128:25 404.482 
5 *128:25 io_out[2] 5.77567 
*END

*D_NET *129 0.463508
*CONN
*P io_out[30] O
*I *739:io_out_o[30] O *D ntt_wb_bridge
*CAP
1 io_out[30] 0.001017
2 *739:io_out_o[30] 0.00109903
3 *129:27 0.0338428
4 *129:25 0.0328258
5 *129:23 0.0474755
6 *129:21 0.0474755
7 *129:19 0.0414528
8 *129:17 0.0414528
9 *129:15 0.00841929
10 *129:13 0.00951832
11 *129:13 *141:25 0.000340725
12 *129:15 *136:25 0.016024
13 *129:15 *141:23 0.00876251
14 *129:19 *307:25 0.0238487
15 *129:23 *399:29 0.0237977
16 *129:27 *131:29 0.0335109
17 *93:19 *129:15 0.0438863
18 *97:21 *129:19 0
19 *106:19 *129:15 0.00428301
20 *108:19 *129:15 0.00084881
21 *110:13 *129:15 0.000445467
22 *118:151 *129:23 0.000518586
23 *119:21 *129:15 0.00785393
24 *122:25 *129:27 0.013539
25 *123:27 *129:27 0
26 *125:21 *129:15 0.000199247
27 *126:29 *129:23 0
28 *126:33 *129:27 0.0210704
*RES
1 *739:io_out_o[30] *129:13 19.7459 
2 *129:13 *129:15 69.9156 
3 *129:15 *129:17 3.41 
4 *129:17 *129:19 123.519 
5 *129:19 *129:21 3.41 
6 *129:21 *129:23 158.594 
7 *129:23 *129:25 3.41 
8 *129:25 *129:27 151.644 
9 *129:27 io_out[30] 6.17203 
*END

*D_NET *130 0.519342
*CONN
*P io_out[31] O
*I *739:io_out_o[31] O *D ntt_wb_bridge
*CAP
1 io_out[31] 0.000852161
2 *739:io_out_o[31] 0.00072343
3 *130:43 0.0478888
4 *130:41 0.0473696
5 *130:35 0.00196477
6 *130:33 0.00163183
7 *130:31 0.0189457
8 *130:29 0.0191164
9 *130:23 0.00600856
10 *130:21 0.00597816
11 *130:15 0.00176931
12 *130:13 0.00235251
13 *130:13 *141:25 0.00013477
14 *130:15 *133:25 0.000569244
15 *130:23 *131:17 0.0157783
16 *130:31 *133:27 0.120039
17 *130:41 *541:9 0
18 *130:43 *131:29 0.0022107
19 *130:43 *133:31 0.0262676
20 *81:15 *130:15 0
21 *88:17 *130:23 0
22 *88:17 *130:31 0.015442
23 *89:13 *130:31 0.00202046
24 *89:21 *130:31 0.101288
25 *92:21 *130:31 0.000105933
26 *95:83 *130:35 0.00146268
27 *97:15 *130:31 0.0100501
28 *109:23 *130:15 0.0072523
29 *111:31 *130:23 0
30 *117:18 *130:23 0.00422727
31 *121:21 *130:23 0.00161475
32 *122:23 *130:31 0
33 *122:25 *130:35 0.00419487
34 *122:33 *130:43 0.0195398
35 *123:13 *130:21 0
36 *126:13 *130:15 0.00328136
37 *126:33 *130:43 0.0282597
38 *127:15 *130:15 0.000955168
39 *128:21 *130:31 4.73891e-05
*RES
1 *739:io_out_o[31] *130:13 17.0283 
2 *130:13 *130:15 68.3036 
3 *130:15 *130:21 10.9464 
4 *130:21 *130:23 175.911 
5 *130:23 *130:29 10.6154 
6 *130:29 *130:31 187.709 
7 *130:31 *130:33 3.41 
8 *130:33 *130:35 51.7321 
9 *130:35 *130:41 7.6237 
10 *130:41 *130:43 223.767 
11 *130:43 io_out[31] 5.5955 
*END

*D_NET *131 0.526608
*CONN
*P io_out[32] O
*I *739:io_out_o[32] O *D ntt_wb_bridge
*CAP
1 io_out[32] 0.000918829
2 *739:io_out_o[32] 0.000636346
3 *131:29 0.0223703
4 *131:27 0.0214515
5 *131:25 0.0212074
6 *131:23 0.0214458
7 *131:17 0.00367523
8 *131:15 0.00508688
9 *131:11 0.0022864
10 *131:11 *141:25 5.6457e-05
11 *131:15 *132:17 0.000389629
12 *131:15 *142:15 0.00521001
13 *131:17 *142:15 0.00479364
14 *131:25 *136:27 0.123308
15 *131:29 *133:31 0.0527547
16 *88:25 *131:25 0.0376051
17 *91:47 *131:25 0.00874629
18 *94:79 *131:25 0.00077585
19 *94:81 *131:25 1.53584e-05
20 *95:39 *131:25 0.00290715
21 *95:79 *131:25 0.0384331
22 *95:83 *131:29 0.0477031
23 *108:17 *131:23 0.000361417
24 *111:25 *131:17 1.98839e-05
25 *111:31 *131:15 0
26 *111:31 *131:17 0
27 *116:21 *131:25 0.00333607
28 *117:18 *131:15 0.000724992
29 *117:18 *131:17 0.00391694
30 *120:13 *131:25 0.00181874
31 *121:21 *131:17 0.00661299
32 *122:25 *131:29 0.00313294
33 *122:31 io_out[32] 0.000381578
34 *123:27 *131:29 0
35 *126:33 *131:29 0.0330255
36 *129:27 *131:29 0.0335109
37 *130:23 *131:17 0.0157783
38 *130:43 *131:29 0.0022107
*RES
1 *739:io_out_o[32] *131:11 16.543 
2 *131:11 *131:15 49.7321 
3 *131:15 *131:17 178.786 
4 *131:17 *131:23 12.7404 
5 *131:23 *131:25 192.861 
6 *131:25 *131:27 3.41 
7 *131:27 *131:29 191.7 
8 *131:29 io_out[32] 6.0279 
*END

*D_NET *132 0.397852
*CONN
*P io_out[33] O
*I *739:io_out_o[33] O *D ntt_wb_bridge
*CAP
1 io_out[33] 0.00449613
2 *739:io_out_o[33] 0.00129666
3 *132:23 0.0525456
4 *132:21 0.0480495
5 *132:19 0.0292914
6 *132:17 0.0305881
7 *132:17 *133:25 0.00164698
8 *132:17 *141:25 0.000567071
9 *132:17 *142:15 0.000557647
10 *132:19 *133:25 0.00199211
11 *132:19 *142:15 0.00117874
12 *132:23 *641:5 0.00251384
13 *82:13 *132:17 0.00011088
14 *86:13 *132:17 0.00010102
15 *92:21 *132:19 0.00253985
16 *96:23 *132:19 0.026825
17 *108:19 *132:19 3.34733e-05
18 *109:23 *132:17 0.000601321
19 *109:23 *132:19 0.00155813
20 *111:25 *132:19 0.00100823
21 *112:19 *132:19 0.00199026
22 *117:18 *132:17 0.0028646
23 *117:18 *132:19 0.0186096
24 *121:13 *132:19 0.00154551
25 *121:21 *132:19 0.00827896
26 *122:23 *132:19 0.0232279
27 *123:23 *132:19 0.00706138
28 *127:15 *132:19 0.126382
29 *131:15 *132:17 0.000389629
*RES
1 *739:io_out_o[33] *132:17 20.4042 
2 *132:17 *132:19 220.139 
3 *132:19 *132:21 3.41 
4 *132:21 *132:23 151.857 
5 *132:23 io_out[33] 15.5407 
*END

*D_NET *133 0.480959
*CONN
*P io_out[34] O
*I *739:io_out_o[34] O *D ntt_wb_bridge
*CAP
1 io_out[34] 0.000905799
2 *739:io_out_o[34] 0.0023036
3 *133:31 0.0135352
4 *133:29 0.0126294
5 *133:27 0.0249189
6 *133:25 0.0272225
7 *133:25 *141:25 0.000408017
8 *133:25 *142:15 0.000265926
9 *133:27 *136:27 0.130051
10 *133:27 *143:35 0.00358743
11 *133:31 io_out[37] 0.00374337
12 *80:23 *133:27 0.00616125
13 *89:13 *133:27 0.00185815
14 *92:13 *133:27 0.00676625
15 *95:39 *133:27 5.91641e-05
16 *106:21 *133:27 0.0216484
17 *108:19 *133:25 0.00323201
18 *109:23 *133:25 0.000286754
19 *113:13 *133:27 0.000794561
20 *115:13 *133:27 0.001949
21 *116:19 *133:27 0.00159822
22 *117:18 *133:25 0.00138261
23 *118:13 *133:27 0.00546723
24 *120:13 *133:27 0.00523211
25 *123:27 *133:31 0
26 *128:21 *133:27 0.00168317
27 *130:15 *133:25 0.000569244
28 *130:31 *133:27 0.120039
29 *130:43 *133:31 0.0262676
30 *131:29 *133:31 0.0527547
31 *132:17 *133:25 0.00164698
32 *132:19 *133:25 0.00199211
*RES
1 *739:io_out_o[34] *133:25 33.328 
2 *133:25 *133:27 226.769 
3 *133:27 *133:29 3.41 
4 *133:29 *133:31 110.202 
5 *133:31 io_out[34] 5.88377 
*END

*D_NET *134 0.346737
*CONN
*P io_out[35] O
*I *739:io_out_o[35] O *D ntt_wb_bridge
*CAP
1 io_out[35] 0.0453911
2 *739:io_out_o[35] 0.00165334
3 *134:23 0.0453911
4 *134:21 0.0410627
5 *134:19 0.0410627
6 *134:17 0.0105529
7 *134:15 0.0122062
8 io_out[35] *584:9 0.0665929
9 io_out[35] *585:9 0
10 *134:15 *141:25 7.71698e-05
11 *134:17 *137:13 0.000347251
12 *134:17 *138:13 0.0218016
13 *134:17 *339:43 0.0390069
14 *134:17 *340:39 0.00100073
15 *134:17 *343:35 0.00202848
16 *134:17 *349:43 0.000727264
17 *134:21 la_data_out[23] 0.000379687
18 *134:21 *283:25 0
19 *134:21 *303:17 0.000773548
20 *134:21 *331:17 0.00624988
21 *134:21 *334:23 0.000773548
22 *134:21 *340:35 0.00676118
23 *134:21 *343:31 0.000379687
24 *134:21 *346:37 0.000739218
25 *134:21 *348:39 0.000379687
26 *134:21 *350:31 0.000379687
27 io_oeb[37] *134:17 0.000779656
28 *97:21 *134:21 0
29 *116:87 io_out[35] 0.000239224
30 *126:25 *134:21 0
*RES
1 *739:io_out_o[35] *134:15 10.7382 
2 *134:15 *134:17 77.7349 
3 *134:17 *134:19 3.41 
4 *134:19 *134:21 71.957 
5 *134:21 *134:23 3.41 
6 *134:23 io_out[35] 163.615 
*END

*D_NET *135 0.286392
*CONN
*P io_out[36] O
*I *739:io_out_o[36] O *D ntt_wb_bridge
*CAP
1 io_out[36] 0.0458426
2 *739:io_out_o[36] 0.00120368
3 *135:20 0.057549
4 *135:14 0.0249211
5 *135:12 0.0144183
6 io_out[36] *555:9 0.00920683
7 io_out[36] *556:9 0.00967215
8 *135:14 *140:19 0.000490732
9 *135:14 *140:21 0.00612765
10 *135:14 *341:59 0.00829328
11 *135:14 *345:39 0.0101114
12 *135:20 la_data_out[24] 0.00426155
13 *135:20 *294:29 0.0191499
14 *135:20 *320:31 0.00364057
15 *135:20 *323:23 0.00393928
16 *135:20 *327:35 0.0026178
17 *135:20 *328:23 0.00066305
18 io_oeb[37] *135:14 0.0256724
19 *80:41 *135:20 0.000147485
20 *80:73 io_out[36] 0.0125104
21 *84:21 *135:14 0.000220276
22 *93:19 *135:14 0.0105688
23 *95:19 *135:14 0.00834341
24 *107:16 *135:14 0.000370928
25 *107:18 *135:14 0.00644923
*RES
1 *739:io_out_o[36] *135:12 9.63687 
2 *135:12 *135:14 77.3025 
3 *135:14 *135:20 47.4562 
4 *135:20 io_out[36] 165.921 
*END

*D_NET *136 0.361651
*CONN
*P io_out[37] O
*I *739:io_out_o[37] O *D ntt_wb_bridge
*CAP
1 io_out[37] 0.00252791
2 *739:io_out_o[37] 0.00261808
3 *136:27 0.0223397
4 *136:25 0.0241871
5 *136:17 0.00699334
6 io_out[37] *540:9 0
7 io_out[37] *541:9 0.000248938
8 *136:17 *141:25 0.000634364
9 *82:13 *136:17 0.000130762
10 *86:13 *136:17 0.000119135
11 *91:13 *136:17 0.00011348
12 *93:19 *136:17 0.00250293
13 *93:19 *136:25 0.000354853
14 *94:13 *136:17 0.000109355
15 *95:39 *136:27 0.00254458
16 *108:19 *136:17 0.00774168
17 *108:19 *136:25 0.00879121
18 *110:13 *136:17 0.00155663
19 *110:13 *136:25 0.00372621
20 *116:19 *136:27 6.58294e-06
21 *116:21 *136:27 0.00127759
22 *129:15 *136:25 0.016024
23 *131:25 *136:27 0.123308
24 *133:27 *136:27 0.130051
25 *133:31 io_out[37] 0.00374337
*RES
1 *739:io_out_o[37] *136:17 31.1103 
2 *136:17 *136:25 34.926 
3 *136:25 *136:27 203.419 
4 *136:27 io_out[37] 17.0801 
*END

*D_NET *137 0.355959
*CONN
*P io_out[3] O
*I *739:io_out_o[3] O *D ntt_wb_bridge
*CAP
1 io_out[3] 0.0109303
2 *739:io_out_o[3] 0.0019629
3 *137:17 0.0430034
4 *137:15 0.0320731
5 *137:13 0.0469982
6 *137:11 0.0489611
7 *137:13 *138:13 0.000707793
8 *137:13 *139:17 0.155016
9 *137:13 *279:23 0.0132013
10 *137:13 *334:27 0
11 *137:13 *362:23 0
12 *137:13 *371:37 0
13 *137:17 *654:11 0
14 *137:17 *700:11 0.00267694
15 *87:43 *137:11 3.09899e-05
16 *94:55 *137:11 4.98422e-05
17 *134:17 *137:13 0.000347251
*RES
1 *739:io_out_o[3] *137:11 10.8886 
2 *137:11 *137:13 245.074 
3 *137:13 *137:15 3.41 
4 *137:15 *137:17 105.089 
5 *137:17 io_out[3] 35.287 
*END

*D_NET *138 0.449957
*CONN
*P io_out[4] O
*I *739:io_out_o[4] O *D ntt_wb_bridge
*CAP
1 io_out[4] 0.00191536
2 *739:io_out_o[4] 0.00163191
3 *138:17 0.0299212
4 *138:15 0.0280058
5 *138:13 0.0334393
6 *138:11 0.0350712
7 *138:13 *139:17 0.172279
8 *138:13 *352:27 0
9 *138:17 *139:21 0.0651859
10 io_oeb[37] *138:13 0
11 *69:17 *138:13 0.0599482
12 *87:43 *138:11 4.31094e-05
13 *94:55 *138:11 6.58294e-06
14 *134:17 *138:13 0.0218016
15 *137:13 *138:13 0.000707793
*RES
1 *739:io_out_o[4] *138:11 10.6317 
2 *138:11 *138:13 270.009 
3 *138:13 *138:15 3.41 
4 *138:15 *138:17 136.09 
5 *138:17 io_out[4] 8.47817 
*END

*D_NET *139 0.561805
*CONN
*P io_out[5] O
*I *739:io_out_o[5] O *D ntt_wb_bridge
*CAP
1 io_out[5] 0.00192056
2 *739:io_out_o[5] 0.00181472
3 *139:21 0.0559266
4 *139:19 0.054006
5 *139:17 0.0268562
6 *139:15 0.0286709
7 *139:15 *140:19 0
8 *87:43 *139:15 3.31408e-05
9 *94:55 *139:15 9.61096e-05
10 *137:13 *139:17 0.155016
11 *138:13 *139:17 0.172279
12 *138:17 *139:21 0.0651859
*RES
1 *739:io_out_o[5] *139:15 11.0766 
2 *139:15 *139:17 268.279 
3 *139:17 *139:19 3.41 
4 *139:19 *139:21 167.411 
5 *139:21 io_out[5] 8.33403 
*END

*D_NET *140 0.44446
*CONN
*P io_out[6] O
*I *739:io_out_o[6] O *D ntt_wb_bridge
*CAP
1 io_out[6] 0.00167571
2 *739:io_out_o[6] 0.00162395
3 *140:25 0.0386213
4 *140:23 0.0369456
5 *140:21 0.0484634
6 *140:19 0.0500873
7 *140:21 *341:59 0.00269154
8 *140:21 *353:27 0.000185098
9 *79:13 *140:21 0.0102806
10 *87:43 *140:19 3.75635e-05
11 *93:19 *140:19 0.000243235
12 *94:55 *140:19 0.000359948
13 *95:19 *140:21 0.000753171
14 *105:27 io_out[6] 0.000167686
15 *107:18 *140:21 0.155589
16 *107:22 *140:25 0.0901167
17 *110:13 *140:21 0
18 *135:14 *140:19 0.000490732
19 *135:14 *140:21 0.00612765
20 *139:15 *140:19 0
*RES
1 *739:io_out_o[6] *140:19 19.1271 
2 *140:19 *140:21 1519.36 
3 *140:21 *140:23 4.5 
4 *140:23 *140:25 1123.34 
5 *140:25 io_out[6] 30.4804 
*END

*D_NET *141 0.55187
*CONN
*P io_out[7] O
*I *739:io_out_o[7] O *D ntt_wb_bridge
*CAP
1 io_out[7] 0.000872896
2 *739:io_out_o[7] 0.00380569
3 *141:37 0.0185073
4 *141:35 0.0176344
5 *141:33 0.0264881
6 *141:31 0.0304963
7 *141:25 0.0210851
8 *141:23 0.0208826
9 *141:23 *143:13 0.000562243
10 *141:25 *143:25 0.00185141
11 *141:25 *143:35 0.022532
12 *141:25 *351:39 0.00328447
13 *141:37 *143:47 0.109868
14 *68:17 *141:25 0.000142919
15 *68:27 *141:33 0.0319524
16 *69:15 *141:25 7.9537e-05
17 *72:23 *141:25 8.42714e-05
18 *74:11 *141:25 0.000286065
19 *75:11 *141:31 0.000250973
20 *76:13 *141:31 0.000217921
21 *77:13 *141:31 0.000238759
22 *77:33 *141:33 0.019325
23 *78:11 *141:31 0.000166973
24 *78:13 *141:31 0.000907154
25 *78:13 *141:33 0.00395777
26 *79:11 *141:25 6.53338e-05
27 *80:21 *141:31 0.00152221
28 *81:13 *141:31 7.717e-05
29 *81:15 *141:23 0.000506408
30 *82:11 *141:31 0.000135935
31 *82:13 *141:23 0.0001489
32 *82:13 *141:25 0.005931
33 *82:13 *141:31 0.000320578
34 *83:11 *141:31 0.000121027
35 *84:11 *141:33 9.07814e-05
36 *85:11 *141:33 0.000116217
37 *86:11 *141:33 0.000318388
38 *86:13 *141:23 0.000135659
39 *86:13 *141:25 0.00414941
40 *86:13 *141:31 0.000417769
41 *86:13 *141:33 0.00016596
42 *87:11 *141:33 0.000150433
43 *87:13 *141:25 0.00243909
44 *87:13 *141:33 0.000124027
45 *87:43 *141:23 0
46 *88:15 *141:33 0.00012984
47 *89:11 *141:33 5.40795e-05
48 *90:21 *141:25 0.000530401
49 *90:23 *141:25 0.000529531
50 *90:27 *141:37 0.00720106
51 *91:11 *141:33 0.000357447
52 *91:13 *141:23 0.000126797
53 *91:13 *141:25 0.00691114
54 *91:13 *141:31 0.000679935
55 *91:13 *141:33 0.00104015
56 *91:47 *141:23 9.55055e-05
57 *92:11 *141:33 0.00026122
58 *93:17 *141:33 0.000169435
59 *94:11 *141:33 5.35573e-05
60 *94:13 *141:23 0.000117928
61 *94:13 *141:25 0.00260642
62 *94:13 *141:31 0.000418995
63 *94:13 *141:33 0.000580523
64 *95:17 *141:33 0.000659133
65 *95:39 *141:23 5.0303e-05
66 *95:39 *141:25 0.0099254
67 *96:13 *141:33 0.000114378
68 *97:13 *141:33 0.000258231
69 *99:17 *141:25 0.000104175
70 *99:27 *141:33 0.0293042
71 *100:21 *141:25 0.000122527
72 *100:23 *141:25 0.00289163
73 *100:23 *141:31 0.00301677
74 *100:23 *141:33 0.00154377
75 *100:29 *141:33 1.47728e-05
76 *101:17 *141:25 0.000322261
77 *101:31 *141:37 0.0161852
78 *102:17 *141:25 0.000487537
79 *102:31 *141:37 0.0077935
80 *103:11 *141:25 0.000436327
81 *104:17 *141:25 0.000102136
82 *105:13 *141:25 0.000120488
83 *105:27 *141:37 0.0485884
84 *106:19 *141:23 0.00482776
85 *106:21 *141:25 0
86 *108:17 *141:23 0.000419404
87 *108:19 *141:23 0.00143157
88 *110:13 *141:23 0.000267534
89 *111:35 *141:37 0.000105882
90 *112:19 *141:25 0.000126279
91 *113:11 *141:25 0.000136931
92 *113:13 *141:31 0.000782453
93 *113:13 *141:33 0.000939016
94 *114:11 *141:25 0.000229252
95 *114:13 *141:25 0.000252029
96 *115:11 *141:25 3.5508e-05
97 *116:19 *141:25 4.41625e-05
98 *118:11 *141:25 0.000293177
99 *119:11 *141:25 0.000159064
100 *120:11 *141:25 0.000108535
101 *121:11 *141:25 4.20609e-05
102 *122:11 *141:25 0.000289935
103 *122:13 *141:23 0.000217817
104 *123:13 *141:25 0.000104182
105 *124:13 *141:25 0.000132731
106 *125:11 *141:25 4.35564e-05
107 *126:11 *141:25 0.000371295
108 *126:23 *141:23 6.25005e-05
109 *127:13 *141:25 0.000499779
110 *128:25 *141:37 0.0326448
111 *129:13 *141:25 0.000340725
112 *129:15 *141:23 0.00876251
113 *130:13 *141:25 0.00013477
114 *131:11 *141:25 5.6457e-05
115 *132:17 *141:25 0.000567071
116 *133:25 *141:25 0.000408017
117 *134:15 *141:25 7.71698e-05
118 *136:17 *141:25 0.000634364
*RES
1 *739:io_out_o[7] *141:23 43.3715 
2 *141:23 *141:25 74.9963 
3 *141:25 *141:31 15.4881 
4 *141:31 *141:33 161.801 
5 *141:33 *141:35 3.41 
6 *141:35 *141:37 1349.2 
7 *141:37 io_out[7] 5.84773 
*END

*D_NET *142 0.51655
*CONN
*P io_out[8] O
*I *739:io_out_o[8] O *D ntt_wb_bridge
*CAP
1 io_out[8] 0.00108701
2 *739:io_out_o[8] 0.000639957
3 *142:23 0.00899824
4 *142:21 0.00791122
5 *142:19 0.0520085
6 *142:17 0.0520085
7 *142:15 0.0406292
8 *142:13 0.0412691
9 *142:19 *648:11 0
10 *142:19 *653:11 0.00931796
11 *142:19 *671:17 0.0143025
12 *142:19 *732:11 0
13 io_oeb[8] io_out[8] 4.65519e-05
14 *68:19 *142:15 0.000574418
15 *74:17 *142:19 0
16 *75:17 *142:19 0
17 *78:129 *142:19 0.0666436
18 *90:21 *142:15 0.000403561
19 *91:47 *142:13 0.000124431
20 *100:21 *142:15 0.000907714
21 *104:19 *142:15 0.0218617
22 *104:23 *142:19 0.0283174
23 *109:23 *142:15 0.126737
24 *111:25 *142:15 0.0020658
25 *111:35 io_out[8] 0.000264459
26 *112:25 *142:15 2.14757e-05
27 *113:17 *142:19 0
28 *115:145 *142:19 0.00782261
29 *117:18 *142:15 0.00106795
30 *121:13 *142:15 0.00730471
31 *121:21 *142:15 0.00450627
32 *126:13 *142:15 0.0041688
33 *127:15 *142:15 0.00353349
34 *131:15 *142:15 0.00521001
35 *131:17 *142:15 0.00479364
36 *132:17 *142:15 0.000557647
37 *132:19 *142:15 0.00117874
38 *133:25 *142:15 0.000265926
*RES
1 *739:io_out_o[8] *142:13 16.3804 
2 *142:13 *142:15 1361.23 
3 *142:15 *142:17 4.5 
4 *142:17 *142:19 1590.23 
5 *142:19 *142:21 4.5 
6 *142:21 *142:23 147.571 
7 *142:23 io_out[8] 13.8764 
*END

*D_NET *143 0.58745
*CONN
*P io_out[9] O
*I *739:io_out_o[9] O *D ntt_wb_bridge
*CAP
1 io_out[9] 0.000894335
2 *739:io_out_o[9] 0.00235646
3 *143:47 0.0246284
4 *143:45 0.0237341
5 *143:43 0.0537141
6 *143:41 0.0539134
7 *143:35 0.00654346
8 *143:25 0.00785294
9 *143:13 0.00386526
10 *143:43 *351:39 0.0019218
11 io_oeb[8] *143:47 0.00119913
12 *78:13 *143:43 0
13 *82:13 *143:13 0.000899981
14 *82:13 *143:25 0.000132088
15 *86:13 *143:13 0.000599816
16 *86:13 *143:25 0.000120342
17 *87:13 *143:13 0.000360225
18 *87:13 *143:43 0.0143118
19 *90:21 *143:41 0.000101769
20 *91:13 *143:13 0.00103208
21 *91:13 *143:25 0.00393045
22 *94:13 *143:13 0.00036979
23 *94:13 *143:25 0.00010743
24 *94:13 *143:43 0.00267075
25 *95:39 *143:13 0.00717919
26 *95:39 *143:35 0.00388456
27 *99:31 *143:47 0.0128691
28 *101:27 *143:43 0.0310162
29 *102:31 *143:47 0.0087243
30 *105:27 *143:47 0.0217323
31 *106:21 *143:35 0.00284361
32 *108:17 *143:13 0.00011641
33 *109:21 *143:13 0.000322365
34 *110:11 *143:13 0.000268311
35 *111:25 *143:13 0.00035907
36 *111:35 *143:47 0.148563
37 *113:13 *143:25 0.0002503
38 *114:13 *143:35 0.0044738
39 *115:11 *143:25 0.000212435
40 *116:19 *143:25 0.000259336
41 *116:19 *143:35 0
42 *120:13 *143:25 0
43 *120:13 *143:35 0.000714539
44 *133:27 *143:35 0.00358743
45 *141:23 *143:13 0.000562243
46 *141:25 *143:25 0.00185141
47 *141:25 *143:35 0.022532
48 *141:37 *143:47 0.109868
*RES
1 *739:io_out_o[9] *143:13 19.88 
2 *143:13 *143:25 49.1585 
3 *143:25 *143:35 46.8982 
4 *143:35 *143:41 11.2225 
5 *143:41 *143:43 1155.46 
6 *143:43 *143:45 4.5 
7 *143:45 *143:47 1820.79 
8 *143:47 io_out[9] 5.9198 
*END

*D_NET *272 0.225018
*CONN
*P la_data_out[0] O
*I *739:la_data_out_o[0] O *D ntt_wb_bridge
*CAP
1 la_data_out[0] 0.000600379
2 *739:la_data_out_o[0] 0.000598876
3 *272:49 0.0140628
4 *272:47 0.0154896
5 *272:37 0.00394529
6 *272:35 0.00210348
7 *272:25 0.0475668
8 *272:23 0.0479804
9 *272:23 *310:27 1.3294e-05
10 *272:23 *311:21 3.82932e-05
11 *272:23 *313:13 1.98839e-05
12 *272:23 *313:23 0.000475789
13 *272:23 *322:19 0.00130242
14 *272:23 *322:21 9.31739e-05
15 *272:23 *330:13 0.00159418
16 *272:23 *330:19 0.000474195
17 *272:23 *337:29 3.63775e-05
18 *272:23 *355:37 9.31739e-05
19 *272:25 la_data_out[21] 0.0001326
20 *272:25 la_data_out[24] 0.00302698
21 *272:25 *283:25 0
22 *272:25 *294:19 0.000213301
23 *272:25 *294:21 0.000110498
24 *272:25 *294:29 0.0399942
25 *272:25 *309:27 0.000217595
26 *272:25 *309:29 0.0038488
27 *272:25 *309:43 0.00014833
28 *272:25 *313:25 0.0120373
29 *272:25 *320:29 0.000162126
30 *272:25 *327:31 0
31 *272:25 *328:23 0.000379687
32 *272:25 *330:19 0.000175428
33 *272:25 *330:21 0.000428789
34 *272:25 *342:45 0.000444971
35 *272:25 *342:47 0.000773548
36 *272:25 *351:35 0.00120015
37 *272:25 *366:25 0.000306795
38 *272:25 *388:25 0
39 *272:35 *294:47 6.47346e-05
40 *272:35 *334:27 0.000228827
41 *272:35 *337:47 0.000232079
42 *272:37 la_data_out[16] 0.000380843
43 *272:37 la_data_out[25] 0.000359274
44 *272:37 *283:37 0.00188175
45 *272:37 *294:47 5.58162e-05
46 *272:37 *304:33 0.000698784
47 *272:37 *329:23 0.000402747
48 *272:37 *338:43 0.000103646
49 *272:47 *304:33 0.00178848
50 *272:49 la_data_out[11] 0.0126835
51 *272:49 *283:47 0.00121545
52 *272:49 *304:33 0.00483246
53 *126:25 *272:25 0
*RES
1 *739:la_data_out_o[0] *272:23 41.5734 
2 *272:23 *272:25 129.059 
3 *272:25 *272:35 13.4859 
4 *272:35 *272:37 50.0268 
5 *272:37 *272:47 47.4279 
6 *272:47 *272:49 50.7819 
7 *272:49 la_data_out[0] 15.6154 
*END

*D_NET *273 0.206524
*CONN
*P la_data_out[100] O
*I *739:la_data_out_o[100] O *D ntt_wb_bridge
*CAP
1 la_data_out[100] 0.0375111
2 *739:la_data_out_o[100] 0.00113306
3 *273:17 0.0375111
4 *273:15 0.00752855
5 *273:13 0.00866161
6 la_data_out[100] *714:93 0.00200938
7 *273:13 *371:23 0.000306771
8 *273:15 *275:15 0.0533379
9 *273:15 *280:15 0.0496934
10 *273:15 *385:15 0.00581259
11 *273:15 *387:15 0.000376845
12 *273:15 *390:15 0.000185779
13 *273:15 *736:15 0.00130325
14 *273:15 *737:34 0.000707593
15 *78:95 la_data_out[100] 0.000445024
16 *114:83 la_data_out[100] 0
*RES
1 *739:la_data_out_o[100] *273:13 21.8764 
2 *273:13 *273:15 518.446 
3 *273:15 *273:17 4.5 
4 *273:17 la_data_out[100] 770.982 
*END

*D_NET *274 0.203152
*CONN
*P la_data_out[101] O
*I *739:la_data_out_o[101] O *D ntt_wb_bridge
*CAP
1 la_data_out[101] 0.000811991
2 *739:la_data_out_o[101] 0.00109159
3 *274:23 0.00359689
4 *274:21 0.0027849
5 *274:19 0.0359826
6 *274:17 0.0359826
7 *274:15 0.00711119
8 *274:13 0.00820279
9 *274:13 *371:23 0.000176387
10 *274:15 *276:15 0.0399307
11 *274:15 *378:15 0.0044916
12 *274:15 *382:15 0.000131918
13 *274:15 *394:15 0
14 *274:15 *396:15 0.0465247
15 *274:15 *663:53 0.000611642
16 *274:15 *733:23 0
17 *274:19 *682:63 0.0042801
18 *274:23 *276:23 0.00920789
19 *78:85 *274:19 0.00223294
*RES
1 *739:la_data_out_o[101] *274:13 22.8557 
2 *274:13 *274:15 441.643 
3 *274:15 *274:17 4.5 
4 *274:17 *274:19 756.625 
5 *274:19 *274:21 4.5 
6 *274:21 *274:23 87.1964 
7 *274:23 la_data_out[101] 20.1964 
*END

*D_NET *275 0.195667
*CONN
*P la_data_out[102] O
*I *739:la_data_out_o[102] O *D ntt_wb_bridge
*CAP
1 la_data_out[102] 0.00140933
2 *739:la_data_out_o[102] 0.00103248
3 *275:19 0.038883
4 *275:17 0.0374736
5 *275:15 0.00903122
6 *275:13 0.0100637
7 la_data_out[102] *302:25 0.00244081
8 *275:13 *371:23 0.000211053
9 *275:15 *280:15 0.000496897
10 *275:15 *374:15 0.00430346
11 *275:15 *385:15 0.00106466
12 *275:15 *387:15 0.00011742
13 *275:15 *390:15 0.000358897
14 *275:15 *396:15 0.0152038
15 *275:15 *737:34 0.0202385
16 *275:19 *658:69 0
17 *273:15 *275:15 0.0533379
*RES
1 *739:la_data_out_o[102] *275:13 21.9983 
2 *275:13 *275:15 514.75 
3 *275:15 *275:17 4.5 
4 *275:17 *275:19 757.839 
5 *275:19 la_data_out[102] 45.6964 
*END

*D_NET *276 0.182053
*CONN
*P la_data_out[103] O
*I *739:la_data_out_o[103] O *D ntt_wb_bridge
*CAP
1 la_data_out[103] 0.000784273
2 *739:la_data_out_o[103] 0.000963003
3 *276:23 0.00471619
4 *276:21 0.00393191
5 *276:19 0.0366897
6 *276:17 0.0366897
7 *276:15 0.0124554
8 *276:13 0.0134184
9 *276:13 *353:17 0.000589524
10 *276:13 *371:23 0.000151917
11 *276:15 *378:15 0.0040922
12 *276:15 *385:15 0.000344914
13 *276:15 *394:15 0
14 *276:15 *663:53 0.000331662
15 *276:15 *733:23 0
16 *276:19 *714:49 0
17 *276:19 *715:37 0.00353859
18 *276:23 *285:21 0.00426731
19 *276:23 *286:21 0.00994973
20 *114:59 *276:19 0
21 *274:15 *276:15 0.0399307
22 *274:23 *276:23 0.00920789
*RES
1 *739:la_data_out_o[103] *276:13 23.1217 
2 *276:13 *276:15 379.214 
3 *276:15 *276:17 4.5 
4 *276:17 *276:19 757.232 
5 *276:19 *276:21 4.5 
6 *276:21 *276:23 168.107 
7 *276:23 la_data_out[103] 19.8929 
*END

*D_NET *277 0.205839
*CONN
*P la_data_out[104] O
*I *739:la_data_out_o[104] O *D ntt_wb_bridge
*CAP
1 la_data_out[104] 0.0373431
2 *739:la_data_out_o[104] 0.000778884
3 *277:19 0.0373431
4 *277:17 0.0148964
5 *277:15 0.0156753
6 la_data_out[104] *658:93 0.00163195
7 *277:15 *278:13 0
8 *277:15 *371:23 7.85104e-05
9 *277:17 *282:17 0.00470955
10 *277:17 *295:15 0.0502132
11 *277:17 *296:15 0.00117842
12 *277:17 *300:15 0.00201193
13 *277:17 *356:19 0.00025919
14 *277:17 *357:15 0.00347027
15 *277:17 *360:19 0.00299598
16 *277:17 *362:15 0.0242931
17 *277:17 *390:15 0.00851241
18 *277:17 *715:53 0.000447097
19 *76:69 la_data_out[104] 0
*RES
1 *739:la_data_out_o[104] *277:15 17.6581 
2 *277:15 *277:17 97.7694 
3 *277:17 *277:19 3.41 
4 *277:19 la_data_out[104] 768.098 
*END

*D_NET *278 0.209628
*CONN
*P la_data_out[105] O
*I *739:la_data_out_o[105] O *D ntt_wb_bridge
*CAP
1 la_data_out[105] 0.0371137
2 *739:la_data_out_o[105] 0.000662155
3 *278:25 0.0371137
4 *278:23 0.00794295
5 *278:21 0.00862751
6 *278:15 0.00295249
7 *278:13 0.00293009
8 la_data_out[105] *694:19 0
9 *278:13 *371:23 0.00011191
10 *278:15 *282:17 0.000101989
11 *278:15 *359:15 0.00294021
12 *278:15 *363:15 0.0178371
13 *278:15 *391:15 0.0176189
14 *278:15 *530:15 6.35326e-05
15 *278:15 *728:15 0.000432936
16 *278:21 *531:17 0.000410047
17 *278:21 *693:11 0.000156487
18 *278:23 *297:13 0
19 *278:23 *301:23 0.0414293
20 *278:23 *397:25 0.0297199
21 *278:23 *667:41 0.00146324
22 *115:89 la_data_out[105] 0
23 *277:15 *278:13 0
*RES
1 *739:la_data_out_o[105] *278:13 16.3961 
2 *278:13 *278:15 173.036 
3 *278:15 *278:21 21.5714 
4 *278:21 *278:23 394.411 
5 *278:23 *278:25 4.5 
6 *278:25 la_data_out[105] 753.375 
*END

*D_NET *279 0.18349
*CONN
*P la_data_out[106] O
*I *739:la_data_out_o[106] O *D ntt_wb_bridge
*CAP
1 la_data_out[106] 0.0010128
2 *739:la_data_out_o[106] 0.000633067
3 *279:23 0.0142626
4 *279:21 0.0132498
5 *279:19 0.0358706
6 *279:17 0.0450471
7 *279:13 0.0098096
8 *279:13 *280:13 0
9 *279:13 *371:23 0.00067802
10 *279:17 *281:17 0.0191616
11 *279:17 *282:17 1.00347e-05
12 *279:17 *288:21 0.00254165
13 *279:17 *295:15 0
14 *279:17 *298:29 0.00484036
15 *279:17 *299:15 0.000651894
16 *279:17 *354:15 0.000758128
17 *279:17 *358:7 0.00135577
18 *279:17 *363:39 0.000144141
19 *279:17 *364:19 0.00252014
20 *279:17 *370:15 0.00233876
21 *279:17 *372:15 0.00333602
22 *279:17 *375:13 7.80504e-05
23 *279:17 *380:13 0.00268104
24 *279:17 *529:15 0.00041787
25 *279:17 *530:15 0.000945028
26 *279:17 *531:17 0.00368614
27 *279:19 la_data_out[86] 0
28 *78:33 *279:19 0.00425874
29 *114:31 *279:19 0
30 *137:13 *279:23 0.0132013
*RES
1 *739:la_data_out_o[106] *279:13 14.1883 
2 *279:13 *279:17 48.3545 
3 *279:17 *279:19 743.875 
4 *279:19 *279:21 3.41 
5 *279:21 *279:23 55.178 
6 *279:23 la_data_out[106] 23.5082 
*END

*D_NET *280 0.212157
*CONN
*P la_data_out[107] O
*I *739:la_data_out_o[107] O *D ntt_wb_bridge
*CAP
1 la_data_out[107] 0.0380347
2 *739:la_data_out_o[107] 0.00104116
3 *280:17 0.0380347
4 *280:15 0.0103951
5 *280:13 0.0114363
6 la_data_out[107] *655:29 0.00246033
7 *280:13 *371:23 0.000334473
8 *280:15 *296:15 0.0513346
9 *280:15 *385:15 0.0046271
10 *280:15 *387:15 0.000303905
11 *280:15 *390:15 0.000242161
12 *280:15 *736:15 0.00372254
13 *78:113 la_data_out[107] 0
14 *273:15 *280:15 0.0496934
15 *275:15 *280:15 0.000496897
16 *279:13 *280:13 0
*RES
1 *739:la_data_out_o[107] *280:13 21.5854 
2 *280:13 *280:15 582.107 
3 *280:15 *280:17 4.5 
4 *280:17 la_data_out[107] 770.679 
*END

*D_NET *281 0.250222
*CONN
*P la_data_out[108] O
*I *739:la_data_out_o[108] O *D ntt_wb_bridge
*CAP
1 la_data_out[108] 0.00134241
2 *739:la_data_out_o[108] 0.0043052
3 *281:23 0.0200326
4 *281:21 0.0186902
5 *281:19 0.0122799
6 *281:17 0.0165851
7 *281:17 *282:17 0.00167319
8 *281:17 *354:15 0.0105982
9 *281:17 *358:13 9.6666e-05
10 *281:17 *359:15 0.000800791
11 *281:17 *363:15 0.000488334
12 *281:17 *371:23 0.000559749
13 *281:17 *393:15 0.00311767
14 *281:17 *395:15 0.00336184
15 *281:17 *397:15 0.000674452
16 *281:17 *731:53 0.000639996
17 *281:19 *282:19 0.0325384
18 *281:19 *284:17 2.74584e-05
19 *281:19 *292:17 0.0594942
20 *281:19 *367:19 0
21 *281:19 *649:15 0
22 *281:23 *352:27 0.00231411
23 *281:23 *353:27 1.53359e-05
24 *281:23 *358:31 0.00230423
25 *69:17 *281:23 0.0167143
26 *70:22 *281:23 0.0113362
27 *71:22 *281:23 0.00408049
28 *72:25 *281:23 0.00349488
29 *73:20 *281:23 0.00349488
30 *279:17 *281:17 0.0191616
*RES
1 *739:la_data_out_o[108] *281:17 48.0504 
2 *281:17 *281:19 738.411 
3 *281:19 *281:21 3.41 
4 *281:21 *281:23 73.4829 
5 *281:23 la_data_out[108] 29.5796 
*END

*D_NET *282 0.210491
*CONN
*P la_data_out[109] O
*I *739:la_data_out_o[109] O *D ntt_wb_bridge
*CAP
1 la_data_out[109] 0.00246593
2 *739:la_data_out_o[109] 0.00482305
3 *282:23 0.0198823
4 *282:21 0.0174164
5 *282:19 0.0165805
6 *282:17 0.0214035
7 *282:17 *295:15 0.0103959
8 *282:17 *356:19 0.00276573
9 *282:17 *359:15 0.00489546
10 *282:17 *371:23 0.000500613
11 *282:17 *728:15 0.00169348
12 *282:17 *731:53 0.000197989
13 *282:19 *367:19 0.0198287
14 *282:19 *649:15 0
15 *78:23 *282:23 0.00086443
16 *101:27 *282:23 0.0477437
17 *277:17 *282:17 0.00470955
18 *278:15 *282:17 0.000101989
19 *279:17 *282:17 1.00347e-05
20 *281:17 *282:17 0.00167319
21 *281:19 *282:19 0.0325384
*RES
1 *739:la_data_out_o[109] *282:17 49.4513 
2 *282:17 *282:19 721.411 
3 *282:19 *282:21 3.41 
4 *282:21 *282:23 76.0773 
5 *282:23 la_data_out[109] 49.0082 
*END

*D_NET *283 0.227454
*CONN
*P la_data_out[10] O
*I *739:la_data_out_o[10] O *D ntt_wb_bridge
*CAP
1 la_data_out[10] 0.000724749
2 *739:la_data_out_o[10] 0.000522433
3 *283:47 0.00550048
4 *283:37 0.00586473
5 *283:25 0.0300639
6 *283:23 0.0291262
7 *283:17 0.00854415
8 *283:15 0.00839284
9 *283:13 0.00137481
10 *283:11 0.00189724
11 *283:11 *310:27 0.000174904
12 *283:13 *294:13 0.0087523
13 *283:13 *303:13 4.43256e-05
14 *283:13 *314:13 0.00170707
15 *283:13 *329:13 0.0091226
16 *283:13 *377:19 0
17 *283:17 *306:17 0.0210975
18 *283:17 *326:19 5.25192e-06
19 *283:17 *329:17 3.13013e-05
20 *283:17 *350:31 0
21 *283:23 *595:9 0
22 *283:23 *596:9 3.11711e-05
23 *283:25 *306:17 0.000137113
24 *283:25 *317:19 0.00775
25 *283:25 *317:29 0.000143652
26 *283:25 *318:19 0.000906148
27 *283:25 *319:19 0.00086438
28 *283:25 *321:19 0.00731079
29 *283:25 *324:19 0.000379687
30 *283:25 *326:29 0.000158874
31 *283:25 *329:17 0.000160692
32 *283:37 *294:47 0.00146954
33 *283:37 *303:23 0.000193147
34 *283:37 *329:17 2.30134e-05
35 *283:37 *331:17 0
36 *283:37 *334:27 0.000222973
37 *283:37 *337:47 0.000226081
38 *283:47 la_data_out[16] 0.00937486
39 *283:47 *303:23 0.016376
40 *283:47 *304:33 0.00275586
41 *126:25 *283:17 0.00427671
42 *126:25 *283:25 0.0386491
43 *134:21 *283:25 0
44 *272:25 *283:25 0
45 *272:37 *283:37 0.00188175
46 *272:49 *283:47 0.00121545
*RES
1 *739:la_data_out_o[10] *283:11 10.8507 
2 *283:11 *283:13 87.1964 
3 *283:13 *283:15 4.5 
4 *283:15 *283:17 261.652 
5 *283:17 *283:23 7.11923 
6 *283:23 *283:25 84.741 
7 *283:25 *283:37 45.8609 
8 *283:37 *283:47 43.5126 
9 *283:47 la_data_out[10] 14.6339 
*END

*D_NET *284 0.2452
*CONN
*P la_data_out[110] O
*I *739:la_data_out_o[110] O *D ntt_wb_bridge
*CAP
1 la_data_out[110] 0.000721062
2 *739:la_data_out_o[110] 0.000391537
3 *284:25 0.006393
4 *284:23 0.00639159
5 *284:17 0.0230044
6 *284:15 0.0222848
7 *284:13 0.00469853
8 *284:11 0.00509007
9 *284:11 *371:23 0.000207276
10 *284:13 *285:13 0.000583171
11 *284:13 *288:23 0.00237508
12 *284:13 *292:13 0.000296636
13 *284:13 *293:13 0.0102251
14 *284:13 *368:19 0
15 *284:13 *375:13 0.00133321
16 *284:13 *383:13 0.00140578
17 *284:13 *383:21 0.00382359
18 *284:13 *392:21 2.14757e-05
19 *284:17 *292:17 7.00803e-05
20 *284:17 *302:17 0.0602077
21 *284:17 *369:15 0
22 *284:17 *649:15 0.00174624
23 *284:17 *676:35 0.00179146
24 *284:17 *734:19 0
25 *284:17 *735:11 0
26 *284:23 *292:23 0.00104972
27 *284:23 *292:25 2.74737e-05
28 *284:23 *359:31 0.000121926
29 *284:23 *365:27 0.000611739
30 *284:23 *368:47 0.000989344
31 *284:25 *285:21 0.0411898
32 *284:25 *292:25 0.0450501
33 *284:25 *383:39 0.00307096
34 *281:19 *284:17 2.74584e-05
*RES
1 *739:la_data_out_o[110] *284:11 11.5738 
2 *284:11 *284:13 157.429 
3 *284:13 *284:15 4.5 
4 *284:15 *284:17 745.089 
5 *284:17 *284:23 30.4107 
6 *284:23 *284:25 426.446 
7 *284:25 la_data_out[110] 18.9821 
*END

*D_NET *285 0.211828
*CONN
*P la_data_out[111] O
*I *739:la_data_out_o[111] O *D ntt_wb_bridge
*CAP
1 la_data_out[111] 0.00073538
2 *739:la_data_out_o[111] 0.00021891
3 *285:21 0.00836067
4 *285:19 0.00762529
5 *285:17 0.0352912
6 *285:15 0.0352912
7 *285:13 0.0043422
8 *285:11 0.00456111
9 *285:11 *371:23 0.000191525
10 *285:13 *286:13 0.0218731
11 *285:13 *288:23 0.00341047
12 *285:13 *292:13 0.0111014
13 *285:13 *371:23 0.00173713
14 *285:17 *658:35 0.00676158
15 *285:17 *714:37 0
16 *285:21 *286:21 0.0233607
17 *285:21 *292:25 0.000926199
18 *276:23 *285:21 0.00426731
19 *284:13 *285:13 0.000583171
20 *284:25 *285:21 0.0411898
*RES
1 *739:la_data_out_o[111] *285:11 9.96507 
2 *285:11 *285:13 212.875 
3 *285:13 *285:15 4.5 
4 *285:15 *285:17 743.875 
5 *285:17 *285:19 4.5 
6 *285:19 *285:21 405.911 
7 *285:21 la_data_out[111] 19.2857 
*END

*D_NET *286 0.218203
*CONN
*P la_data_out[112] O
*I *739:la_data_out_o[112] O *D ntt_wb_bridge
*CAP
1 la_data_out[112] 0.000749802
2 *739:la_data_out_o[112] 0.000129326
3 *286:21 0.00657233
4 *286:19 0.00582253
5 *286:17 0.025086
6 *286:15 0.025086
7 *286:13 0.00677942
8 *286:11 0.00690874
9 *286:11 *371:23 8.72503e-05
10 *286:13 *287:13 0.0406887
11 *286:13 *288:23 0.00761456
12 *286:13 *298:31 0.00125378
13 *286:13 *371:23 0.00179851
14 *286:13 *531:17 0.000125681
15 *286:17 la_data_out[97] 0.0337048
16 *286:17 *714:71 0
17 *286:21 *292:25 0.000611631
18 *276:23 *286:21 0.00994973
19 *285:13 *286:13 0.0218731
20 *285:21 *286:21 0.0233607
*RES
1 *739:la_data_out_o[112] *286:11 9.35443 
2 *286:11 *286:13 392.768 
3 *286:13 *286:15 4.5 
4 *286:15 *286:17 743.268 
5 *286:17 *286:19 4.5 
6 *286:19 *286:21 236.696 
7 *286:21 la_data_out[112] 19.5893 
*END

*D_NET *287 0.223246
*CONN
*P la_data_out[113] O
*I *739:la_data_out_o[113] O *D ntt_wb_bridge
*CAP
1 la_data_out[113] 0.035451
2 *739:la_data_out_o[113] 0.00014073
3 *287:15 0.035451
4 *287:13 0.0105586
5 *287:11 0.0106993
6 la_data_out[113] *655:107 0.00117138
7 la_data_out[113] *686:77 0.000466582
8 la_data_out[113] *721:79 0.00505014
9 *287:11 *371:23 0.000129811
10 *287:13 *288:23 0.00796834
11 *287:13 *289:13 0.0662877
12 *287:13 *298:31 0.00384064
13 *287:13 *371:23 0.00194922
14 *287:13 *531:17 0.000110202
15 *77:115 la_data_out[113] 0.00328292
16 *286:13 *287:13 0.0406887
*RES
1 *739:la_data_out_o[113] *287:11 9.1762 
2 *287:11 *287:13 637.964 
3 *287:13 *287:15 4.5 
4 *287:15 la_data_out[113] 757.929 
*END

*D_NET *288 0.181967
*CONN
*P la_data_out[114] O
*I *739:la_data_out_o[114] O *D ntt_wb_bridge
*CAP
1 la_data_out[114] 0.0373759
2 *739:la_data_out_o[114] 0.0012214
3 *288:25 0.0373759
4 *288:23 0.0136882
5 *288:21 0.0149096
6 la_data_out[114] *652:93 0.000318935
7 la_data_out[114] *659:77 0.00229877
8 la_data_out[114] *694:103 0
9 la_data_out[114] *694:117 0
10 la_data_out[114] *723:105 0.00144158
11 *288:21 *365:19 0.000951722
12 *288:21 *371:23 0.000111134
13 *288:21 *380:13 0.00438659
14 *288:23 *289:13 0.000187721
15 *288:23 *292:13 0.0100975
16 *288:23 *293:13 0.0104471
17 *288:23 *369:13 0.000122494
18 *288:23 *392:21 0.0231222
19 *279:17 *288:21 0.00254165
20 *284:13 *288:23 0.00237508
21 *285:13 *288:23 0.00341047
22 *286:13 *288:23 0.00761456
23 *287:13 *288:23 0.00796834
*RES
1 *739:la_data_out_o[114] *288:21 30.3782 
2 *288:21 *288:23 610.036 
3 *288:23 *288:25 4.5 
4 *288:25 la_data_out[114] 759.143 
*END

*D_NET *289 0.236017
*CONN
*P la_data_out[115] O
*I *739:la_data_out_o[115] O *D ntt_wb_bridge
*CAP
1 la_data_out[115] 0.0373
2 *739:la_data_out_o[115] 8.40237e-05
3 *289:15 0.0373
4 *289:13 0.00972203
5 *289:11 0.00980605
6 la_data_out[115] *652:121 0.000522113
7 la_data_out[115] *665:57 0.000517454
8 la_data_out[115] *686:47 0.00023328
9 la_data_out[115] *694:133 0
10 la_data_out[115] *721:109 0
11 la_data_out[115] *721:125 0
12 la_data_out[115] *723:105 0.000239433
13 *289:11 *371:23 6.80978e-05
14 *289:13 *290:13 0.0687356
15 *289:13 *293:13 0
16 *289:13 *298:31 0.00440194
17 *289:13 *371:23 0.000501175
18 *289:13 *531:17 0.000110202
19 *114:129 la_data_out[115] 0
20 *287:13 *289:13 0.0662877
21 *288:23 *289:13 0.000187721
*RES
1 *739:la_data_out_o[115] *289:11 8.69089 
2 *289:11 *289:13 657.268 
3 *289:13 *289:15 4.5 
4 *289:15 la_data_out[115] 757.625 
*END

*D_NET *290 0.242563
*CONN
*P la_data_out[116] O
*I *739:la_data_out_o[116] O *D ntt_wb_bridge
*CAP
1 la_data_out[116] 0.0372583
2 *739:la_data_out_o[116] 0.000111942
3 *290:15 0.0372583
4 *290:13 0.00980289
5 *290:11 0.00991483
6 la_data_out[116] *296:19 0
7 la_data_out[116] *669:51 0.00124892
8 la_data_out[116] *686:47 0.00167631
9 la_data_out[116] *694:141 0
10 *290:11 *371:23 7.661e-05
11 *290:13 *291:13 0.0696502
12 *290:13 *293:13 0
13 *290:13 *298:31 0.0062555
14 *290:13 *371:23 0.000454531
15 *290:13 *531:17 0.000118833
16 *114:137 la_data_out[116] 0
17 *289:13 *290:13 0.0687356
*RES
1 *739:la_data_out_o[116] *290:11 8.41239 
2 *290:11 *290:13 668.357 
3 *290:13 *290:15 4.5 
4 *290:15 la_data_out[116] 757.321 
*END

*D_NET *291 0.219115
*CONN
*P la_data_out[117] O
*I *739:la_data_out_o[117] O *D ntt_wb_bridge
*CAP
1 la_data_out[117] 0.035343
2 *739:la_data_out_o[117] 0.000105875
3 *291:19 0.0371717
4 *291:13 0.0141292
5 *291:11 0.0124064
6 la_data_out[117] *669:51 0.000392063
7 *291:11 *371:23 5.50998e-05
8 *291:13 *297:13 0.0340053
9 *291:13 *298:31 0.00921502
10 *291:13 *302:13 0.00485961
11 *291:13 *371:23 0.00010142
12 *291:13 *694:157 0.000201457
13 *291:19 *669:51 0.00125705
14 *291:19 *694:157 4.21517e-05
15 *112:33 la_data_out[117] 0
16 *112:33 *291:19 0
17 *115:131 la_data_out[117] 0
18 *115:131 *291:19 0.000180038
19 *290:13 *291:13 0.0696502
*RES
1 *739:la_data_out_o[117] *291:11 8.35912 
2 *291:11 *291:13 676.982 
3 *291:13 *291:19 42.8304 
4 *291:19 la_data_out[117] 719.348 
*END

*D_NET *292 0.299483
*CONN
*P la_data_out[118] O
*I *739:la_data_out_o[118] O *D ntt_wb_bridge
*CAP
1 la_data_out[118] 0.000699992
2 *739:la_data_out_o[118] 0.00038289
3 *292:25 0.00927028
4 *292:23 0.00903787
5 *292:17 0.0107842
6 *292:15 0.0103167
7 *292:13 0.00176695
8 *292:11 0.00214984
9 *292:11 *371:23 0.000171309
10 *292:13 *371:23 0.00162577
11 *292:17 *302:17 0.0602511
12 *292:17 *367:19 0
13 *292:23 la_data_out[81] 0.000304799
14 *292:23 la_data_out[83] 0.00186282
15 *292:23 *302:23 9.86486e-06
16 *292:23 *365:27 0.00053001
17 *292:23 *373:31 0.000121926
18 *292:25 *296:23 0.00313721
19 *292:25 *302:23 0.000202726
20 *292:25 *302:25 0.0581314
21 *281:19 *292:17 0.0594942
22 *284:13 *292:13 0.000296636
23 *284:17 *292:17 7.00803e-05
24 *284:23 *292:23 0.00104972
25 *284:23 *292:25 2.74737e-05
26 *284:25 *292:25 0.0450501
27 *285:13 *292:13 0.0111014
28 *285:21 *292:25 0.000926199
29 *286:21 *292:25 0.000611631
30 *288:23 *292:13 0.0100975
*RES
1 *739:la_data_out_o[118] *292:11 10.2091 
2 *292:11 *292:13 105.679 
3 *292:13 *292:15 4.5 
4 *292:15 *292:17 744.482 
5 *292:17 *292:23 28.4643 
6 *292:23 *292:25 553.768 
7 *292:25 la_data_out[118] 18.6786 
*END

*D_NET *293 0.16114
*CONN
*P la_data_out[119] O
*I *739:la_data_out_o[119] O *D ntt_wb_bridge
*CAP
1 la_data_out[119] 0.0371693
2 *739:la_data_out_o[119] 0.000551797
3 *293:15 0.0371693
4 *293:13 0.0280838
5 *293:11 0.0286356
6 *293:11 *371:23 0.00021387
7 *293:13 *299:15 0
8 *293:13 *368:19 0
9 *293:13 *369:7 0.000848076
10 *293:13 *383:21 0.00130142
11 *293:13 *392:21 0.00649446
12 *293:13 *529:15 0
13 *103:17 la_data_out[119] 0
14 *115:137 la_data_out[119] 0
15 *284:13 *293:13 0.0102251
16 *288:23 *293:13 0.0104471
17 *289:13 *293:13 0
18 *290:13 *293:13 0
*RES
1 *739:la_data_out_o[119] *293:11 11.8523 
2 *293:11 *293:13 691.357 
3 *293:13 *293:15 4.5 
4 *293:15 la_data_out[119] 760.357 
*END

*D_NET *294 0.225766
*CONN
*P la_data_out[11] O
*I *739:la_data_out_o[11] O *D ntt_wb_bridge
*CAP
1 la_data_out[11] 0.00680761
2 *739:la_data_out_o[11] 0.000279905
3 *294:47 0.00798792
4 *294:29 0.0202405
5 *294:27 0.0191592
6 *294:21 0.00713286
7 *294:19 0.00816032
8 *294:13 0.00431541
9 *294:11 0.00346883
10 la_data_out[11] la_data_out[18] 0.00798228
11 la_data_out[11] la_data_out[21] 0.00274175
12 la_data_out[11] *304:33 0.00154728
13 *294:11 *310:27 4.68172e-05
14 *294:13 *328:15 0
15 *294:13 *329:13 0.000604724
16 *294:13 *334:19 0.00172447
17 *294:13 *377:17 0
18 *294:13 *377:19 0
19 *294:19 *335:23 0.00178031
20 *294:19 *351:33 0.00185701
21 *294:19 *351:35 0
22 *294:19 *366:25 0.000181963
23 *294:21 *335:23 0
24 *294:21 *342:45 5.79809e-05
25 *294:21 *351:35 0.0179578
26 *294:27 *342:45 0.000129624
27 *294:29 la_data_out[24] 0.00426363
28 *294:29 *309:29 0.000773548
29 *294:29 *320:31 0.00288782
30 *294:29 *323:23 0.00288782
31 *294:29 *325:19 0.00550562
32 *294:29 *327:31 8.16231e-06
33 *294:29 *328:23 0.0039615
34 *294:29 *330:21 0.0079196
35 *294:29 *341:53 3.35547e-05
36 *294:47 la_data_out[21] 0
37 *294:47 la_data_out[25] 2.12733e-05
38 *294:47 *304:33 0
39 *294:47 *307:25 0
40 *294:47 *309:43 0
41 *294:47 *318:25 0.000272344
42 *294:47 *326:33 0.000123924
43 *294:47 *334:27 0.000362495
44 *294:47 *335:23 8.66018e-05
45 *135:20 *294:29 0.0191499
46 *272:25 *294:19 0.000213301
47 *272:25 *294:21 0.000110498
48 *272:25 *294:29 0.0399942
49 *272:35 *294:47 6.47346e-05
50 *272:37 *294:47 5.58162e-05
51 *272:49 la_data_out[11] 0.0126835
52 *283:13 *294:13 0.0087523
53 *283:37 *294:47 0.00146954
*RES
1 *739:la_data_out_o[11] *294:11 10.7532 
2 *294:11 *294:13 92.9464 
3 *294:13 *294:19 46.7946 
4 *294:19 *294:21 221.554 
5 *294:21 *294:27 7.04717 
6 *294:27 *294:29 84.5279 
7 *294:29 *294:47 43.5318 
8 *294:47 la_data_out[11] 47.1249 
*END

*D_NET *295 0.20189
*CONN
*P la_data_out[120] O
*I *739:la_data_out_o[120] O *D ntt_wb_bridge
*CAP
1 la_data_out[120] 0.0387272
2 *739:la_data_out_o[120] 0.00101187
3 *295:17 0.0387272
4 *295:15 0.0304459
5 *295:13 0.0314578
6 *295:13 *371:23 0.000319128
7 *295:15 *669:51 0
8 *295:15 *721:133 0.000591947
9 *295:15 *723:105 0
10 *277:17 *295:15 0.0502132
11 *279:17 *295:15 0
12 *282:17 *295:15 0.0103959
*RES
1 *739:la_data_out_o[120] *295:13 17.2797 
2 *295:13 *295:15 123.137 
3 *295:15 *295:17 3.41 
4 *295:17 la_data_out[120] 767.491 
*END

*D_NET *296 0.235738
*CONN
*P la_data_out[121] O
*I *739:la_data_out_o[121] O *D ntt_wb_bridge
*CAP
1 la_data_out[121] 0.00073758
2 *739:la_data_out_o[121] 0.00137955
3 *296:23 0.00334536
4 *296:21 0.00260778
5 *296:19 0.0371882
6 *296:17 0.0371882
7 *296:15 0.0102208
8 *296:13 0.0116003
9 *296:13 *371:23 0.000494496
10 *296:15 *300:15 0.0640222
11 *296:15 *387:15 0.00328043
12 *296:15 *390:15 0.000312492
13 *296:15 *736:15 0.00141202
14 *296:19 *669:51 0.000383596
15 *296:19 *686:47 0.000378235
16 *296:19 *721:125 0
17 *296:23 *302:25 0.00275104
18 la_data_out[116] *296:19 0
19 *76:79 *296:15 0.00278512
20 *277:17 *296:15 0.00117842
21 *280:15 *296:15 0.0513346
22 *292:25 *296:23 0.00313721
*RES
1 *739:la_data_out_o[121] *296:13 21.5231 
2 *296:13 *296:15 631.804 
3 *296:15 *296:17 4.5 
4 *296:17 *296:19 756.018 
5 *296:19 *296:21 4.5 
6 *296:21 *296:23 77.3393 
7 *296:23 la_data_out[121] 18.9821 
*END

*D_NET *297 0.193023
*CONN
*P la_data_out[122] O
*I *739:la_data_out_o[122] O *D ntt_wb_bridge
*CAP
1 la_data_out[122] 0.036899
2 *739:la_data_out_o[122] 0.00042652
3 *297:15 0.036899
4 *297:13 0.0237878
5 *297:11 0.0242143
6 *297:11 *371:23 0.000118926
7 *297:13 *298:29 0.000400663
8 *297:13 *298:31 0.0192599
9 *297:13 *302:13 0.00486125
10 *297:13 *368:33 0.00164482
11 *297:13 *368:35 0.00220867
12 *297:13 *391:23 0.000336598
13 *297:13 *391:27 0.00796056
14 *297:13 *393:23 0
15 *297:13 *395:23 0
16 *297:13 *397:25 0
17 *278:23 *297:13 0
18 *291:13 *297:13 0.0340053
*RES
1 *739:la_data_out_o[122] *297:11 8.83225 
2 *297:11 *297:13 718.875 
3 *297:13 *297:15 4.5 
4 *297:15 la_data_out[122] 756.411 
*END

*D_NET *298 0.237555
*CONN
*P la_data_out[123] O
*I *739:la_data_out_o[123] O *D ntt_wb_bridge
*CAP
1 la_data_out[123] 0.0368582
2 *739:la_data_out_o[123] 0.00218871
3 *298:33 0.0368582
4 *298:31 0.0477544
5 *298:29 0.0499431
6 *298:29 *299:15 0.0002845
7 *298:29 *301:21 0.00266763
8 *298:29 *363:39 5.23496e-05
9 *298:29 *364:19 0.000810441
10 *298:29 *365:19 0.000406859
11 *298:29 *368:35 0.000404001
12 *298:29 *370:15 0.000882309
13 *298:29 *371:23 0.000376225
14 *298:29 *380:13 0.00120736
15 *298:29 *393:21 0.000529468
16 *298:31 *371:23 0.000509157
17 *298:31 *375:13 0
18 *298:31 *391:27 0.00261966
19 *298:31 *393:23 0.000535878
20 *298:31 *531:17 9.53122e-05
21 *298:31 *655:121 0.000367552
22 *298:31 *667:41 0.00109613
23 *298:31 *669:51 0
24 *298:31 *694:141 0
25 *298:31 *694:157 0.000945665
26 *77:153 *298:31 0.000694189
27 *108:31 la_data_out[123] 0
28 *279:17 *298:29 0.00484036
29 *286:13 *298:31 0.00125378
30 *287:13 *298:31 0.00384064
31 *289:13 *298:31 0.00440194
32 *290:13 *298:31 0.0062555
33 *291:13 *298:31 0.00921502
34 *297:13 *298:29 0.000400663
35 *297:13 *298:31 0.0192599
*RES
1 *739:la_data_out_o[123] *298:29 47.9086 
2 *298:29 *298:31 119.606 
3 *298:31 *298:33 3.41 
4 *298:33 la_data_out[123] 755.955 
*END

*D_NET *299 0.174368
*CONN
*P la_data_out[124] O
*I *739:la_data_out_o[124] O *D ntt_wb_bridge
*CAP
1 la_data_out[124] 0.0371808
2 *739:la_data_out_o[124] 0.000648357
3 *299:17 0.0371808
4 *299:15 0.0339542
5 *299:13 0.0346025
6 *299:13 *371:23 0.000314081
7 *299:15 *301:21 0.000395796
8 *299:15 *365:19 0.00738275
9 *299:15 *368:19 0.00135884
10 *299:15 *529:15 0.0193054
11 *299:15 *530:15 0.00100607
12 *299:15 *669:51 0.000101825
13 *279:17 *299:15 0.000651894
14 *293:13 *299:15 0
15 *298:29 *299:15 0.0002845
*RES
1 *739:la_data_out_o[124] *299:13 13.6612 
2 *299:13 *299:15 738.179 
3 *299:15 *299:17 4.5 
4 *299:17 la_data_out[124] 762.786 
*END

*D_NET *300 0.205425
*CONN
*P la_data_out[125] O
*I *739:la_data_out_o[125] O *D ntt_wb_bridge
*CAP
1 la_data_out[125] 0.0375302
2 *739:la_data_out_o[125] 0.00111791
3 *300:17 0.0375302
4 *300:15 0.0260234
5 *300:13 0.0271413
6 *300:13 *371:23 0.000257954
7 *300:15 *387:15 0.00413688
8 *300:15 *658:101 0.000108755
9 *300:15 *689:31 3.30337e-05
10 *300:15 *715:53 0.000108757
11 *300:15 *726:15 5.96516e-05
12 *300:15 *736:15 0.00531249
13 *76:79 *300:15 2.98786e-05
14 *277:17 *300:15 0.00201193
15 *296:15 *300:15 0.0640222
*RES
1 *739:la_data_out_o[125] *300:13 20.856 
2 *300:13 *300:15 747.625 
3 *300:15 *300:17 4.5 
4 *300:17 la_data_out[125] 770.071 
*END

*D_NET *301 0.192668
*CONN
*P la_data_out[126] O
*I *739:la_data_out_o[126] O *D ntt_wb_bridge
*CAP
1 la_data_out[126] 0.0379315
2 *739:la_data_out_o[126] 0.00139387
3 *301:25 0.0379315
4 *301:23 0.0307491
5 *301:21 0.032143
6 *301:21 *365:19 0.00043519
7 *301:21 *368:33 0.000350927
8 *301:21 *371:23 0.000198818
9 *301:21 *380:13 0.00266763
10 *301:21 *393:21 0.000631379
11 *301:21 *395:21 0.000650725
12 *301:23 *397:25 0.000377916
13 *301:23 *667:41 0.00271393
14 *278:23 *301:23 0.0414293
15 *298:29 *301:21 0.00266763
16 *299:15 *301:21 0.000395796
*RES
1 *739:la_data_out_o[126] *301:21 34.062 
2 *301:21 *301:23 733.661 
3 *301:23 *301:25 4.5 
4 *301:25 la_data_out[126] 753.071 
*END

*D_NET *302 0.26862
*CONN
*P la_data_out[127] O
*I *739:la_data_out_o[127] O *D ntt_wb_bridge
*CAP
1 la_data_out[127] 0.000700659
2 *739:la_data_out_o[127] 0.000147901
3 *302:25 0.0242548
4 *302:23 0.0243291
5 *302:17 0.0108499
6 *302:15 0.010075
7 *302:13 0.000914642
8 *302:11 0.00106254
9 *302:11 *371:23 3.12446e-05
10 *302:17 *369:15 0
11 *302:17 *373:31 4.19535e-05
12 *302:23 la_data_out[81] 0.00104643
13 *302:23 la_data_out[83] 0.000775261
14 *302:23 *354:31 0.000154045
15 *302:23 *378:23 0.000521513
16 la_data_out[102] *302:25 0.00244081
17 *284:17 *302:17 0.0602077
18 *291:13 *302:13 0.00485961
19 *292:17 *302:17 0.0602511
20 *292:23 *302:23 9.86486e-06
21 *292:25 *302:23 0.000202726
22 *292:25 *302:25 0.0581314
23 *296:23 *302:25 0.00275104
24 *297:13 *302:13 0.00486125
*RES
1 *739:la_data_out_o[127] *302:11 8.37792 
2 *302:11 *302:13 46.9464 
3 *302:13 *302:15 4.5 
4 *302:15 *302:17 743.268 
5 *302:17 *302:23 32.3661 
6 *302:23 *302:25 692.795 
7 *302:25 la_data_out[127] 18.375 
*END

*D_NET *303 0.20993
*CONN
*P la_data_out[12] O
*I *739:la_data_out_o[12] O *D ntt_wb_bridge
*CAP
1 la_data_out[12] 0.0007716
2 *739:la_data_out_o[12] 0.00021474
3 *303:23 0.00564048
4 *303:17 0.0154867
5 *303:15 0.0106178
6 *303:13 0.00172687
7 *303:11 0.00194161
8 *303:11 *310:27 4.89453e-05
9 *303:13 *304:13 0.0114068
10 *303:13 *310:27 0.00153431
11 *303:13 *311:21 0.000197723
12 *303:13 *314:13 0.000114729
13 *303:13 *329:13 0.0107808
14 *303:17 la_data_out[23] 0
15 *303:17 *331:17 1.53887e-05
16 *303:17 *334:23 0.0601513
17 *303:17 *340:35 0.0593708
18 *303:23 la_data_out[14] 0.000927277
19 *303:23 la_data_out[15] 0.00982241
20 *303:23 la_data_out[16] 0.000897057
21 *303:23 la_data_out[21] 9.29581e-06
22 *303:23 *304:33 0.000211018
23 *303:23 *337:47 0.000655192
24 *134:21 *303:17 0.000773548
25 *283:13 *303:13 4.43256e-05
26 *283:37 *303:23 0.000193147
27 *283:47 *303:23 0.016376
*RES
1 *739:la_data_out_o[12] *303:11 9.84878 
2 *303:11 *303:13 108.143 
3 *303:13 *303:15 4.5 
4 *303:15 *303:17 743.723 
5 *303:17 *303:23 37.7836 
6 *303:23 la_data_out[12] 15.2411 
*END

*D_NET *304 0.173602
*CONN
*P la_data_out[13] O
*I *739:la_data_out_o[13] O *D ntt_wb_bridge
*CAP
1 la_data_out[13] 0.000676063
2 *739:la_data_out_o[13] 0.000241779
3 *304:33 0.00562977
4 *304:25 0.0270602
5 *304:23 0.0234996
6 *304:13 0.00351763
7 *304:11 0.00236627
8 *304:11 *310:27 7.98021e-05
9 *304:13 *305:13 0.000456439
10 *304:13 *306:13 0.0114694
11 *304:13 *310:27 0.00155479
12 *304:13 *311:21 0.000150767
13 *304:13 *314:13 0.000223526
14 *304:13 *329:13 0.00036194
15 *304:23 *337:39 0.00143087
16 *304:23 *337:41 0.000771655
17 *304:23 *338:37 0.000319954
18 *304:25 *337:41 0.0559021
19 *304:33 la_data_out[16] 0.0110862
20 *304:33 la_data_out[21] 0.00159064
21 *304:33 *337:41 0.000645447
22 *304:33 *338:39 0
23 la_data_out[11] *304:33 0.00154728
24 *97:21 *304:25 0.0013261
25 *272:37 *304:33 0.000698784
26 *272:47 *304:33 0.00178848
27 *272:49 *304:33 0.00483246
28 *283:47 *304:33 0.00275586
29 *294:47 *304:33 0
30 *303:13 *304:13 0.0114068
31 *303:23 *304:33 0.000211018
*RES
1 *739:la_data_out_o[13] *304:11 9.63607 
2 *304:11 *304:13 120.464 
3 *304:13 *304:23 45.0089 
4 *304:23 *304:25 690.125 
5 *304:25 *304:33 46.9992 
6 *304:33 la_data_out[13] 16.8296 
*END

*D_NET *305 0.134347
*CONN
*P la_data_out[14] O
*I *739:la_data_out_o[14] O *D ntt_wb_bridge
*CAP
1 la_data_out[14] 0.00210303
2 *739:la_data_out_o[14] 0.000244933
3 *305:25 0.0393373
4 *305:23 0.04019
5 *305:13 0.00492719
6 *305:11 0.00221637
7 la_data_out[14] la_data_out[15] 0.00128841
8 *305:11 *310:27 0.000110659
9 *305:13 *306:13 0.0121109
10 *305:13 *307:13 0.000739904
11 *305:13 *309:13 0.0115569
12 *305:13 *310:27 0.00117889
13 *305:13 *388:25 0.000101187
14 *305:13 *399:25 0.00011348
15 *305:23 *310:31 0.00688677
16 *305:23 *314:13 0.00169174
17 *305:23 *332:11 1.94879e-05
18 *305:23 *339:37 2.11419e-05
19 *305:23 *344:29 0.00185461
20 *305:23 *377:29 0.00627011
21 *80:65 *305:25 0
22 *303:23 la_data_out[14] 0.000927277
23 *304:13 *305:13 0.000456439
*RES
1 *739:la_data_out_o[14] *305:11 9.11979 
2 *305:11 *305:13 123.339 
3 *305:13 *305:23 31.6783 
4 *305:23 *305:25 741.446 
5 *305:25 la_data_out[14] 28.1508 
*END

*D_NET *306 0.197115
*CONN
*P la_data_out[15] O
*I *739:la_data_out_o[15] O *D ntt_wb_bridge
*CAP
1 la_data_out[15] 0.00664833
2 *739:la_data_out_o[15] 0.000314403
3 *306:17 0.0173997
4 *306:15 0.0107513
5 *306:13 0.00183073
6 *306:11 0.00214514
7 la_data_out[15] *334:27 0.000618865
8 la_data_out[15] *337:47 5.33423e-06
9 *306:11 *310:27 0.000141516
10 *306:13 *309:13 0.000355801
11 *306:13 *310:27 0.0013773
12 *306:13 *329:13 0.000505779
13 *306:13 *377:17 0.000103611
14 *306:13 *388:25 0.000116425
15 *306:13 *399:25 0.000129238
16 *306:17 *329:17 0.0600471
17 *306:17 *341:55 0.0374827
18 *306:17 *350:31 0
19 la_data_out[14] la_data_out[15] 0.00128841
20 *126:25 *306:17 0.00121557
21 *283:17 *306:17 0.0210975
22 *283:25 *306:17 0.000137113
23 *303:23 la_data_out[15] 0.00982241
24 *304:13 *306:13 0.0114694
25 *305:13 *306:13 0.0121109
*RES
1 *739:la_data_out_o[15] *306:11 9.51423 
2 *306:11 *306:13 120.875 
3 *306:13 *306:15 4.5 
4 *306:15 *306:17 741.902 
5 *306:17 la_data_out[15] 46.4815 
*END

*D_NET *307 0.161682
*CONN
*P la_data_out[16] O
*I *739:la_data_out_o[16] O *D ntt_wb_bridge
*CAP
1 la_data_out[16] 0.00287569
2 *739:la_data_out_o[16] 0.000170583
3 *307:25 0.040186
4 *307:23 0.0375574
5 *307:13 0.00267961
6 *307:11 0.00260307
7 *307:11 *310:27 9.89546e-05
8 *307:13 *309:13 0.0129082
9 *307:13 *310:27 0.000831142
10 *307:13 *313:13 0.0128441
11 *307:13 *377:17 0.000104252
12 *307:13 *388:25 0.000117507
13 *307:13 *399:25 0.000130762
14 *307:23 *310:31 0.00105582
15 *307:23 *332:11 6.58638e-05
16 *307:23 *339:37 6.75178e-05
17 *307:23 *344:29 0.00105821
18 *129:19 *307:25 0.0238487
19 *272:37 la_data_out[16] 0.000380843
20 *283:47 la_data_out[16] 0.00937486
21 *294:47 *307:25 0
22 *303:23 la_data_out[16] 0.000897057
23 *304:33 la_data_out[16] 0.0110862
24 *305:13 *307:13 0.000739904
*RES
1 *739:la_data_out_o[16] *307:11 8.47819 
2 *307:11 *307:13 136.893 
3 *307:13 *307:23 13.9085 
4 *307:23 *307:25 742.661 
5 *307:25 la_data_out[16] 38.5501 
*END

*D_NET *308 0.129212
*CONN
*P la_data_out[17] O
*I *739:la_data_out_o[17] O *D ntt_wb_bridge
*CAP
1 la_data_out[17] 0.0382712
2 *739:la_data_out_o[17] 0.000647776
3 *308:15 0.0439952
4 *308:11 0.00637181
5 *308:11 *310:27 0.000184619
6 *308:15 *312:13 0.0212033
7 *308:15 *314:13 0.000126697
8 *308:15 *331:13 0.0154845
9 *308:15 *332:7 0.000230801
10 *308:15 *333:15 0
11 *308:15 *377:29 0.00269629
*RES
1 *739:la_data_out_o[17] *308:11 11.7935 
2 *308:11 *308:15 44.8233 
3 *308:15 la_data_out[17] 761.42 
*END

*D_NET *309 0.196177
*CONN
*P la_data_out[18] O
*I *739:la_data_out_o[18] O *D ntt_wb_bridge
*CAP
1 la_data_out[18] 0.00379467
2 *739:la_data_out_o[18] 0.000340045
3 *309:43 0.00507457
4 *309:29 0.0111172
5 *309:27 0.0104695
6 *309:13 0.00276158
7 *309:11 0.00246948
8 la_data_out[18] la_data_out[21] 0.00036709
9 *309:11 *310:27 0.000234086
10 *309:13 *310:27 0.00111237
11 *309:13 *313:13 0.000642469
12 *309:13 *329:13 0.000221985
13 *309:13 *388:25 0.000108972
14 *309:13 *399:25 0.000121265
15 *309:27 *313:23 0.000800883
16 *309:27 *313:25 4.70828e-05
17 *309:27 *320:29 0
18 *309:27 *351:33 0.000901986
19 *309:29 la_data_out[21] 2.14001e-05
20 *309:29 *313:25 0.0573675
21 *309:29 *330:21 0.057416
22 *309:43 la_data_out[21] 0.000950461
23 *309:43 la_data_out[23] 2.41874e-05
24 *309:43 *319:23 0.000438327
25 *309:43 *321:23 0.000479153
26 *309:43 *326:33 3.51224e-06
27 *309:43 *330:21 0.000483449
28 *309:43 *332:11 0.000390346
29 *309:43 *336:23 0.000204655
30 *309:43 *338:39 2.14278e-05
31 la_data_out[11] la_data_out[18] 0.00798228
32 *272:25 *309:27 0.000217595
33 *272:25 *309:29 0.0038488
34 *272:25 *309:43 0.00014833
35 *294:29 *309:29 0.000773548
36 *294:47 *309:43 0
37 *305:13 *309:13 0.0115569
38 *306:13 *309:13 0.000355801
39 *307:13 *309:13 0.0129082
*RES
1 *739:la_data_out_o[18] *309:11 9.17969 
2 *309:11 *309:13 133.607 
3 *309:13 *309:27 36.6964 
4 *309:27 *309:29 708.812 
5 *309:29 *309:43 46.1243 
6 *309:43 la_data_out[18] 28.2128 
*END

*D_NET *310 0.13682
*CONN
*P la_data_out[19] O
*I *739:la_data_out_o[19] O *D ntt_wb_bridge
*CAP
1 la_data_out[19] 0.0380538
2 *739:la_data_out_o[19] 0.00856281
3 *310:31 0.0398914
4 *310:27 0.0104004
5 *310:27 *311:21 0.000712431
6 *310:27 *313:13 0.000338904
7 *310:27 *314:13 0.0149381
8 *310:27 *322:19 9.32151e-05
9 *310:27 *327:25 1.23075e-05
10 *310:27 *330:13 0.00010988
11 *310:27 *333:13 0.000280384
12 *310:27 *344:27 0.000435669
13 *310:27 *344:29 0.000349935
14 *310:27 *355:13 0.000131526
15 *310:27 *366:25 0.000457791
16 *310:27 *377:17 0.000494366
17 *310:27 *388:25 0.000576062
18 *310:27 *399:25 0.000635198
19 *310:31 *314:13 0.000298436
20 *310:31 *344:29 0.00338255
21 *272:23 *310:27 1.3294e-05
22 *283:11 *310:27 0.000174904
23 *294:11 *310:27 4.68172e-05
24 *303:11 *310:27 4.89453e-05
25 *303:13 *310:27 0.00153431
26 *304:11 *310:27 7.98021e-05
27 *304:13 *310:27 0.00155479
28 *305:11 *310:27 0.000110659
29 *305:13 *310:27 0.00117889
30 *305:23 *310:31 0.00688677
31 *306:11 *310:27 0.000141516
32 *306:13 *310:27 0.0013773
33 *307:11 *310:27 9.89546e-05
34 *307:13 *310:27 0.000831142
35 *307:23 *310:31 0.00105582
36 *308:11 *310:27 0.000184619
37 *309:11 *310:27 0.000234086
38 *309:13 *310:27 0.00111237
*RES
1 *739:la_data_out_o[19] *310:27 44.2605 
2 *310:27 *310:31 15.4561 
3 *310:31 la_data_out[19] 757.17 
*END

*D_NET *311 0.136161
*CONN
*P la_data_out[1] O
*I *739:la_data_out_o[1] O *D ntt_wb_bridge
*CAP
1 la_data_out[1] 0.0371918
2 *739:la_data_out_o[1] 0.000745984
3 *311:25 0.0371918
4 *311:23 0.0166435
5 *311:21 0.0173895
6 *311:21 *314:13 0.00090369
7 *311:21 *322:19 0.00131093
8 *311:21 *337:29 0.00122071
9 *311:21 *342:31 2.6606e-05
10 *311:23 *322:21 0
11 *311:23 *327:25 2.35215e-05
12 *311:23 *337:39 0.00219713
13 *311:23 *344:27 1.43168e-05
14 *311:23 *344:29 0.0183953
15 *118:95 la_data_out[1] 0.00180687
16 *272:23 *311:21 3.82932e-05
17 *303:13 *311:21 0.000197723
18 *304:13 *311:21 0.000150767
19 *310:27 *311:21 0.000712431
*RES
1 *739:la_data_out_o[1] *311:21 32.9766 
2 *311:21 *311:23 64.3305 
3 *311:23 *311:25 3.41 
4 *311:25 la_data_out[1] 754.741 
*END

*D_NET *312 0.127771
*CONN
*P la_data_out[20] O
*I *739:la_data_out_o[20] O *D ntt_wb_bridge
*CAP
1 la_data_out[20] 0.0383231
2 *739:la_data_out_o[20] 0.00600395
3 *312:15 0.0383231
4 *312:13 0.00600395
5 *312:13 *314:13 0.000142571
6 *312:13 *326:15 0.00174929
7 *312:13 *328:15 0.00326061
8 *312:13 *330:13 0.000205013
9 *312:13 *331:13 0.00119751
10 *312:13 *333:15 0.0012094
11 *312:13 *337:15 0.00251657
12 *312:13 *344:27 0.00412391
13 *312:13 *377:17 0.000641904
14 *312:13 *377:19 0.00040522
15 *312:13 *388:25 0.00246207
16 *308:15 *312:13 0.0212033
*RES
1 *739:la_data_out_o[20] *312:13 49.0418 
2 *312:13 *312:15 3.41 
3 *312:15 la_data_out[20] 762.027 
*END

*D_NET *313 0.199092
*CONN
*P la_data_out[21] O
*I *739:la_data_out_o[21] O *D ntt_wb_bridge
*CAP
1 la_data_out[21] 0.00254591
2 *739:la_data_out_o[21] 0.000272094
3 *313:25 0.0124903
4 *313:23 0.0103916
5 *313:13 0.0028274
6 *313:11 0.00265224
7 la_data_out[21] *330:21 5.01791e-05
8 la_data_out[21] *331:23 0.00121684
9 la_data_out[21] *332:15 0.00162562
10 la_data_out[21] *335:23 0
11 la_data_out[21] *335:33 1.90936e-05
12 la_data_out[21] *337:47 5.26595e-05
13 la_data_out[21] *338:43 0.000281309
14 la_data_out[21] *342:47 0.00018737
15 *313:11 *314:13 0.000201681
16 *313:11 *330:13 0.000266429
17 *313:13 *329:13 0
18 *313:13 *330:13 0.015931
19 *313:13 *388:25 0.000107058
20 *313:13 *399:25 0.000119135
21 *313:23 *320:29 1.47205e-05
22 *313:23 *330:19 0.000528617
23 *313:23 *366:25 0.000104183
24 *313:25 *330:19 0.000108093
25 *313:25 *330:21 1.37255e-05
26 *313:25 *342:47 0.000586259
27 *313:25 *351:35 0.0561108
28 la_data_out[11] la_data_out[21] 0.00274175
29 la_data_out[18] la_data_out[21] 0.00036709
30 *272:23 *313:13 1.98839e-05
31 *272:23 *313:23 0.000475789
32 *272:25 la_data_out[21] 0.0001326
33 *272:25 *313:25 0.0120373
34 *294:47 la_data_out[21] 0
35 *303:23 la_data_out[21] 9.29581e-06
36 *304:33 la_data_out[21] 0.00159064
37 *307:13 *313:13 0.0128441
38 *309:13 *313:13 0.000642469
39 *309:27 *313:23 0.000800883
40 *309:27 *313:25 4.70828e-05
41 *309:29 la_data_out[21] 2.14001e-05
42 *309:29 *313:25 0.0573675
43 *309:43 la_data_out[21] 0.000950461
44 *310:27 *313:13 0.000338904
*RES
1 *739:la_data_out_o[21] *313:11 9.14872 
2 *313:11 *313:13 151.268 
3 *313:13 *313:23 24.1875 
4 *313:23 *313:25 709.875 
5 *313:25 la_data_out[21] 44.7325 
*END

*D_NET *314 0.130083
*CONN
*P la_data_out[22] O
*I *739:la_data_out_o[22] O *D ntt_wb_bridge
*CAP
1 la_data_out[22] 0.0381346
2 *739:la_data_out_o[22] 0.00473812
3 *314:13 0.0428727
4 *314:13 *329:13 0.00335805
5 *314:13 *332:7 0.000110235
6 *314:13 *334:19 0.0195083
7 *314:13 *377:29 0.00101263
8 *283:13 *314:13 0.00170707
9 *303:13 *314:13 0.000114729
10 *304:13 *314:13 0.000223526
11 *305:23 *314:13 0.00169174
12 *308:15 *314:13 0.000126697
13 *310:27 *314:13 0.0149381
14 *310:31 *314:13 0.000298436
15 *311:21 *314:13 0.00090369
16 *312:13 *314:13 0.000142571
17 *313:11 *314:13 0.000201681
*RES
1 *739:la_data_out_o[22] *314:13 37.8923 
2 *314:13 la_data_out[22] 758.384 
*END

*D_NET *315 0.149828
*CONN
*P la_data_out[23] O
*I *739:la_data_out_o[23] O *D ntt_wb_bridge
*CAP
1 la_data_out[23] 0.025174
2 *739:la_data_out_o[23] 0.00089991
3 *315:25 0.0260589
4 *315:15 0.00399882
5 *315:13 0.00401391
6 la_data_out[23] *331:17 0
7 la_data_out[23] *332:11 0.0605911
8 la_data_out[23] *336:21 0
9 la_data_out[23] *339:37 0.000256024
10 la_data_out[23] *340:35 0
11 la_data_out[23] *346:37 0
12 la_data_out[23] *689:29 1.01241e-05
13 la_data_out[23] *729:21 0.00025869
14 *315:13 *316:17 0
15 *315:13 *334:19 5.60769e-05
16 *315:15 *335:15 0.00189943
17 *315:15 *340:33 0.0011262
18 *315:15 *342:29 0.000263857
19 *315:15 *351:23 0.0166392
20 *315:15 *737:34 0.00442914
21 *315:25 *338:29 0.00298006
22 *315:25 *343:29 5.28706e-05
23 *315:25 *726:23 0.000403461
24 *315:25 *736:23 0.00031283
25 *134:21 la_data_out[23] 0.000379687
26 *303:17 la_data_out[23] 0
27 *309:43 la_data_out[23] 2.41874e-05
*RES
1 *739:la_data_out_o[23] *315:13 19.8482 
2 *315:13 *315:15 157.429 
3 *315:15 *315:25 18.1495 
4 *315:25 la_data_out[23] 772.348 
*END

*D_NET *316 0.201038
*CONN
*P la_data_out[24] O
*I *739:la_data_out_o[24] O *D ntt_wb_bridge
*CAP
1 la_data_out[24] 0.0105805
2 *739:la_data_out_o[24] 0.000635288
3 *316:33 0.0118107
4 *316:19 0.00333057
5 *316:17 0.00273565
6 la_data_out[24] *323:21 2.14001e-05
7 la_data_out[24] *323:23 0.0590185
8 la_data_out[24] *325:29 1.14483e-05
9 la_data_out[24] *328:23 0.0588384
10 la_data_out[24] *330:21 2.61076e-05
11 *316:17 *334:19 7.59343e-05
12 *316:19 *317:15 0.0177526
13 *316:19 *341:29 0.00256483
14 *316:19 *355:17 0.00434274
15 *316:19 *366:25 0.000958529
16 *316:19 *399:25 0.0003844
17 *316:19 *689:31 0
18 *316:19 *728:15 0.0132559
19 *316:33 *323:21 0.000747812
20 *316:33 *327:31 0.000154205
21 *316:33 *328:23 0.000406364
22 *316:33 *355:37 0.0018339
23 *135:20 la_data_out[24] 0.00426155
24 *272:25 la_data_out[24] 0.00302698
25 *294:29 la_data_out[24] 0.00426363
26 *315:13 *316:17 0
*RES
1 *739:la_data_out_o[24] *316:17 15.7831 
2 *316:17 *316:19 166.875 
3 *316:19 *316:33 46.5446 
4 *316:33 la_data_out[24] 741.384 
*END

*D_NET *317 0.207627
*CONN
*P la_data_out[25] O
*I *739:la_data_out_o[25] O *D ntt_wb_bridge
*CAP
1 la_data_out[25] 0.00105502
2 *739:la_data_out_o[25] 0.000626558
3 *317:29 0.00200422
4 *317:19 0.0108245
5 *317:17 0.00987533
6 *317:15 0.00266679
7 *317:13 0.00329335
8 la_data_out[25] *318:25 0.00239127
9 la_data_out[25] *329:23 0.000179587
10 la_data_out[25] *330:27 0.00174595
11 la_data_out[25] *338:43 0.000362706
12 *317:13 *334:19 0.000174348
13 *317:15 *318:15 0.0198843
14 *317:15 *341:29 0.00250104
15 *317:15 *366:25 0.000908396
16 *317:15 *399:25 0.000461337
17 *317:15 *689:31 0
18 *317:15 *728:15 0.000337508
19 *317:19 *318:19 0.0579101
20 *317:19 *319:19 2.61408e-05
21 *317:19 *321:19 0.0578217
22 *317:19 *335:21 6.2589e-06
23 *317:19 *335:23 0
24 *317:19 *388:25 0.000565177
25 *317:29 *318:19 0.002868
26 *317:29 *329:17 0.00289562
27 *80:41 *317:29 0.000109657
28 *126:25 *317:19 0.000105594
29 *272:37 la_data_out[25] 0.000359274
30 *283:25 *317:19 0.00775
31 *283:25 *317:29 0.000143652
32 *294:47 la_data_out[25] 2.12733e-05
33 *316:19 *317:15 0.0177526
*RES
1 *739:la_data_out_o[25] *317:13 15.4764 
2 *317:13 *317:15 187 
3 *317:15 *317:17 4.5 
4 *317:17 *317:19 714.884 
5 *317:19 *317:29 48.8236 
6 *317:29 la_data_out[25] 41.5 
*END

*D_NET *318 0.209689
*CONN
*P la_data_out[26] O
*I *739:la_data_out_o[26] O *D ntt_wb_bridge
*CAP
1 la_data_out[26] 0.000720199
2 *739:la_data_out_o[26] 0.000624195
3 *318:25 0.00131748
4 *318:19 0.0113481
5 *318:17 0.0107508
6 *318:15 0.00254142
7 *318:13 0.00316561
8 la_data_out[26] *329:27 7.35637e-05
9 *318:13 *334:19 0.000233484
10 *318:15 *319:15 0.000229938
11 *318:15 *320:15 0.0200153
12 *318:15 *321:15 8.25843e-06
13 *318:15 *333:15 0.000841659
14 *318:15 *339:17 0.00321515
15 *318:15 *366:25 0.000369524
16 *318:15 *728:15 0.000256231
17 *318:19 *321:19 1.13346e-05
18 *318:19 *326:19 0.0576849
19 *318:19 *326:29 0.00276675
20 *318:19 *329:17 1.53472e-05
21 *318:19 *350:31 0
22 *318:19 *388:25 0.000497279
23 *318:25 *326:33 0.000144906
24 *318:25 *328:27 0.00339622
25 *318:25 *330:27 0.000926199
26 *318:25 *336:35 0.00022616
27 *318:25 *337:49 0.000466682
28 la_data_out[25] *318:25 0.00239127
29 *126:25 *318:19 0.00361049
30 *283:25 *318:19 0.000906148
31 *294:47 *318:25 0.000272344
32 *317:15 *318:15 0.0198843
33 *317:19 *318:19 0.0579101
34 *317:29 *318:19 0.002868
*RES
1 *739:la_data_out_o[26] *318:13 15.2637 
2 *318:13 *318:15 193.571 
3 *318:15 *318:17 4.5 
4 *318:17 *318:19 751.464 
5 *318:19 *318:25 47.7321 
6 *318:25 la_data_out[26] 14.1786 
*END

*D_NET *319 0.208173
*CONN
*P la_data_out[27] O
*I *739:la_data_out_o[27] O *D ntt_wb_bridge
*CAP
1 la_data_out[27] 0.000948082
2 *739:la_data_out_o[27] 0.000596842
3 *319:23 0.00278031
4 *319:21 0.00183223
5 *319:19 0.0105807
6 *319:17 0.0105807
7 *319:15 0.00255721
8 *319:13 0.00315405
9 *319:13 *334:19 0.000292619
10 *319:15 *320:15 0.0206725
11 *319:15 *321:15 0.000371991
12 *319:15 *323:15 0.0204107
13 *319:15 *333:15 0.000510526
14 *319:15 *337:15 0.00397856
15 *319:19 *321:19 0.0604771
16 *319:19 *324:19 0.0604295
17 *319:19 *335:23 4.53816e-05
18 *319:19 *388:25 0.00048282
19 *319:23 *320:35 0.00491587
20 *319:23 *321:23 0.000119738
21 *319:23 *334:27 0.00087727
22 *319:23 *350:35 0
23 *283:25 *319:19 0.00086438
24 *309:43 *319:23 0.000438327
25 *317:19 *319:19 2.61408e-05
26 *318:15 *319:15 0.000229938
*RES
1 *739:la_data_out_o[27] *319:13 14.7474 
2 *319:13 *319:15 198.5 
3 *319:15 *319:17 4.5 
4 *319:17 *319:19 748.125 
5 *319:19 *319:21 4.5 
6 *319:21 *319:23 53.1071 
7 *319:23 la_data_out[27] 21.4107 
*END

*D_NET *320 0.221948
*CONN
*P la_data_out[28] O
*I *739:la_data_out_o[28] O *D ntt_wb_bridge
*CAP
1 la_data_out[28] 0.000926869
2 *739:la_data_out_o[28] 0.000638263
3 *320:35 0.00203953
4 *320:33 0.00111266
5 *320:31 0.00931334
6 *320:29 0.0102571
7 *320:15 0.00355975
8 *320:13 0.00325427
9 *320:13 *334:19 0.000351755
10 *320:15 *323:15 0.00036194
11 *320:15 *333:15 0.000650229
12 *320:15 *339:17 0.00327008
13 *320:15 *366:25 0.000370356
14 *320:15 *728:15 0.000392671
15 *320:29 *323:21 0
16 *320:29 *328:21 0.000130973
17 *320:29 *328:23 0.00126496
18 *320:29 *330:19 0.00132298
19 *320:29 *351:33 7.21639e-05
20 *320:31 *323:23 0.0589367
21 *320:31 *325:19 0.0580014
22 *320:31 *325:29 0.000810696
23 *320:31 *327:31 0.00454645
24 *320:35 *321:23 0.00660959
25 *320:35 *334:27 0.00136098
26 *84:19 *320:31 8.34352e-05
27 *135:20 *320:31 0.00364057
28 *272:25 *320:29 0.000162126
29 *294:29 *320:31 0.00288782
30 *309:27 *320:29 0
31 *313:23 *320:29 1.47205e-05
32 *318:15 *320:15 0.0200153
33 *319:15 *320:15 0.0206725
34 *319:23 *320:35 0.00491587
*RES
1 *739:la_data_out_o[28] *320:13 15.1418 
2 *320:13 *320:15 200.554 
3 *320:15 *320:29 41.3571 
4 *320:29 *320:31 723.839 
5 *320:31 *320:33 4.5 
6 *320:33 *320:35 62.5536 
7 *320:35 la_data_out[28] 21.1071 
*END

*D_NET *321 0.228394
*CONN
*P la_data_out[29] O
*I *739:la_data_out_o[29] O *D ntt_wb_bridge
*CAP
1 la_data_out[29] 0.000922691
2 *739:la_data_out_o[29] 0.000599792
3 *321:23 0.00242475
4 *321:21 0.00150206
5 *321:19 0.0105832
6 *321:17 0.0105832
7 *321:15 0.00277826
8 *321:13 0.00337805
9 *321:13 *334:19 0.00041089
10 *321:15 *323:15 0.0217157
11 *321:15 *324:15 0.000367433
12 *321:15 *325:15 0.0216708
13 *321:15 *326:15 1.65169e-05
14 *321:15 *337:15 0.00345237
15 *321:15 *388:25 0.00106013
16 *321:19 *324:19 2.18837e-05
17 *321:19 *326:29 0.00267361
18 *321:19 *388:25 0.000522437
19 *321:23 *323:27 0.00829993
20 *321:23 *324:23 0.000307365
21 *321:23 *326:33 2.33087e-05
22 *321:23 *334:27 0.0018698
23 *283:25 *321:19 0.00731079
24 *309:43 *321:23 0.000479153
25 *317:19 *321:19 0.0578217
26 *318:15 *321:15 8.25843e-06
27 *318:19 *321:19 1.13346e-05
28 *319:15 *321:15 0.000371991
29 *319:19 *321:19 0.0604771
30 *319:23 *321:23 0.000119738
31 *320:35 *321:23 0.00660959
*RES
1 *739:la_data_out_o[29] *321:13 14.322 
2 *321:13 *321:15 211.232 
3 *321:15 *321:17 4.5 
4 *321:17 *321:19 748.125 
5 *321:19 *321:21 4.5 
6 *321:21 *321:23 85.1429 
7 *321:23 la_data_out[29] 20.8036 
*END

*D_NET *322 0.146141
*CONN
*P la_data_out[2] O
*I *739:la_data_out_o[2] O *D ntt_wb_bridge
*CAP
1 la_data_out[2] 0.0385986
2 *739:la_data_out_o[2] 0.000906153
3 *322:23 0.0385986
4 *322:21 0.0140789
5 *322:19 0.0149851
6 *322:19 *325:19 0.000407762
7 *322:19 *327:25 6.14923e-06
8 *322:19 *330:13 0.000593667
9 *322:19 *337:29 0.000639924
10 *322:19 *342:31 0
11 *322:21 *337:39 0.000363111
12 *322:21 *355:37 0.000342543
13 *322:21 *355:39 0.033489
14 *80:97 la_data_out[2] 0.000331881
15 *272:23 *322:19 0.00130242
16 *272:23 *322:21 9.31739e-05
17 *310:27 *322:19 9.32151e-05
18 *311:21 *322:19 0.00131093
19 *311:23 *322:21 0
*RES
1 *739:la_data_out_o[2] *322:19 44.6218 
2 *322:19 *322:21 61.4478 
3 *322:21 *322:23 3.41 
4 *322:23 la_data_out[2] 751.098 
*END

*D_NET *323 0.232719
*CONN
*P la_data_out[30] O
*I *739:la_data_out_o[30] O *D ntt_wb_bridge
*CAP
1 la_data_out[30] 0.000883606
2 *739:la_data_out_o[30] 0.000634666
3 *323:27 0.00241035
4 *323:25 0.00152674
5 *323:23 0.00933461
6 *323:21 0.00993959
7 *323:15 0.00354349
8 *323:13 0.00357317
9 *323:13 *334:19 0.000470026
10 *323:15 *325:15 0.00036194
11 *323:15 *333:15 0.000540347
12 *323:15 *337:15 0.0039596
13 *323:15 *339:17 0.000145785
14 *323:15 *728:15 0
15 *323:21 *325:19 0.00182171
16 *323:21 *327:31 0.000178285
17 *323:21 *328:21 0.000511428
18 *323:21 *328:23 0.000107586
19 *323:21 *337:29 0.000114472
20 *323:21 *342:31 0
21 *323:23 *325:19 1.37255e-05
22 *323:23 *325:29 2.02991e-05
23 *323:23 *327:31 0.00420169
24 *323:27 *324:23 0.00999419
25 *323:27 *334:27 0.00209209
26 la_data_out[24] *323:21 2.14001e-05
27 la_data_out[24] *323:23 0.0590185
28 *135:20 *323:23 0.00393928
29 *294:29 *323:23 0.00288782
30 *316:33 *323:21 0.000747812
31 *319:15 *323:15 0.0204107
32 *320:15 *323:15 0.00036194
33 *320:29 *323:21 0
34 *320:31 *323:23 0.0589367
35 *321:15 *323:15 0.0217157
36 *321:23 *323:27 0.00829993
*RES
1 *739:la_data_out_o[30] *323:13 14.7164 
2 *323:13 *323:15 210.411 
3 *323:15 *323:21 28.9911 
4 *323:21 *323:23 724.902 
5 *323:23 *323:25 4.5 
6 *323:25 *323:27 94.5893 
7 *323:27 la_data_out[30] 20.5 
*END

*D_NET *324 0.232318
*CONN
*P la_data_out[31] O
*I *739:la_data_out_o[31] O *D ntt_wb_bridge
*CAP
1 la_data_out[31] 0.000874992
2 *739:la_data_out_o[31] 0.000510949
3 *324:23 0.00277176
4 *324:21 0.00189677
5 *324:19 0.010591
6 *324:17 0.010591
7 *324:15 0.00294246
8 *324:13 0.00345341
9 *324:13 *325:13 0
10 *324:13 *334:19 0.000294658
11 *324:15 *325:15 0.0231984
12 *324:15 *326:15 0.000460623
13 *324:15 *327:15 0.0230231
14 *324:15 *337:15 0.00338114
15 *324:15 *388:25 0.00111808
16 *324:19 *326:29 1.43688e-05
17 *324:19 *335:23 0.0605169
18 *324:19 *366:25 0.000173055
19 *324:19 *388:25 0.000240874
20 *324:23 *325:31 0.0116005
21 *324:23 *326:33 0.000171655
22 *324:23 *335:33 0.000349693
23 *324:23 *335:35 0.00264209
24 *283:25 *324:19 0.000379687
25 *319:19 *324:19 0.0604295
26 *321:15 *324:15 0.000367433
27 *321:19 *324:19 2.18837e-05
28 *321:23 *324:23 0.000307365
29 *323:27 *324:23 0.00999419
*RES
1 *739:la_data_out_o[31] *324:13 13.5362 
2 *324:13 *324:15 224.786 
3 *324:15 *324:17 4.5 
4 *324:17 *324:19 748.125 
5 *324:19 *324:21 4.5 
6 *324:21 *324:23 116.357 
7 *324:23 la_data_out[31] 20.1964 
*END

*D_NET *325 0.215306
*CONN
*P la_data_out[32] O
*I *739:la_data_out_o[32] O *D ntt_wb_bridge
*CAP
1 la_data_out[32] 0.000850002
2 *739:la_data_out_o[32] 0.000589015
3 *325:31 0.0027617
4 *325:29 0.00234169
5 *325:19 0.0123107
6 *325:17 0.0118807
7 *325:15 0.00309549
8 *325:13 0.00368451
9 *325:13 *329:13 0.000101187
10 *325:13 *334:19 0.000588297
11 *325:15 *327:15 0.00023978
12 *325:15 *337:15 0.00372276
13 *325:15 *339:17 0.000346051
14 *325:15 *388:25 0.000878029
15 *325:15 *728:15 0
16 *325:19 *327:25 0
17 *325:19 *327:35 0.0212073
18 *325:19 *342:31 0
19 *325:19 *342:35 0.0101197
20 *325:19 *344:27 0.000112986
21 *325:19 *355:37 2.06178e-05
22 *325:29 *327:35 0.00062227
23 *325:31 *326:33 0.013251
24 *325:31 *335:35 0.00279887
25 la_data_out[24] *325:29 1.14483e-05
26 *82:19 *325:19 0.000207565
27 *84:19 *325:29 8.19176e-05
28 *86:27 *325:19 6.97592e-05
29 *294:29 *325:19 0.00550562
30 *320:31 *325:19 0.0580014
31 *320:31 *325:29 0.000810696
32 *321:15 *325:15 0.0216708
33 *322:19 *325:19 0.000407762
34 *323:15 *325:15 0.00036194
35 *323:21 *325:19 0.00182171
36 *323:23 *325:19 1.37255e-05
37 *323:23 *325:29 2.02991e-05
38 *324:13 *325:13 0
39 *324:15 *325:15 0.0231984
40 *324:23 *325:31 0.0116005
*RES
1 *739:la_data_out_o[32] *325:13 14.291 
2 *325:13 *325:15 222.321 
3 *325:15 *325:17 4.5 
4 *325:17 *325:19 735.527 
5 *325:19 *325:29 19.0268 
6 *325:29 *325:31 125.393 
7 *325:31 la_data_out[32] 19.8929 
*END

*D_NET *326 0.254534
*CONN
*P la_data_out[33] O
*I *739:la_data_out_o[33] O *D ntt_wb_bridge
*CAP
1 la_data_out[33] 0.000825012
2 *739:la_data_out_o[33] 0.000545782
3 *326:33 0.0031662
4 *326:31 0.00234119
5 *326:29 0.000934282
6 *326:19 0.0108
7 *326:17 0.00986576
8 *326:15 0.00323437
9 *326:13 0.00378015
10 *326:13 *329:13 0.00011348
11 *326:13 *334:19 0.000647433
12 *326:15 *327:15 0.0241126
13 *326:15 *328:15 0.0243578
14 *326:15 *337:15 0.000834146
15 *326:15 *344:27 0.000831475
16 *326:15 *377:19 0.000282025
17 *326:15 *388:25 0.000303102
18 *326:19 *329:17 0.0573832
19 *326:19 *350:31 0
20 *326:19 *388:25 0.000154703
21 *326:29 *335:23 0
22 *326:33 *327:39 0.0148539
23 *326:33 *328:27 0.000136558
24 *326:33 *335:33 0.000353096
25 *326:33 *336:37 0.00317888
26 *326:33 *337:47 0.000216722
27 *126:25 *326:19 0.0120338
28 *283:17 *326:19 5.25192e-06
29 *283:25 *326:29 0.000158874
30 *294:47 *326:33 0.000123924
31 *309:43 *326:33 3.51224e-06
32 *312:13 *326:15 0.00174929
33 *318:19 *326:19 0.0576849
34 *318:19 *326:29 0.00276675
35 *318:25 *326:33 0.000144906
36 *321:15 *326:15 1.65169e-05
37 *321:19 *326:29 0.00267361
38 *321:23 *326:33 2.33087e-05
39 *324:15 *326:15 0.000460623
40 *324:19 *326:29 1.43688e-05
41 *324:23 *326:33 0.000171655
42 *325:31 *326:33 0.013251
*RES
1 *739:la_data_out_o[33] *326:13 13.4711 
2 *326:13 *326:15 237.107 
3 *326:15 *326:17 4.5 
4 *326:17 *326:19 711.696 
5 *326:19 *326:29 46.625 
6 *326:29 *326:31 4.5 
7 *326:31 *326:33 149.214 
8 *326:33 la_data_out[33] 19.5893 
*END

*D_NET *327 0.204962
*CONN
*P la_data_out[34] O
*I *739:la_data_out_o[34] O *D ntt_wb_bridge
*CAP
1 la_data_out[34] 0.000783646
2 *739:la_data_out_o[34] 0.000719086
3 *327:39 0.00310092
4 *327:37 0.00231727
5 *327:35 0.01631
6 *327:33 0.01631
7 *327:31 0.014953
8 *327:25 0.0153337
9 *327:15 0.00361797
10 *327:13 0.00395638
11 *327:13 *329:13 0.000125772
12 *327:13 *334:19 0.000680208
13 *327:15 *328:15 0.00036194
14 *327:15 *337:15 0.00328233
15 *327:15 *388:25 0.00132455
16 *327:15 *728:15 0
17 *327:25 *342:31 0.000550296
18 *327:25 *344:27 0.00049931
19 *327:31 *341:43 0
20 *327:31 *342:31 0.000640178
21 *327:31 *342:35 0.00401279
22 *327:31 *342:45 2.1479e-05
23 *327:31 *366:25 0
24 *327:39 *328:27 0.0165042
25 *327:39 *336:37 0.00329667
26 *327:39 *337:47 0.000179039
27 *82:19 *327:35 0.000205858
28 *86:27 *327:35 6.8099e-05
29 *135:20 *327:35 0.0026178
30 *272:25 *327:31 0
31 *294:29 *327:31 8.16231e-06
32 *310:27 *327:25 1.23075e-05
33 *311:23 *327:25 2.35215e-05
34 *316:33 *327:31 0.000154205
35 *320:31 *327:31 0.00454645
36 *322:19 *327:25 6.14923e-06
37 *323:21 *327:31 0.000178285
38 *323:23 *327:31 0.00420169
39 *324:15 *327:15 0.0230231
40 *325:15 *327:15 0.00023978
41 *325:19 *327:25 0
42 *325:19 *327:35 0.0212073
43 *325:29 *327:35 0.00062227
44 *326:15 *327:15 0.0241126
45 *326:33 *327:39 0.0148539
*RES
1 *739:la_data_out_o[34] *327:13 13.8656 
2 *327:13 *327:15 233 
3 *327:15 *327:25 19.1097 
4 *327:25 *327:31 48.9232 
5 *327:31 *327:33 3.41 
6 *327:33 *327:35 482.652 
7 *327:35 *327:37 4.5 
8 *327:37 *327:39 156.196 
9 *327:39 la_data_out[34] 19.2857 
*END

*D_NET *328 0.244178
*CONN
*P la_data_out[35] O
*I *739:la_data_out_o[35] O *D ntt_wb_bridge
*CAP
1 la_data_out[35] 0.000758655
2 *739:la_data_out_o[35] 0.000360328
3 *328:27 0.00335345
4 *328:25 0.0025948
5 *328:23 0.0105014
6 *328:21 0.0108739
7 *328:15 0.00777047
8 *328:13 0.00775839
9 *328:13 *334:19 6.21943e-05
10 *328:15 *337:15 0.00224327
11 *328:15 *344:27 0.000669057
12 *328:15 *377:17 0.00327925
13 *328:15 *377:19 0.00150132
14 *328:15 *388:25 0.000273281
15 *328:23 *330:19 0.000108982
16 *328:23 *330:21 0.0585485
17 *328:23 *337:29 5.88276e-05
18 *328:27 *329:29 0.0150244
19 *328:27 *330:27 8.43535e-06
20 *328:27 *336:35 0.000199689
21 *328:27 *337:49 0.00394808
22 la_data_out[24] *328:23 0.0588384
23 *135:20 *328:23 0.00066305
24 *272:25 *328:23 0.000379687
25 *294:13 *328:15 0
26 *294:29 *328:23 0.0039615
27 *312:13 *328:15 0.00326061
28 *316:33 *328:23 0.000406364
29 *318:25 *328:27 0.00339622
30 *320:29 *328:21 0.000130973
31 *320:29 *328:23 0.00126496
32 *323:21 *328:21 0.000511428
33 *323:21 *328:23 0.000107586
34 *326:15 *328:15 0.0243578
35 *326:33 *328:27 0.000136558
36 *327:15 *328:15 0.00036194
37 *327:39 *328:27 0.0165042
*RES
1 *739:la_data_out_o[35] *328:13 12.2683 
2 *328:13 *328:15 247.786 
3 *328:15 *328:21 12.4018 
4 *328:21 *328:23 741.598 
5 *328:23 *328:25 4.5 
6 *328:25 *328:27 174.679 
7 *328:27 la_data_out[35] 18.9821 
*END

*D_NET *329 0.238248
*CONN
*P la_data_out[36] O
*I *739:la_data_out_o[36] O *D ntt_wb_bridge
*CAP
1 la_data_out[36] 0.000733665
2 *739:la_data_out_o[36] 0.000177728
3 *329:29 0.00309836
4 *329:27 0.00242435
5 *329:23 0.00135866
6 *329:17 0.0119124
7 *329:15 0.0106133
8 *329:13 0.00953291
9 *329:11 0.00971063
10 *329:11 *334:19 2.38112e-05
11 *329:13 *330:13 0
12 *329:13 *334:19 0.000807991
13 *329:23 *330:27 0.00348115
14 *329:23 *331:23 0.00165634
15 *329:29 *330:27 0.000259774
16 *329:29 *330:29 0.0161971
17 *329:29 *337:49 0.00352445
18 la_data_out[25] *329:23 0.000179587
19 la_data_out[26] *329:27 7.35637e-05
20 *126:25 *329:17 0.00120289
21 *272:37 *329:23 0.000402747
22 *283:13 *329:13 0.0091226
23 *283:17 *329:17 3.13013e-05
24 *283:25 *329:17 0.000160692
25 *283:37 *329:17 2.30134e-05
26 *294:13 *329:13 0.000604724
27 *303:13 *329:13 0.0107808
28 *304:13 *329:13 0.00036194
29 *306:13 *329:13 0.000505779
30 *306:17 *329:17 0.0600471
31 *309:13 *329:13 0.000221985
32 *313:13 *329:13 0
33 *314:13 *329:13 0.00335805
34 *317:29 *329:17 0.00289562
35 *318:19 *329:17 1.53472e-05
36 *325:13 *329:13 0.000101187
37 *326:13 *329:13 0.00011348
38 *326:19 *329:17 0.0573832
39 *327:13 *329:13 0.000125772
40 *328:27 *329:29 0.0150244
*RES
1 *739:la_data_out_o[36] *329:11 10.1711 
2 *329:11 *329:13 262.161 
3 *329:13 *329:15 4.5 
4 *329:15 *329:17 746 
5 *329:17 *329:23 48.9643 
6 *329:23 *329:27 5.53571 
7 *329:27 *329:29 157.839 
8 *329:29 la_data_out[36] 18.6786 
*END

*D_NET *330 0.233618
*CONN
*P la_data_out[37] O
*I *739:la_data_out_o[37] O *D ntt_wb_bridge
*CAP
1 la_data_out[37] 0.000708675
2 *739:la_data_out_o[37] 0.000102069
3 *330:29 0.00640278
4 *330:27 0.00635986
5 *330:21 0.0109652
6 *330:19 0.0106549
7 *330:13 0.0102407
8 *330:11 0.0099873
9 *330:11 *334:19 2.23959e-05
10 *330:13 *337:29 5.82717e-05
11 *330:13 *399:25 0.00021801
12 *330:21 *335:33 7.69776e-06
13 *330:27 *338:43 0.000807163
14 *330:29 *338:43 0.00815984
15 la_data_out[21] *330:21 5.01791e-05
16 la_data_out[24] *330:21 2.61076e-05
17 la_data_out[25] *330:27 0.00174595
18 *272:23 *330:13 0.00159418
19 *272:23 *330:19 0.000474195
20 *272:25 *330:19 0.000175428
21 *272:25 *330:21 0.000428789
22 *294:29 *330:21 0.0079196
23 *309:29 *330:21 0.057416
24 *309:43 *330:21 0.000483449
25 *310:27 *330:13 0.00010988
26 *312:13 *330:13 0.000205013
27 *313:11 *330:13 0.000266429
28 *313:13 *330:13 0.015931
29 *313:23 *330:19 0.000528617
30 *313:25 *330:19 0.000108093
31 *313:25 *330:21 1.37255e-05
32 *318:25 *330:27 0.000926199
33 *320:29 *330:19 0.00132298
34 *322:19 *330:13 0.000593667
35 *328:23 *330:19 0.000108982
36 *328:23 *330:21 0.0585485
37 *328:27 *330:27 8.43535e-06
38 *329:13 *330:13 0
39 *329:23 *330:27 0.00348115
40 *329:29 *330:27 0.000259774
41 *329:29 *330:29 0.0161971
*RES
1 *739:la_data_out_o[37] *330:11 8.44059 
2 *330:11 *330:13 261.75 
3 *330:13 *330:19 24.1339 
4 *330:19 *330:21 724.295 
5 *330:21 *330:27 42.4286 
6 *330:27 *330:29 169.339 
7 *330:29 la_data_out[37] 18.375 
*END

*D_NET *331 0.242775
*CONN
*P la_data_out[38] O
*I *739:la_data_out_o[38] O *D ntt_wb_bridge
*CAP
1 la_data_out[38] 0.000638216
2 *739:la_data_out_o[38] 0.000301052
3 *331:23 0.00609204
4 *331:17 0.0183475
5 *331:15 0.0128937
6 *331:13 0.00621009
7 *331:11 0.00651114
8 *331:11 *332:7 3.29852e-05
9 *331:13 *332:7 0.0314425
10 *331:13 *334:17 0.000212435
11 *331:13 *337:15 0.00252892
12 *331:17 *334:23 0.0332478
13 *331:17 *340:35 0
14 *331:17 *343:31 6.2229e-05
15 *331:17 *346:37 0.0593518
16 *331:17 *350:31 0
17 *331:17 *399:25 0.000106304
18 *331:23 *332:15 0.0130732
19 *331:23 *338:43 0.0259022
20 la_data_out[21] *331:23 0.00121684
21 la_data_out[23] *331:17 0
22 *134:21 *331:17 0.00624988
23 *283:37 *331:17 0
24 *303:17 *331:17 1.53887e-05
25 *308:15 *331:13 0.0154845
26 *312:13 *331:13 0.00119751
27 *329:23 *331:23 0.00165634
*RES
1 *739:la_data_out_o[38] *331:11 10.9325 
2 *331:11 *331:13 49.0523 
3 *331:13 *331:15 3.41 
4 *331:15 *331:17 748.125 
5 *331:17 *331:23 47.945 
6 *331:23 la_data_out[38] 12.8125 
*END

*D_NET *332 0.232454
*CONN
*P la_data_out[39] O
*I *739:la_data_out_o[39] O *D ntt_wb_bridge
*CAP
1 la_data_out[39] 0.000571535
2 *739:la_data_out_o[39] 0.000263579
3 *332:15 0.0116913
4 *332:11 0.023653
5 *332:9 0.0125332
6 *332:7 0.00506868
7 *332:5 0.00533226
8 *332:7 *334:17 0.000515125
9 *332:7 *334:19 0.0313352
10 *332:11 *336:21 6.79672e-06
11 *332:11 *336:23 0.0323294
12 *332:11 *339:37 0.000774632
13 *332:15 *338:43 0.000594416
14 la_data_out[21] *332:15 0.00162562
15 la_data_out[23] *332:11 0.0605911
16 *83:19 *332:11 0.000202474
17 *305:23 *332:11 1.94879e-05
18 *307:23 *332:11 6.58638e-05
19 *308:15 *332:7 0.000230801
20 *309:43 *332:11 0.000390346
21 *314:13 *332:7 0.000110235
22 *331:11 *332:7 3.29852e-05
23 *331:13 *332:7 0.0314425
24 *331:23 *332:15 0.0130732
*RES
1 *739:la_data_out_o[39] *332:5 0.556167 
2 *332:5 *332:7 51.194 
3 *332:7 *332:9 3.41 
4 *332:9 *332:11 748.732 
5 *332:11 *332:15 47.9942 
6 *332:15 la_data_out[39] 15.0082 
*END

*D_NET *333 0.13039
*CONN
*P la_data_out[3] O
*I *739:la_data_out_o[3] O *D ntt_wb_bridge
*CAP
1 la_data_out[3] 0.0394549
2 *739:la_data_out_o[3] 0.000845802
3 *333:17 0.0394549
4 *333:15 0.019215
5 *333:13 0.0200608
6 *333:15 *337:15 0.000728343
7 *333:15 *339:29 0
8 *333:15 *366:25 0.00424169
9 *333:15 *377:29 0
10 *333:15 *388:25 0.00212761
11 *333:15 *399:25 0.000228389
12 *308:15 *333:15 0
13 *310:27 *333:13 0.000280384
14 *312:13 *333:15 0.0012094
15 *318:15 *333:15 0.000841659
16 *319:15 *333:15 0.000510526
17 *320:15 *333:15 0.000650229
18 *323:15 *333:15 0.000540347
*RES
1 *739:la_data_out_o[3] *333:13 14.7916 
2 *333:13 *333:15 64.1143 
3 *333:15 *333:17 3.41 
4 *333:17 la_data_out[3] 765.062 
*END

*D_NET *334 0.2519
*CONN
*P la_data_out[40] O
*I *739:la_data_out_o[40] O *D ntt_wb_bridge
*CAP
1 la_data_out[40] 0.000809458
2 *739:la_data_out_o[40] 0.000910316
3 *334:27 0.0113761
4 *334:25 0.0105666
5 *334:23 0.012454
6 *334:21 0.012454
7 *334:19 0.00620462
8 *334:17 0.00711494
9 *334:17 *337:15 0.00105304
10 *334:23 *340:35 3.52572e-05
11 *334:27 *335:35 0.0281855
12 *334:27 *337:47 0.00044213
13 la_data_out[15] *334:27 0.000618865
14 *134:21 *334:23 0.000773548
15 *137:13 *334:27 0
16 *272:35 *334:27 0.000228827
17 *283:37 *334:27 0.000222973
18 *294:13 *334:19 0.00172447
19 *294:47 *334:27 0.000362495
20 *303:17 *334:23 0.0601513
21 *314:13 *334:19 0.0195083
22 *315:13 *334:19 5.60769e-05
23 *316:17 *334:19 7.59343e-05
24 *317:13 *334:19 0.000174348
25 *318:13 *334:19 0.000233484
26 *319:13 *334:19 0.000292619
27 *319:23 *334:27 0.00087727
28 *320:13 *334:19 0.000351755
29 *320:35 *334:27 0.00136098
30 *321:13 *334:19 0.00041089
31 *321:23 *334:27 0.0018698
32 *323:13 *334:19 0.000470026
33 *323:27 *334:27 0.00209209
34 *324:13 *334:19 0.000294658
35 *325:13 *334:19 0.000588297
36 *326:13 *334:19 0.000647433
37 *327:13 *334:19 0.000680208
38 *328:13 *334:19 6.21943e-05
39 *329:11 *334:19 2.38112e-05
40 *329:13 *334:19 0.000807991
41 *330:11 *334:19 2.23959e-05
42 *331:13 *334:17 0.000212435
43 *331:17 *334:23 0.0332478
44 *332:7 *334:17 0.000515125
45 *332:7 *334:19 0.0313352
*RES
1 *739:la_data_out_o[40] *334:17 12.6298 
2 *334:17 *334:19 48.9082 
3 *334:19 *334:21 3.41 
4 *334:21 *334:23 743.875 
5 *334:23 *334:25 3.41 
6 *334:25 *334:27 46.8183 
7 *334:27 la_data_out[40] 19.2582 
*END

*D_NET *335 0.271861
*CONN
*P la_data_out[41] O
*I *739:la_data_out_o[41] O *D ntt_wb_bridge
*CAP
1 la_data_out[41] 0.00077161
2 *739:la_data_out_o[41] 0.000870381
3 *335:35 0.00619861
4 *335:33 0.00551308
5 *335:23 0.0237258
6 *335:21 0.023891
7 *335:15 0.00683618
8 *335:13 0.00745529
9 *335:13 *337:15 0.000417008
10 *335:15 *336:15 0.00907737
11 *335:15 *338:17 0.000132394
12 *335:15 *339:29 0.00627832
13 *335:15 *340:25 0.0146149
14 *335:15 *340:33 0.00710386
15 *335:15 *342:29 0.000762233
16 *335:15 *348:27 0.000329971
17 *335:15 *351:23 0.00349039
18 *335:15 *689:31 0.00578569
19 *335:15 *726:15 0.00621649
20 *335:15 *729:15 0.00536854
21 *335:15 *736:15 0.00517241
22 *335:15 *737:34 0.0024043
23 *335:21 *351:33 0
24 *335:23 *342:45 0
25 *335:23 *342:47 0
26 *335:23 *351:33 6.15699e-05
27 *335:23 *366:25 0.000154703
28 *335:23 *388:25 0.000240874
29 *335:35 *336:37 0.0284837
30 *335:35 *337:47 0.00141292
31 *335:35 *337:49 2.07485e-05
32 la_data_out[21] *335:23 0
33 la_data_out[21] *335:33 1.90936e-05
34 *126:25 *335:23 0.000379687
35 *294:19 *335:23 0.00178031
36 *294:21 *335:23 0
37 *294:47 *335:23 8.66018e-05
38 *315:15 *335:15 0.00189943
39 *317:19 *335:21 6.2589e-06
40 *317:19 *335:23 0
41 *319:19 *335:23 4.53816e-05
42 *324:19 *335:23 0.0605169
43 *324:23 *335:33 0.000349693
44 *324:23 *335:35 0.00264209
45 *325:31 *335:35 0.00279887
46 *326:29 *335:23 0
47 *326:33 *335:33 0.000353096
48 *330:21 *335:33 7.69776e-06
49 *334:27 *335:35 0.0281855
*RES
1 *739:la_data_out_o[41] *335:13 15.7472 
2 *335:13 *335:15 50.9981 
3 *335:15 *335:21 7.71357 
4 *335:21 *335:23 750.402 
5 *335:23 *335:33 16.0975 
6 *335:33 *335:35 47.5389 
7 *335:35 la_data_out[41] 18.6511 
*END

*D_NET *336 0.259568
*CONN
*P la_data_out[42] O
*I *739:la_data_out_o[42] O *D ntt_wb_bridge
*CAP
1 la_data_out[42] 0.000733763
2 *739:la_data_out_o[42] 0.000996615
3 *336:37 0.00623927
4 *336:35 0.00654448
5 *336:23 0.0131159
6 *336:21 0.0126125
7 *336:15 0.012436
8 *336:13 0.012897
9 *336:13 *337:15 0.000534398
10 *336:15 *338:29 0.00688555
11 *336:15 *339:29 8.75958e-05
12 *336:15 *340:25 0.000120482
13 *336:15 *340:33 0.00102331
14 *336:15 *341:37 0.000475472
15 *336:15 *342:29 0.00733026
16 *336:15 *343:29 0
17 *336:15 *716:23 0
18 *336:21 *339:37 0.00220835
19 *336:21 *349:39 0.00243951
20 *336:21 *689:29 0.000105538
21 *336:23 *338:39 0.0588222
22 *336:23 *349:39 1.19432e-05
23 *336:35 *337:47 0.00306395
24 *336:35 *338:43 0.00307333
25 *336:37 *337:49 0.0302233
26 la_data_out[23] *336:21 0
27 *83:19 *336:23 0.000204134
28 *97:21 *336:23 0.000379687
29 *309:43 *336:23 0.000204655
30 *318:25 *336:35 0.00022616
31 *326:33 *336:37 0.00317888
32 *327:39 *336:37 0.00329667
33 *328:27 *336:35 0.000199689
34 *332:11 *336:21 6.79672e-06
35 *332:11 *336:23 0.0323294
36 *335:15 *336:15 0.00907737
37 *335:35 *336:37 0.0284837
*RES
1 *739:la_data_out_o[42] *336:13 17.6595 
2 *336:13 *336:15 54.2411 
3 *336:15 *336:21 34.4279 
4 *336:21 *336:23 726.875 
5 *336:23 *336:35 17.1948 
6 *336:35 *336:37 48.0434 
7 *336:37 la_data_out[42] 18.0439 
*END

*D_NET *337 0.318778
*CONN
*P la_data_out[43] O
*I *739:la_data_out_o[43] O *D ntt_wb_bridge
*CAP
1 la_data_out[43] 0.000695915
2 *739:la_data_out_o[43] 0.00915444
3 *337:49 0.00653463
4 *337:47 0.0067497
5 *337:41 0.0112203
6 *337:39 0.0115376
7 *337:29 0.00288723
8 *337:15 0.0108134
9 *337:15 *339:17 0.0199097
10 *337:15 *366:25 0.00166399
11 *337:15 *388:25 0.00307854
12 *337:15 *399:25 0.000171991
13 *337:39 *338:37 0.00112302
14 *337:39 *339:39 0.000162878
15 *337:41 *338:39 0
16 *337:41 *339:39 0.057648
17 *337:47 *338:43 4.52212e-05
18 *337:49 *338:43 0.0320083
19 la_data_out[15] *337:47 5.33423e-06
20 la_data_out[21] *337:47 5.26595e-05
21 *97:21 *337:41 0.00263283
22 *272:23 *337:29 3.63775e-05
23 *272:35 *337:47 0.000232079
24 *283:37 *337:47 0.000226081
25 *303:23 *337:47 0.000655192
26 *304:23 *337:39 0.00143087
27 *304:23 *337:41 0.000771655
28 *304:25 *337:41 0.0559021
29 *304:33 *337:41 0.000645447
30 *311:21 *337:29 0.00122071
31 *311:23 *337:39 0.00219713
32 *312:13 *337:15 0.00251657
33 *318:25 *337:49 0.000466682
34 *319:15 *337:15 0.00397856
35 *321:15 *337:15 0.00345237
36 *322:19 *337:29 0.000639924
37 *322:21 *337:39 0.000363111
38 *323:15 *337:15 0.0039596
39 *323:21 *337:29 0.000114472
40 *324:15 *337:15 0.00338114
41 *325:15 *337:15 0.00372276
42 *326:15 *337:15 0.000834146
43 *326:33 *337:47 0.000216722
44 *327:15 *337:15 0.00328233
45 *327:39 *337:47 0.000179039
46 *328:15 *337:15 0.00224327
47 *328:23 *337:29 5.88276e-05
48 *328:27 *337:49 0.00394808
49 *329:29 *337:49 0.00352445
50 *330:13 *337:29 5.82717e-05
51 *331:13 *337:15 0.00252892
52 *333:15 *337:15 0.000728343
53 *334:17 *337:15 0.00105304
54 *334:27 *337:47 0.00044213
55 *335:13 *337:15 0.000417008
56 *335:35 *337:47 0.00141292
57 *335:35 *337:49 2.07485e-05
58 *336:13 *337:15 0.000534398
59 *336:35 *337:47 0.00306395
60 *336:37 *337:49 0.0302233
*RES
1 *739:la_data_out_o[43] *337:15 49.8764 
2 *337:15 *337:29 49.1064 
3 *337:29 *337:39 28.7382 
4 *337:39 *337:41 722.018 
5 *337:41 *337:47 8.9795 
6 *337:47 *337:49 50.89 
7 *337:49 la_data_out[43] 17.4368 
*END

*D_NET *338 0.322832
*CONN
*P la_data_out[44] O
*I *739:la_data_out_o[44] O *D ntt_wb_bridge
*CAP
1 la_data_out[44] 0.000658068
2 *739:la_data_out_o[44] 0.000925449
3 *338:43 0.00946272
4 *338:41 0.00880466
5 *338:39 0.0103809
6 *338:37 0.011059
7 *338:29 0.00312017
8 *338:17 0.00660243
9 *338:13 0.00508577
10 *338:13 *339:13 0
11 *338:13 *345:21 0.000288709
12 *338:13 *346:23 0
13 *338:17 *339:29 0.00107819
14 *338:17 *340:25 0.0280848
15 *338:17 *341:29 0.000744483
16 *338:17 *342:21 0.0267173
17 *338:17 *346:25 0.00275213
18 *338:17 *351:15 0.00187536
19 *338:17 *399:25 0.00105188
20 *338:29 *341:37 0.00184258
21 *338:29 *343:29 0
22 *338:29 *347:37 0
23 *338:29 *689:23 0.000216999
24 *338:29 *726:23 2.58939e-06
25 *338:29 *729:23 1.17103e-05
26 *338:29 *737:34 0.00116854
27 *338:37 *339:37 5.21937e-05
28 *338:37 *339:39 7.84518e-05
29 *338:37 *347:37 0.000905626
30 *338:37 *377:25 0
31 *338:39 *339:39 0
32 *338:39 *349:39 0.0578591
33 la_data_out[21] *338:43 0.000281309
34 la_data_out[25] *338:43 0.000362706
35 *97:21 *338:39 0.000379687
36 *272:37 *338:43 0.000103646
37 *304:23 *338:37 0.000319954
38 *304:33 *338:39 0
39 *309:43 *338:39 2.14278e-05
40 *315:25 *338:29 0.00298006
41 *330:27 *338:43 0.000807163
42 *330:29 *338:43 0.00815984
43 *331:23 *338:43 0.0259022
44 *332:15 *338:43 0.000594416
45 *335:15 *338:17 0.000132394
46 *336:15 *338:29 0.00688555
47 *336:23 *338:39 0.0588222
48 *336:35 *338:43 0.00307333
49 *337:39 *338:37 0.00112302
50 *337:41 *338:39 0
51 *337:47 *338:43 4.52212e-05
52 *337:49 *338:43 0.0320083
*RES
1 *739:la_data_out_o[44] *338:13 13.766 
2 *338:13 *338:17 49.3635 
3 *338:17 *338:29 32.9678 
4 *338:29 *338:37 33.4554 
5 *338:37 *338:39 727.027 
6 *338:39 *338:41 3.41 
7 *338:41 *338:43 58.7093 
8 *338:43 la_data_out[44] 16.8296 
*END

*D_NET *339 0.319726
*CONN
*P la_data_out[45] O
*I *739:la_data_out_o[45] O *D ntt_wb_bridge
*CAP
1 la_data_out[45] 0.0012563
2 *739:la_data_out_o[45] 0.000599173
3 *339:43 0.0070044
4 *339:41 0.0057481
5 *339:39 0.0100032
6 *339:37 0.010705
7 *339:29 0.00270994
8 *339:17 0.00696578
9 *339:13 0.00555684
10 *339:13 *345:21 0.00065355
11 *339:13 *346:23 0.000105716
12 *339:17 *341:29 0.0270515
13 *339:17 *345:21 0.000161844
14 *339:17 *346:23 3.7143e-05
15 *339:17 *399:25 0.00177793
16 *339:29 *740:mem_we 0
17 *339:29 *340:33 0.000575215
18 *339:29 *341:37 0
19 *339:29 *399:25 0.00236627
20 *339:29 *689:31 0.00118739
21 *339:29 *729:15 0.0011483
22 *339:39 *347:37 0.0578124
23 *339:39 *349:39 4.19616e-05
24 *339:43 *340:39 0.0390728
25 io_oeb[37] *339:43 0.000144798
26 la_data_out[23] *339:37 0.000256024
27 *97:21 *339:39 0.00243373
28 *134:17 *339:43 0.0390069
29 *305:23 *339:37 2.11419e-05
30 *307:23 *339:37 6.75178e-05
31 *318:15 *339:17 0.00321515
32 *320:15 *339:17 0.00327008
33 *323:15 *339:17 0.000145785
34 *325:15 *339:17 0.000346051
35 *332:11 *339:37 0.000774632
36 *333:15 *339:29 0
37 *335:15 *339:29 0.00627832
38 *336:15 *339:29 8.75958e-05
39 *336:21 *339:37 0.00220835
40 *337:15 *339:17 0.0199097
41 *337:39 *339:39 0.000162878
42 *337:41 *339:39 0.057648
43 *338:13 *339:13 0
44 *338:17 *339:29 0.00107819
45 *338:37 *339:37 5.21937e-05
46 *338:37 *339:39 7.84518e-05
47 *338:39 *339:39 0
*RES
1 *739:la_data_out_o[45] *339:13 11.8607 
2 *339:13 *339:17 48.3545 
3 *339:17 *339:29 22.6958 
4 *339:29 *339:37 38.7768 
5 *339:37 *339:39 716.402 
6 *339:39 *339:41 3.41 
7 *339:41 *339:43 61.7361 
8 *339:43 la_data_out[45] 28.3654 
*END

*D_NET *340 0.312711
*CONN
*P la_data_out[46] O
*I *739:la_data_out_o[46] O *D ntt_wb_bridge
*CAP
1 la_data_out[46] 0.00128599
2 *739:la_data_out_o[46] 0.000702938
3 *340:39 0.00730042
4 *340:37 0.00601442
5 *340:35 0.0241639
6 *340:33 0.0255389
7 *340:25 0.00715064
8 *340:21 0.00647862
9 *340:21 *341:21 0
10 *340:21 *345:21 1.1507e-05
11 *340:21 *348:25 0.000189578
12 *340:25 *342:21 0.000377626
13 *340:25 *346:25 0.00021061
14 *340:25 *347:23 0.00105665
15 *340:25 *348:27 0.00252071
16 *340:25 *350:19 0.0027115
17 *340:25 *689:31 0.000813131
18 *340:25 *726:15 0.000460458
19 *340:25 *729:15 0.000706851
20 *340:25 *736:15 0.00114275
21 *340:33 *341:37 0.000142468
22 *340:33 *342:29 0.00598399
23 *340:33 *351:23 0.00104275
24 *340:35 *346:37 0
25 *340:39 *343:35 0.0406006
26 *340:39 *349:43 0.0171301
27 io_oeb[37] *340:39 8.39548e-05
28 la_data_out[23] *340:35 0
29 *134:17 *340:39 0.00100073
30 *134:21 *340:35 0.00676118
31 *303:17 *340:35 0.0593708
32 *315:15 *340:33 0.0011262
33 *331:17 *340:35 0
34 *334:23 *340:35 3.52572e-05
35 *335:15 *340:25 0.0146149
36 *335:15 *340:33 0.00710386
37 *336:15 *340:25 0.000120482
38 *336:15 *340:33 0.00102331
39 *338:17 *340:25 0.0280848
40 *339:29 *340:33 0.000575215
41 *339:43 *340:39 0.0390728
*RES
1 *739:la_data_out_o[46] *340:21 16.3007 
2 *340:21 *340:25 49.8679 
3 *340:25 *340:33 21.353 
4 *340:33 *340:35 744.482 
5 *340:35 *340:37 3.41 
6 *340:37 *340:39 63.6819 
7 *340:39 la_data_out[46] 28.9725 
*END

*D_NET *341 0.284165
*CONN
*P la_data_out[47] O
*I *739:la_data_out_o[47] O *D ntt_wb_bridge
*CAP
1 la_data_out[47] 0.00150255
2 *739:la_data_out_o[47] 0.000910116
3 *341:59 0.00876547
4 *341:57 0.00726292
5 *341:55 0.0148609
6 *341:53 0.0163728
7 *341:43 0.0176226
8 *341:37 0.0179939
9 *341:29 0.00598584
10 *341:21 0.00501279
11 *341:21 *342:17 0
12 *341:21 *343:19 0.000725164
13 *341:21 *345:21 8.6123e-06
14 *341:21 *346:23 0.0011211
15 *341:21 *348:25 0.000702726
16 *341:21 *349:25 5.79809e-05
17 *341:29 *342:21 0.000124019
18 *341:29 *343:19 0.0270859
19 *341:29 *346:23 3.27615e-05
20 *341:29 *399:25 0.0013587
21 *341:29 *728:15 0.00251229
22 *341:37 *343:29 0.00111592
23 *341:53 *594:9 0.000124969
24 *341:53 *595:9 0.000124969
25 *341:55 *350:31 0
26 *341:59 *345:39 0.0393713
27 *107:18 *341:59 0.0217392
28 *124:21 *341:55 8.33988e-05
29 *126:25 *341:55 0.00776236
30 *135:14 *341:59 0.00829328
31 *140:21 *341:59 0.00269154
32 *294:29 *341:53 3.35547e-05
33 *306:17 *341:55 0.0374827
34 *316:19 *341:29 0.00256483
35 *317:15 *341:29 0.00250104
36 *327:31 *341:43 0
37 *336:15 *341:37 0.000475472
38 *338:17 *341:29 0.000744483
39 *338:29 *341:37 0.00184258
40 *339:17 *341:29 0.0270515
41 *339:29 *341:37 0
42 *340:21 *341:21 0
43 *340:33 *341:37 0.000142468
*RES
1 *739:la_data_out_o[47] *341:21 16.3933 
2 *341:21 *341:29 48.0866 
3 *341:29 *341:37 21.4177 
4 *341:37 *341:43 49.9422 
5 *341:43 *341:53 10.4468 
6 *341:53 *341:55 462.92 
7 *341:55 *341:57 4.5 
8 *341:57 *341:59 372.643 
9 *341:59 la_data_out[47] 32.9464 
*END

*D_NET *342 0.317152
*CONN
*P la_data_out[48] O
*I *739:la_data_out_o[48] O *D ntt_wb_bridge
*CAP
1 la_data_out[48] 0.001373
2 *739:la_data_out_o[48] 0.00061978
3 *342:51 0.00863893
4 *342:49 0.00726593
5 *342:47 0.0140502
6 *342:45 0.015771
7 *342:35 0.00896984
8 *342:33 0.00731426
9 *342:31 0.00274235
10 *342:29 0.00417176
11 *342:21 0.00578996
12 *342:17 0.00491515
13 *342:17 *345:21 3.25694e-05
14 *342:21 *343:19 0.0297478
15 *342:21 *347:23 0.00247441
16 *342:21 *347:25 0.00256332
17 *342:21 *349:27 0.00270306
18 *342:29 *343:29 8.02673e-05
19 *342:29 *351:23 0.000284522
20 *342:29 *737:34 0.000473427
21 *342:45 *351:35 0.00168209
22 *342:45 *595:9 0
23 *342:45 *596:9 7.70614e-05
24 *342:47 *351:35 0.0337305
25 *342:51 *343:35 0.0422394
26 io_oeb[37] *342:51 0.0422394
27 la_data_out[21] *342:47 0.00018737
28 *84:13 *342:51 0.00865138
29 *85:13 *342:51 0.00933737
30 *85:19 *342:47 0.00010326
31 *272:25 *342:45 0.000444971
32 *272:25 *342:47 0.000773548
33 *294:21 *342:45 5.79809e-05
34 *294:27 *342:45 0.000129624
35 *311:21 *342:31 2.6606e-05
36 *313:25 *342:47 0.000586259
37 *315:15 *342:29 0.000263857
38 *322:19 *342:31 0
39 *323:21 *342:31 0
40 *325:19 *342:31 0
41 *325:19 *342:35 0.0101197
42 *327:25 *342:31 0.000550296
43 *327:31 *342:31 0.000640178
44 *327:31 *342:35 0.00401279
45 *327:31 *342:45 2.1479e-05
46 *335:15 *342:29 0.000762233
47 *335:23 *342:45 0
48 *335:23 *342:47 0
49 *336:15 *342:29 0.00733026
50 *338:17 *342:21 0.0267173
51 *340:25 *342:21 0.000377626
52 *340:33 *342:29 0.00598399
53 *341:21 *342:17 0
54 *341:29 *342:21 0.000124019
*RES
1 *739:la_data_out_o[48] *342:17 14.5416 
2 *342:17 *342:21 49.94 
3 *342:21 *342:29 22.2376 
4 *342:29 *342:31 51.3036 
5 *342:31 *342:33 1.35714 
6 *342:33 *342:35 220.946 
7 *342:35 *342:45 46.3211 
8 *342:45 *342:47 433.946 
9 *342:47 *342:49 3.41 
10 *342:49 *342:51 67.1411 
11 *342:51 la_data_out[48] 30.1868 
*END

*D_NET *343 0.373684
*CONN
*P la_data_out[49] O
*I *739:la_data_out_o[49] O *D ntt_wb_bridge
*CAP
1 la_data_out[49] 0.00132302
2 *739:la_data_out_o[49] 0.00098247
3 *343:35 0.00881917
4 *343:33 0.00749615
5 *343:31 0.0106006
6 *343:29 0.0134429
7 *343:19 0.00723708
8 *343:17 0.00537731
9 *343:17 *345:21 0.000172097
10 *343:17 *347:23 0.000402537
11 *343:17 *348:25 0.000368245
12 *343:17 *350:17 0
13 *343:19 *345:23 0.00294347
14 *343:19 *347:23 0.00015838
15 *343:19 *348:25 0.00170701
16 *343:19 *728:15 0.00526174
17 *343:29 *347:33 0.00186595
18 *343:29 *348:35 0.00202051
19 *343:29 *349:35 0.00308925
20 *343:29 *350:27 0.00143408
21 *343:29 *716:23 0.00917196
22 *343:29 *736:23 0.00216908
23 *343:31 *346:37 0.0604947
24 *343:31 *348:39 0.0606063
25 *343:31 *350:31 5.00087e-06
26 *343:31 *399:25 0.000147837
27 *343:35 *348:43 0.00900005
28 *343:35 *349:43 0.00211418
29 io_oeb[37] *343:35 0.0014414
30 *83:13 *343:35 0.00971335
31 *134:17 *343:35 0.00202848
32 *134:21 *343:31 0.000379687
33 *315:25 *343:29 5.28706e-05
34 *331:17 *343:31 6.2229e-05
35 *336:15 *343:29 0
36 *338:29 *343:29 0
37 *340:39 *343:35 0.0406006
38 *341:21 *343:19 0.000725164
39 *341:29 *343:19 0.0270859
40 *341:37 *343:29 0.00111592
41 *342:21 *343:19 0.0297478
42 *342:29 *343:29 8.02673e-05
43 *342:51 *343:35 0.0422394
*RES
1 *739:la_data_out_o[49] *343:17 13.7777 
2 *343:17 *343:19 46.7822 
3 *343:19 *343:29 33.9945 
4 *343:29 *343:31 749.339 
5 *343:31 *343:33 3.41 
6 *343:33 *343:35 71.5371 
7 *343:35 la_data_out[49] 29.5796 
*END

*D_NET *344 0.142105
*CONN
*P la_data_out[4] O
*I *739:la_data_out_o[4] O *D ntt_wb_bridge
*CAP
1 la_data_out[4] 0.0383918
2 *739:la_data_out_o[4] 0.00185992
3 *344:31 0.0383918
4 *344:29 0.0117538
5 *344:27 0.0136137
6 *344:27 *388:25 0.00236588
7 *344:29 *377:29 0.0022741
8 *80:83 la_data_out[4] 0
9 *118:83 la_data_out[4] 0.00172681
10 *305:23 *344:29 0.00185461
11 *307:23 *344:29 0.00105821
12 *310:27 *344:27 0.000435669
13 *310:27 *344:29 0.000349935
14 *310:31 *344:29 0.00338255
15 *311:23 *344:27 1.43168e-05
16 *311:23 *344:29 0.0183953
17 *312:13 *344:27 0.00412391
18 *325:19 *344:27 0.000112986
19 *326:15 *344:27 0.000831475
20 *327:25 *344:27 0.00049931
21 *328:15 *344:27 0.000669057
*RES
1 *739:la_data_out_o[4] *344:27 31.8583 
2 *344:27 *344:29 55.7906 
3 *344:29 *344:31 3.41 
4 *344:31 la_data_out[4] 755.955 
*END

*D_NET *345 0.347756
*CONN
*P la_data_out[50] O
*I *739:la_data_out_o[50] O *D ntt_wb_bridge
*CAP
1 la_data_out[50] 0.00146304
2 *739:la_data_out_o[50] 0.00231027
3 *345:39 0.00749899
4 *345:37 0.00603596
5 *345:35 0.0105524
6 *345:33 0.0105524
7 *345:31 0.00260537
8 *345:29 0.0030339
9 *345:23 0.00196602
10 *345:21 0.00384776
11 *345:21 *346:23 0.00188543
12 *345:21 *350:17 0.00104788
13 *345:23 *346:25 0.000318125
14 *345:23 *347:25 0.0117326
15 *345:23 *689:31 0
16 *345:23 *728:15 0.0128279
17 *345:29 *346:31 0.000638197
18 *345:31 *346:33 0.0207914
19 *345:31 *347:33 0.000393564
20 *345:31 *348:35 0.0207038
21 *345:31 *716:23 0.00458953
22 *345:35 *347:37 0.060501
23 *345:35 *349:39 0.0604524
24 *345:39 *346:41 0.0447927
25 *345:39 *347:41 0.000318123
26 *97:21 *345:35 0.000379687
27 *107:18 *345:39 0.00276266
28 *135:14 *345:39 0.0101114
29 *338:13 *345:21 0.000288709
30 *339:13 *345:21 0.00065355
31 *339:17 *345:21 0.000161844
32 *340:21 *345:21 1.1507e-05
33 *341:21 *345:21 8.6123e-06
34 *341:59 *345:39 0.0393713
35 *342:17 *345:21 3.25694e-05
36 *343:17 *345:21 0.000172097
37 *343:19 *345:23 0.00294347
*RES
1 *739:la_data_out_o[50] *345:21 28.6248 
2 *345:21 *345:23 120.464 
3 *345:23 *345:29 18.5357 
4 *345:29 *345:31 201.375 
5 *345:31 *345:33 4.5 
6 *345:33 *345:35 748.125 
7 *345:35 *345:37 4.5 
8 *345:37 *345:39 430.143 
9 *345:39 la_data_out[50] 32.6429 
*END

*D_NET *346 0.339761
*CONN
*P la_data_out[51] O
*I *739:la_data_out_o[51] O *D ntt_wb_bridge
*CAP
1 la_data_out[51] 0.00144197
2 *739:la_data_out_o[51] 0.00166018
3 *346:41 0.00723089
4 *346:39 0.00578892
5 *346:37 0.0108755
6 *346:35 0.0108755
7 *346:33 0.00630926
8 *346:31 0.00668096
9 *346:25 0.00215349
10 *346:23 0.00344197
11 *346:23 *347:23 0
12 *346:23 *348:25 5.58905e-06
13 *346:23 *349:25 0.00209218
14 *346:23 *350:17 0.00187638
15 *346:25 *347:25 0.000728828
16 *346:25 *348:27 0.0124214
17 *346:25 *349:27 0.000754431
18 *346:25 *351:15 0.0091836
19 *346:25 *689:31 0.000397559
20 *346:33 *348:35 1.98839e-05
21 *346:33 *716:23 0.00481689
22 *346:37 *348:39 1.61521e-05
23 *346:37 *399:25 0.000106304
24 *346:37 *729:21 0
25 *346:41 *347:41 0.046487
26 io_oeb[37] *346:41 0.0104976
27 la_data_out[23] *346:37 0
28 *107:18 *346:41 0.000627834
29 *134:21 *346:37 0.000739218
30 *331:17 *346:37 0.0593518
31 *338:13 *346:23 0
32 *338:17 *346:25 0.00275213
33 *339:13 *346:23 0.000105716
34 *339:17 *346:23 3.7143e-05
35 *340:25 *346:25 0.00021061
36 *340:35 *346:37 0
37 *341:21 *346:23 0.0011211
38 *341:29 *346:23 3.27615e-05
39 *343:31 *346:37 0.0604947
40 *345:21 *346:23 0.00188543
41 *345:23 *346:25 0.000318125
42 *345:29 *346:31 0.000638197
43 *345:31 *346:33 0.0207914
44 *345:39 *346:41 0.0447927
*RES
1 *739:la_data_out_o[51] *346:23 29.9988 
2 *346:23 *346:25 126.214 
3 *346:25 *346:31 17.625 
4 *346:31 *346:33 195.625 
5 *346:33 *346:35 4.5 
6 *346:35 *346:37 748.732 
7 *346:37 *346:39 4.5 
8 *346:39 *346:41 440 
9 *346:41 la_data_out[51] 32.3393 
*END

*D_NET *347 0.361041
*CONN
*P la_data_out[52] O
*I *739:la_data_out_o[52] O *D ntt_wb_bridge
*CAP
1 la_data_out[52] 0.00141164
2 *739:la_data_out_o[52] 0.002495
3 *347:41 0.00778737
4 *347:39 0.00637573
5 *347:37 0.0108271
6 *347:35 0.0108271
7 *347:33 0.00281809
8 *347:31 0.00320793
9 *347:25 0.00198078
10 *347:23 0.00408595
11 *347:23 *348:25 0.00114719
12 *347:23 *350:17 0.000211273
13 *347:23 *350:19 0.000331371
14 *347:23 *351:15 0.000735026
15 *347:23 *689:31 0.000567573
16 *347:23 *726:15 0.000424163
17 *347:23 *729:15 0.000435426
18 *347:23 *736:15 0.000424163
19 *347:25 *349:27 0.0108913
20 *347:25 *728:15 0.000545915
21 *347:31 *348:33 0.000571156
22 *347:33 *348:35 0.0215981
23 *347:33 *349:35 0.000389598
24 *347:33 *350:27 0.0215955
25 *347:33 *716:23 0.00312992
26 *347:37 *349:39 2.03997e-05
27 *347:37 *737:40 0
28 *347:41 *349:43 9.64981e-06
29 io_oeb[37] *347:41 0.0100838
30 *83:13 *347:41 0.000474914
31 *85:13 *347:41 0.0471676
32 *97:21 *347:37 0.000633624
33 *107:18 *347:41 0.000436306
34 *338:29 *347:37 0
35 *338:37 *347:37 0.000905626
36 *339:39 *347:37 0.0578124
37 *340:25 *347:23 0.00105665
38 *342:21 *347:23 0.00247441
39 *342:21 *347:25 0.00256332
40 *343:17 *347:23 0.000402537
41 *343:19 *347:23 0.00015838
42 *343:29 *347:33 0.00186595
43 *345:23 *347:25 0.0117326
44 *345:31 *347:33 0.000393564
45 *345:35 *347:37 0.060501
46 *345:39 *347:41 0.000318123
47 *346:23 *347:23 0
48 *346:25 *347:25 0.000728828
49 *346:41 *347:41 0.046487
*RES
1 *739:la_data_out_o[52] *347:23 30.0716 
2 *347:23 *347:25 119.643 
3 *347:25 *347:31 17.625 
4 *347:31 *347:33 212.054 
5 *347:33 *347:35 4.5 
6 *347:35 *347:37 748.125 
7 *347:37 *347:39 4.5 
8 *347:39 *347:41 462.179 
9 *347:41 la_data_out[52] 32.0357 
*END

*D_NET *348 0.365981
*CONN
*P la_data_out[53] O
*I *739:la_data_out_o[53] O *D ntt_wb_bridge
*CAP
1 la_data_out[53] 0.00132069
2 *739:la_data_out_o[53] 0.00195456
3 *348:43 0.00741762
4 *348:41 0.00609692
5 *348:39 0.0106246
6 *348:37 0.0106246
7 *348:35 0.00273409
8 *348:33 0.00306005
9 *348:27 0.00203372
10 *348:25 0.00366232
11 *348:25 *349:25 0.00118896
12 *348:25 *350:17 0.000245597
13 *348:25 *351:13 0.00215253
14 *348:25 *728:15 0.000659612
15 *348:27 *350:19 0.0118577
16 *348:27 *351:15 0.000743763
17 *348:27 *689:31 0.00106296
18 *348:35 *716:23 0.00277231
19 *348:39 *350:31 0.0605937
20 *348:39 *399:25 0.000159968
21 *348:43 *349:43 0.049748
22 io_oeb[37] *348:43 0.00121525
23 *83:13 *348:43 0.0497436
24 *134:21 *348:39 0.000379687
25 *335:15 *348:27 0.000329971
26 *340:21 *348:25 0.000189578
27 *340:25 *348:27 0.00252071
28 *341:21 *348:25 0.000702726
29 *343:17 *348:25 0.000368245
30 *343:19 *348:25 0.00170701
31 *343:29 *348:35 0.00202051
32 *343:31 *348:39 0.0606063
33 *343:35 *348:43 0.00900005
34 *345:31 *348:35 0.0207038
35 *346:23 *348:25 5.58905e-06
36 *346:25 *348:27 0.0124214
37 *346:33 *348:35 1.98839e-05
38 *346:37 *348:39 1.61521e-05
39 *347:23 *348:25 0.00114719
40 *347:31 *348:33 0.000571156
41 *347:33 *348:35 0.0215981
*RES
1 *739:la_data_out_o[53] *348:25 31.1508 
2 *348:25 *348:27 129.5 
3 *348:27 *348:33 16.7143 
4 *348:33 *348:35 204.25 
5 *348:35 *348:37 4.5 
6 *348:37 *348:39 749.643 
7 *348:39 *348:41 4.5 
8 *348:41 *348:43 470.804 
9 *348:43 la_data_out[53] 30.8214 
*END

*D_NET *349 0.338228
*CONN
*P la_data_out[54] O
*I *739:la_data_out_o[54] O *D ntt_wb_bridge
*CAP
1 la_data_out[54] 0.00129962
2 *739:la_data_out_o[54] 0.00177911
3 *349:43 0.0171403
4 *349:41 0.0158407
5 *349:39 0.0106016
6 *349:37 0.0106016
7 *349:35 0.00727343
8 *349:33 0.00761904
9 *349:27 0.00195618
10 *349:25 0.00338967
11 *349:25 *350:17 0.000931664
12 *349:25 *351:13 0.00285256
13 *349:27 *351:15 0.01123
14 *349:27 *728:15 0.000655422
15 *349:33 *350:25 0.000504557
16 *349:35 *350:27 0.0234159
17 *349:35 *716:23 0.00549701
18 *349:35 *736:23 0.000951783
19 *349:39 *689:29 4.47031e-05
20 io_oeb[37] *349:43 0.00135553
21 *83:13 *349:43 0.00118715
22 *97:21 *349:39 0.000379687
23 *134:17 *349:43 0.000727264
24 *336:21 *349:39 0.00243951
25 *336:23 *349:39 1.19432e-05
26 *338:39 *349:39 0.0578591
27 *339:39 *349:39 4.19616e-05
28 *340:39 *349:43 0.0171301
29 *341:21 *349:25 5.79809e-05
30 *342:21 *349:27 0.00270306
31 *343:29 *349:35 0.00308925
32 *343:35 *349:43 0.00211418
33 *345:35 *349:39 0.0604524
34 *346:23 *349:25 0.00209218
35 *346:25 *349:27 0.000754431
36 *347:25 *349:27 0.0108913
37 *347:33 *349:35 0.000389598
38 *347:37 *349:39 2.03997e-05
39 *347:41 *349:43 9.64981e-06
40 *348:25 *349:25 0.00118896
41 *348:43 *349:43 0.049748
*RES
1 *739:la_data_out_o[54] *349:25 30.2589 
2 *349:25 *349:27 118.411 
3 *349:27 *349:33 16.7143 
4 *349:33 *349:35 228.482 
5 *349:35 *349:37 4.5 
6 *349:37 *349:39 749.036 
7 *349:39 *349:41 4.5 
8 *349:41 *349:43 492.982 
9 *349:43 la_data_out[54] 30.5179 
*END

*D_NET *350 0.263868
*CONN
*P la_data_out[55] O
*I *739:la_data_out_o[55] O *D ntt_wb_bridge
*CAP
1 la_data_out[55] 0.000971881
2 *739:la_data_out_o[55] 0.00202954
3 *350:35 0.027466
4 *350:33 0.0264941
5 *350:31 0.0245464
6 *350:29 0.0245464
7 *350:27 0.00317067
8 *350:25 0.00344456
9 *350:19 0.00194148
10 *350:17 0.00369713
11 *350:17 *351:13 0.00033273
12 *350:19 *351:15 0.00069757
13 *350:19 *689:31 0.0136483
14 *350:27 *716:23 0.00311085
15 *350:27 *736:23 0.000455536
16 *350:31 *399:25 0.000173055
17 *124:21 *350:31 0
18 *134:21 *350:31 0.000379687
19 *283:17 *350:31 0
20 *306:17 *350:31 0
21 *318:19 *350:31 0
22 *319:23 *350:35 0
23 *326:19 *350:31 0
24 *331:17 *350:31 0
25 *340:25 *350:19 0.0027115
26 *341:55 *350:31 0
27 *343:17 *350:17 0
28 *343:29 *350:27 0.00143408
29 *343:31 *350:31 5.00087e-06
30 *345:21 *350:17 0.00104788
31 *346:23 *350:17 0.00187638
32 *347:23 *350:17 0.000211273
33 *347:23 *350:19 0.000331371
34 *347:33 *350:27 0.0215955
35 *348:25 *350:17 0.000245597
36 *348:27 *350:19 0.0118577
37 *348:39 *350:31 0.0605937
38 *349:25 *350:17 0.000931664
39 *349:33 *350:25 0.000504557
40 *349:35 *350:27 0.0234159
*RES
1 *739:la_data_out_o[55] *350:17 22.1365 
2 *350:17 *350:19 128.268 
3 *350:19 *350:25 15.8036 
4 *350:25 *350:27 221.911 
5 *350:27 *350:29 4.5 
6 *350:29 *350:31 755.411 
7 *350:31 *350:33 4.5 
8 *350:33 *350:35 502.018 
9 *350:35 la_data_out[55] 24.4464 
*END

*D_NET *351 0.319537
*CONN
*P la_data_out[56] O
*I *739:la_data_out_o[56] O *D ntt_wb_bridge
*CAP
1 la_data_out[56] 0.00232552
2 *739:la_data_out_o[56] 0.00186638
3 *351:39 0.0184832
4 *351:37 0.0161576
5 *351:35 0.00982613
6 *351:33 0.0110835
7 *351:23 0.00520262
8 *351:21 0.00414132
9 *351:15 0.00207478
10 *351:13 0.0037451
11 *351:13 *728:15 0.00146242
12 *351:15 *689:31 0.000218677
13 *351:15 *728:15 0.000527388
14 *351:23 *726:15 0.000603302
15 *351:23 *736:15 0.0227917
16 *351:23 *737:34 0.000711043
17 *351:33 *366:25 0.000168202
18 *86:13 *351:39 0.00358279
19 *86:27 *351:39 0
20 *87:13 *351:39 0.0406821
21 *87:51 *351:39 0.0007653
22 *94:13 *351:39 0.000139146
23 *100:21 la_data_out[56] 0.000652782
24 *116:29 *351:39 0.00228604
25 *141:25 *351:39 0.00328447
26 *143:43 *351:39 0.0019218
27 *272:25 *351:35 0.00120015
28 *294:19 *351:33 0.00185701
29 *294:19 *351:35 0
30 *294:21 *351:35 0.0179578
31 *309:27 *351:33 0.000901986
32 *313:25 *351:35 0.0561108
33 *315:15 *351:23 0.0166392
34 *320:29 *351:33 7.21639e-05
35 *335:15 *351:23 0.00349039
36 *335:21 *351:33 0
37 *335:23 *351:33 6.15699e-05
38 *338:17 *351:15 0.00187536
39 *340:33 *351:23 0.00104275
40 *342:29 *351:23 0.000284522
41 *342:45 *351:35 0.00168209
42 *342:47 *351:35 0.0337305
43 *346:25 *351:15 0.0091836
44 *347:23 *351:15 0.000735026
45 *348:25 *351:13 0.00215253
46 *348:27 *351:15 0.000743763
47 *349:25 *351:13 0.00285256
48 *349:27 *351:15 0.01123
49 *350:17 *351:13 0.00033273
50 *350:19 *351:15 0.00069757
*RES
1 *739:la_data_out_o[56] *351:13 19.004 
2 *351:13 *351:15 123.339 
3 *351:15 *351:21 11.5536 
4 *351:21 *351:23 226.018 
5 *351:23 *351:33 41.0089 
6 *351:33 *351:35 691.812 
7 *351:35 *351:37 4.5 
8 *351:37 *351:39 508.589 
9 *351:39 la_data_out[56] 49.3393 
*END

*D_NET *352 0.395311
*CONN
*P la_data_out[57] O
*I *739:la_data_out_o[57] O *D ntt_wb_bridge
*CAP
1 la_data_out[57] 0.00133731
2 *739:la_data_out_o[57] 0.000518766
3 *352:27 0.0110827
4 *352:25 0.00974536
5 *352:23 0.0102372
6 *352:21 0.0147802
7 *352:13 0.00558661
8 *352:7 0.00713694
9 *352:5 0.00661209
10 *352:7 *353:9 0
11 *352:7 *354:15 0.000267589
12 *352:7 *356:19 0.0333471
13 *352:7 *357:15 0.0326505
14 *352:7 *689:31 0.000352321
15 *352:7 *728:15 0.000606181
16 *352:7 *729:15 0.000352321
17 *352:21 *353:21 0.023312
18 *352:21 *358:25 0.000156813
19 *352:21 *649:11 0.0217414
20 *352:21 *664:23 0.00345202
21 *352:21 *688:23 0.00321357
22 *352:23 *353:23 0.061174
23 *352:23 *358:27 0.0614088
24 *352:23 *383:29 0
25 *352:23 *704:19 7.55177e-05
26 *352:27 *353:27 0.0037636
27 *352:27 *358:31 0.0196075
28 io_oeb[37] *352:27 0.0379961
29 *69:17 *352:27 0.000347251
30 *70:20 *352:27 0.00261158
31 *83:13 *352:27 0.00749544
32 *84:13 *352:27 0.00482509
33 *85:13 *352:27 0.00558737
34 *102:27 *352:21 0.00161521
35 *138:13 *352:27 0
36 *281:23 *352:27 0.00231411
*RES
1 *739:la_data_out_o[57] *352:5 1.72803 
2 *352:5 *352:7 56.3734 
3 *352:7 *352:13 22.1236 
4 *352:13 *352:21 41.7432 
5 *352:21 *352:23 756.625 
6 *352:23 *352:25 3.41 
7 *352:25 *352:27 72.0416 
8 *352:27 la_data_out[57] 30.1868 
*END

*D_NET *353 0.38459
*CONN
*P la_data_out[58] O
*I *739:la_data_out_o[58] O *D ntt_wb_bridge
*CAP
1 la_data_out[58] 0.00146373
2 *739:la_data_out_o[58] 0.00117456
3 *353:27 0.0116875
4 *353:25 0.0102237
5 *353:23 0.01653
6 *353:21 0.0227854
7 *353:17 0.00726775
8 *353:11 0.00666673
9 *353:9 0.0068289
10 *353:9 *354:13 0.000643355
11 *353:9 *354:15 0.000205172
12 *353:9 *356:17 0.000127182
13 *353:11 *354:15 0.0319226
14 *353:11 *357:13 0.000152347
15 *353:11 *358:7 0.017515
16 *353:11 *364:19 0.000708234
17 *353:11 *370:15 0.000231446
18 *353:11 *372:15 0.00135139
19 *353:11 *393:15 0.000923429
20 *353:11 *395:15 0.000711251
21 *353:21 *359:25 0
22 *353:21 *373:17 0.00123821
23 *353:21 *398:23 0.001357
24 *353:21 *649:11 0.00078855
25 *353:21 *662:27 0.00445423
26 *353:21 *664:23 0.00012071
27 *353:21 *675:27 0.00631417
28 *353:21 *687:13 0.0120775
29 *353:21 *688:23 0.00041984
30 *353:21 *710:23 0.00478629
31 *353:23 *383:25 0
32 *353:23 *383:29 0
33 *353:23 *704:19 0.0325605
34 io_oeb[37] *353:27 0.0362713
35 *70:22 *353:27 0.00198505
36 *71:22 *353:27 0.000920437
37 *72:25 *353:27 0.00660297
38 *73:20 *353:27 0.00711348
39 *79:13 *353:27 0.0390864
40 *102:19 *353:27 0
41 *102:27 *353:21 9.77021e-06
42 *107:18 *353:27 0.000324012
43 *140:21 *353:27 0.000185098
44 *276:13 *353:17 0.000589524
45 *281:23 *353:27 1.53359e-05
46 *352:7 *353:9 0
47 *352:21 *353:21 0.023312
48 *352:23 *353:23 0.061174
49 *352:27 *353:27 0.0037636
*RES
1 *739:la_data_out_o[58] *353:9 4.62637 
2 *353:9 *353:11 49.809 
3 *353:11 *353:17 23.945 
4 *353:17 *353:21 43.6702 
5 *353:21 *353:23 753.589 
6 *353:23 *353:25 3.41 
7 *353:25 *353:27 69.3751 
8 *353:27 la_data_out[58] 31.4011 
*END

*D_NET *354 0.349307
*CONN
*P la_data_out[59] O
*I *739:la_data_out_o[59] O *D ntt_wb_bridge
*CAP
1 la_data_out[59] 0.000677675
2 *739:la_data_out_o[59] 0.000614107
3 *354:31 0.0132906
4 *354:29 0.0126129
5 *354:27 0.0185487
6 *354:25 0.0229292
7 *354:15 0.0113939
8 *354:13 0.00762748
9 *354:15 *356:19 0.00121556
10 *354:15 *358:7 0.000995835
11 *354:15 *359:15 0.0445069
12 *354:15 *363:15 0.00302161
13 *354:15 *393:15 0.00120918
14 *354:15 *395:15 0.00105539
15 *354:15 *397:15 0.00356208
16 *354:25 *358:25 0.00211085
17 *354:25 *360:29 0.000508087
18 *354:25 *361:15 0.00345253
19 *354:25 *379:21 1.94945e-05
20 *354:25 *647:17 8.85276e-05
21 *354:25 *674:15 0.000362184
22 *354:25 *677:27 0.000276214
23 *354:25 *695:23 0.000248794
24 *354:25 *735:17 0.00832271
25 *354:27 la_data_out[83] 0
26 *354:27 *383:25 0
27 *354:27 *383:29 0
28 *354:27 *695:19 0.0499624
29 *354:27 *707:11 0.0237417
30 *354:31 la_data_out[72] 0.0163701
31 *354:31 *356:39 0.0359563
32 *354:31 *359:31 0.00116691
33 *354:31 *360:87 0.0101416
34 *354:31 *367:25 0.00215124
35 *354:31 *373:31 0.00173652
36 *354:31 *374:31 0.000177031
37 *354:31 *375:27 0.00152124
38 *354:31 *378:23 0.000410439
39 *78:31 *354:27 0.0027717
40 *279:17 *354:15 0.000758128
41 *281:17 *354:15 0.0105982
42 *302:23 *354:31 0.000154045
43 *352:7 *354:15 0.000267589
44 *353:9 *354:13 0.000643355
45 *353:9 *354:15 0.000205172
46 *353:11 *354:15 0.0319226
*RES
1 *739:la_data_out_o[59] *354:13 11.845 
2 *354:13 *354:15 73.6991 
3 *354:15 *354:25 49.3498 
4 *354:25 *354:27 772.411 
5 *354:27 *354:29 3.41 
6 *354:29 *354:31 67.4293 
7 *354:31 la_data_out[59] 16.8296 
*END

*D_NET *355 0.146892
*CONN
*P la_data_out[5] O
*I *739:la_data_out_o[5] O *D ntt_wb_bridge
*CAP
1 la_data_out[5] 0.0372392
2 *739:la_data_out_o[5] 0.000788662
3 *355:41 0.0372392
4 *355:39 0.0112415
5 *355:37 0.0126333
6 *355:17 0.00271201
7 *355:13 0.00210893
8 *355:13 *740:mem_we 2.8266e-06
9 *355:13 *366:25 0
10 *355:17 *399:25 0.000995883
11 *355:17 *689:31 0
12 *80:75 la_data_out[5] 0
13 *118:79 la_data_out[5] 0.00167687
14 *272:23 *355:37 9.31739e-05
15 *310:27 *355:13 0.000131526
16 *316:19 *355:17 0.00434274
17 *316:33 *355:37 0.0018339
18 *322:21 *355:37 0.000342543
19 *322:21 *355:39 0.033489
20 *325:19 *355:37 2.06178e-05
*RES
1 *739:la_data_out_o[5] *355:13 17.0189 
2 *355:13 *355:17 45.2857 
3 *355:17 *355:37 36.5238 
4 *355:37 *355:39 52.3314 
5 *355:39 *355:41 3.41 
6 *355:41 la_data_out[5] 750.491 
*END

*D_NET *356 0.332265
*CONN
*P la_data_out[60] O
*I *739:la_data_out_o[60] O *D ntt_wb_bridge
*CAP
1 la_data_out[60] 0.000695915
2 *739:la_data_out_o[60] 0.000724508
3 *356:39 0.00781522
4 *356:37 0.00711931
5 *356:35 0.0032963
6 *356:33 0.00332317
7 *356:31 0.0251823
8 *356:29 0.0282091
9 *356:19 0.00886413
10 *356:17 0.00653502
11 *356:17 *357:13 4.17269e-05
12 *356:19 *357:15 0.00152325
13 *356:19 *359:15 0.0373843
14 *356:19 *363:15 0.00545288
15 *356:19 *728:15 0.008164
16 *356:29 *359:25 0.00306321
17 *356:29 *373:17 0.0140177
18 *356:29 *379:15 0.00711733
19 *356:29 *384:21 0.000190956
20 *356:29 *711:15 0.000530196
21 *356:31 *363:69 0
22 *356:31 *363:71 0
23 *356:31 *656:11 0.000425602
24 *356:31 *678:23 0
25 *356:31 *687:15 0
26 *356:31 *719:11 0
27 *356:31 *728:11 0.0490272
28 *356:31 *731:41 0
29 *356:35 *363:71 0
30 *356:39 *359:31 0.0307035
31 *356:39 *363:75 0.00478735
32 *356:39 *364:27 0.00440017
33 *114:17 *356:31 0
34 *114:17 *356:35 0
35 *277:17 *356:19 0.00025919
36 *282:17 *356:19 0.00276573
37 *352:7 *356:19 0.0333471
38 *353:9 *356:17 0.000127182
39 *354:15 *356:19 0.00121556
40 *354:31 *356:39 0.0359563
*RES
1 *739:la_data_out_o[60] *356:17 14.6364 
2 *356:17 *356:19 61.5919 
3 *356:19 *356:29 44.9161 
4 *356:29 *356:31 706.679 
5 *356:31 *356:33 0.535714 
6 *356:33 *356:35 58.5714 
7 *356:35 *356:37 3.41 
8 *356:37 *356:39 57.1238 
9 *356:39 la_data_out[60] 17.4368 
*END

*D_NET *357 0.330465
*CONN
*P la_data_out[61] O
*I *739:la_data_out_o[61] O *D ntt_wb_bridge
*CAP
1 la_data_out[61] 0.00126787
2 *739:la_data_out_o[61] 0.000768761
3 *357:31 0.00640646
4 *357:29 0.00513859
5 *357:27 0.0148868
6 *357:25 0.0200298
7 *357:15 0.0119781
8 *357:13 0.00760382
9 *357:15 *360:19 0.000225323
10 *357:15 *362:15 0.0161
11 *357:15 *689:31 0.000373126
12 *357:15 *726:15 0.000278847
13 *357:15 *728:15 0.000234806
14 *357:15 *729:15 0.000286252
15 *357:15 *736:15 0.000278847
16 *357:25 *358:13 0.000676376
17 *357:25 *359:25 0.0013189
18 *357:25 *360:29 0.00221084
19 *357:25 *376:15 0.0119517
20 *357:25 *382:15 0
21 *357:25 *657:15 0.00336272
22 *357:25 *678:19 0.00362432
23 *357:25 *702:21 2.48858e-05
24 *357:25 *702:23 0.000587524
25 *357:25 *711:15 0.0170374
26 *357:27 *367:19 0.0303126
27 *357:27 *370:19 0.05901
28 *357:27 *647:23 0.00302293
29 *357:27 *733:19 0.000259058
30 *357:31 *358:31 0.0352428
31 *69:17 *357:31 0.0370709
32 *70:20 *357:31 0.00105696
33 *277:17 *357:15 0.00347027
34 *352:7 *357:15 0.0326505
35 *353:11 *357:13 0.000152347
36 *356:17 *357:13 4.17269e-05
37 *356:19 *357:15 0.00152325
*RES
1 *739:la_data_out_o[61] *357:13 14.0919 
2 *357:13 *357:15 55.178 
3 *357:15 *357:25 49.9933 
4 *357:25 *357:27 751.768 
5 *357:27 *357:29 3.41 
6 *357:29 *357:31 57.7003 
7 *357:31 la_data_out[61] 28.3654 
*END

*D_NET *358 0.342335
*CONN
*P la_data_out[62] O
*I *739:la_data_out_o[62] O *D ntt_wb_bridge
*CAP
1 la_data_out[62] 0.00130572
2 *739:la_data_out_o[62] 0.000341155
3 *358:31 0.00773646
4 *358:29 0.00643075
5 *358:27 0.0104662
6 *358:25 0.0145826
7 *358:13 0.00525525
8 *358:7 0.00957302
9 *358:5 0.00877532
10 *358:7 *359:13 0.000236128
11 *358:7 *360:17 0.000197236
12 *358:7 *361:13 0.000167479
13 *358:7 *362:13 0.000127177
14 *358:7 *363:13 9.88306e-05
15 *358:7 *364:17 3.4044e-05
16 *358:7 *364:19 0.00514832
17 *358:7 *365:17 8.61909e-06
18 *358:7 *365:19 0.00611733
19 *358:7 *367:13 0.000365811
20 *358:7 *368:17 0.000362262
21 *358:7 *368:19 0.00150626
22 *358:7 *369:7 0.000369497
23 *358:7 *370:15 0.00515169
24 *358:7 *371:21 0.00149482
25 *358:7 *372:15 0.00328046
26 *358:7 *375:13 0.000501625
27 *358:7 *380:13 0.0111054
28 *358:13 *386:23 0.000138076
29 *358:13 *688:21 9.07058e-05
30 *358:25 *740:mem_slot[0] 0.00451155
31 *358:25 *398:21 0.000797452
32 *358:25 *647:11 0.0105988
33 *358:25 *649:11 0.0182336
34 *358:25 *661:41 4.97574e-05
35 *358:25 *674:15 0.000908325
36 *358:25 *735:17 0.00155728
37 *358:27 *359:27 0.0610635
38 *358:27 *664:27 0
39 *358:27 *704:19 4.12785e-05
40 *69:17 *358:31 0.00107641
41 *70:20 *358:31 0.000402919
42 *102:27 *358:25 0.000655048
43 *279:17 *358:7 0.00135577
44 *281:17 *358:13 9.6666e-05
45 *281:23 *358:31 0.00230423
46 *352:21 *358:25 0.000156813
47 *352:23 *358:27 0.0614088
48 *352:27 *358:31 0.0196075
49 *353:11 *358:7 0.017515
50 *354:15 *358:7 0.000995835
51 *354:25 *358:25 0.00211085
52 *357:25 *358:13 0.000676376
53 *357:31 *358:31 0.0352428
*RES
1 *739:la_data_out_o[62] *358:5 1.08883 
2 *358:5 *358:7 54.6939 
3 *358:7 *358:13 26.9807 
4 *358:13 *358:25 37.6918 
5 *358:25 *358:27 759.661 
6 *358:27 *358:29 3.41 
7 *358:29 *358:31 58.0607 
8 *358:31 la_data_out[62] 28.9725 
*END

*D_NET *359 0.335075
*CONN
*P la_data_out[63] O
*I *739:la_data_out_o[63] O *D ntt_wb_bridge
*CAP
1 la_data_out[63] 0.000733763
2 *739:la_data_out_o[63] 0.00060319
3 *359:31 0.0084188
4 *359:29 0.00768504
5 *359:27 0.024966
6 *359:25 0.0299523
7 *359:15 0.0116948
8 *359:13 0.00731163
9 *359:15 *363:15 0.000281087
10 *359:15 *391:15 0.00519261
11 *359:15 *397:15 0.000303102
12 *359:15 *728:15 0.000137249
13 *359:25 *373:17 0.00110875
14 *359:25 *376:21 0.00013571
15 *359:25 *376:23 0.000120342
16 *359:25 *379:23 0.00119734
17 *359:25 *382:15 0
18 *359:25 *384:23 0.00110259
19 *359:25 *386:25 0.000132088
20 *359:25 *711:15 0.00507417
21 *359:27 *378:19 0
22 *359:27 *383:29 0
23 *359:27 *664:27 0
24 *359:31 *360:85 0.000223526
25 *359:31 *361:23 0.0298402
26 *359:31 *362:23 0.000432136
27 *359:31 *364:27 0.000461745
28 *359:31 *365:27 0.00419365
29 *359:31 *368:49 0.00384122
30 *359:31 *373:31 0.00173033
31 *278:15 *359:15 0.00294021
32 *281:17 *359:15 0.000800791
33 *282:17 *359:15 0.00489546
34 *284:23 *359:31 0.000121926
35 *353:21 *359:25 0
36 *354:15 *359:15 0.0445069
37 *354:31 *359:31 0.00116691
38 *356:19 *359:15 0.0373843
39 *356:29 *359:25 0.00306321
40 *356:39 *359:31 0.0307035
41 *357:25 *359:25 0.0013189
42 *358:7 *359:13 0.000236128
43 *358:27 *359:27 0.0610635
*RES
1 *739:la_data_out_o[63] *359:13 12.0887 
2 *359:13 *359:15 71.5371 
3 *359:15 *359:25 37.6068 
4 *359:25 *359:27 763.304 
5 *359:27 *359:29 3.41 
6 *359:29 *359:31 55.2501 
7 *359:31 la_data_out[63] 18.0439 
*END

*D_NET *360 0.267026
*CONN
*P la_data_out[64] O
*I *739:la_data_out_o[64] O *D ntt_wb_bridge
*CAP
1 la_data_out[64] 0.000710287
2 *739:la_data_out_o[64] 0.000768104
3 *360:87 0.00987221
4 *360:85 0.00948257
5 *360:79 0.014436
6 *360:77 0.0193841
7 *360:53 0.0117407
8 *360:29 0.00878339
9 *360:19 0.01507
10 *360:17 0.0135267
11 *360:19 *362:15 0.00558978
12 *360:19 *689:31 0.0413132
13 *360:19 *728:15 0
14 *360:29 *376:15 0.00139231
15 *360:29 *382:15 0.000818998
16 *360:29 *389:23 0.00114338
17 *360:29 *394:15 0.00114338
18 *360:29 *716:15 0.00123293
19 *360:29 *733:23 0.00123293
20 *360:53 *363:39 0.012891
21 *360:53 *363:65 0.000573552
22 *360:53 *731:41 0.000106894
23 *360:53 *731:53 0.00588878
24 *360:53 *737:20 0.000753655
25 *360:53 *737:32 0
26 *360:77 *363:65 0.00604101
27 *360:77 *363:69 1.94945e-05
28 *360:77 *671:21 0
29 *360:77 *719:11 2.11419e-05
30 *360:77 *731:41 0
31 *360:77 *737:20 0
32 *360:79 *364:23 0.0392071
33 *360:79 *369:15 0
34 *360:79 *709:11 0.00157842
35 *360:79 *716:11 0.00171913
36 *360:79 *729:11 0
37 *360:79 *731:11 0
38 *360:79 *733:17 4.38243e-05
39 *360:85 la_data_out[81] 0.000315812
40 *360:85 *364:27 0.00111413
41 *360:85 *378:23 0
42 *360:87 *363:75 0.0223758
43 *360:87 *364:27 0.000147611
44 *360:87 *371:39 0
45 *360:87 *373:33 0
46 *360:87 *374:31 0
47 *360:87 *375:29 0
48 *360:87 *378:23 8.48362e-05
49 *277:17 *360:19 0.00299598
50 *354:25 *360:29 0.000508087
51 *354:31 *360:87 0.0101416
52 *357:15 *360:19 0.000225323
53 *357:25 *360:29 0.00221084
54 *358:7 *360:17 0.000197236
55 *359:31 *360:85 0.000223526
*RES
1 *739:la_data_out_o[64] *360:17 16.0658 
2 *360:17 *360:19 388.661 
3 *360:19 *360:29 27.2226 
4 *360:29 *360:53 49.0717 
5 *360:53 *360:77 47.2763 
6 *360:77 *360:79 483.714 
7 *360:79 *360:85 15.5268 
8 *360:85 *360:87 261.545 
9 *360:87 la_data_out[64] 18.375 
*END

*D_NET *361 0.335801
*CONN
*P la_data_out[65] O
*I *739:la_data_out_o[65] O *D ntt_wb_bridge
*CAP
1 la_data_out[65] 0.000797154
2 *739:la_data_out_o[65] 0.00183952
3 *361:23 0.00670783
4 *361:21 0.00591068
5 *361:19 0.0146135
6 *361:17 0.0146135
7 *361:15 0.00933811
8 *361:13 0.0111776
9 *361:15 *367:15 0.0479702
10 *361:15 *398:21 0.000129122
11 *361:15 *664:15 0.0340567
12 *361:15 *668:15 0.000166792
13 *361:15 *677:27 2.74485e-05
14 *361:15 *695:23 0.00688274
15 *361:15 *704:23 0.0103571
16 *361:15 *712:15 0.000770078
17 *361:15 *717:15 0.0108108
18 *361:15 *727:31 0.00149839
19 *361:15 *735:17 0.00242331
20 *361:19 la_data_out[82] 0.0233402
21 *361:19 *365:23 0
22 *361:19 *376:27 0.0617659
23 *361:19 *379:27 5.8004e-05
24 *361:19 *668:19 0.000216387
25 *361:19 *699:11 0.00374371
26 *361:19 *733:19 0
27 *361:23 *362:23 0.0280779
28 *361:23 *370:29 0.00275179
29 *361:23 *372:23 0.00229659
30 *354:25 *361:15 0.00345253
31 *358:7 *361:13 0.000167479
32 *359:31 *361:23 0.0298402
*RES
1 *739:la_data_out_o[65] *361:13 33.7641 
2 *361:13 *361:15 82.2751 
3 *361:15 *361:17 3.41 
4 *361:17 *361:19 772.411 
5 *361:19 *361:21 3.41 
6 *361:21 *361:23 47.5389 
7 *361:23 la_data_out[65] 18.6511 
*END

*D_NET *362 0.330496
*CONN
*P la_data_out[66] O
*I *739:la_data_out_o[66] O *D ntt_wb_bridge
*CAP
1 la_data_out[66] 0.000815395
2 *739:la_data_out_o[66] 0.000911159
3 *362:23 0.0111972
4 *362:19 0.0205627
5 *362:17 0.0101809
6 *362:15 0.0112758
7 *362:13 0.012187
8 *362:15 *374:15 0.00213441
9 *362:15 *385:15 0.000535178
10 *362:15 *387:15 0.000807222
11 *362:15 *390:15 0.0339512
12 *362:15 *689:31 0.00961988
13 *362:15 *726:15 0.00337758
14 *362:15 *729:15 0.0103733
15 *362:15 *736:15 0.00283955
16 *362:19 *373:21 1.32771e-05
17 *362:19 *374:19 0.0610784
18 *362:19 *375:17 0.0605005
19 *362:19 *710:19 0.000226232
20 *362:23 la_data_out[79] 0.000480614
21 *362:23 *368:47 0.00011307
22 *362:23 *371:37 0.00158317
23 *362:23 *374:29 0.00111257
24 *137:13 *362:23 0
25 *277:17 *362:15 0.0242931
26 *357:15 *362:15 0.0161
27 *358:7 *362:13 0.000127177
28 *359:31 *362:23 0.000432136
29 *360:19 *362:15 0.00558978
30 *361:23 *362:23 0.0280779
*RES
1 *739:la_data_out_o[66] *362:13 14.8518 
2 *362:13 *362:15 82.4913 
3 *362:15 *362:17 3.41 
4 *362:17 *362:19 752.982 
5 *362:19 *362:23 49.4355 
6 *362:23 la_data_out[66] 19.2582 
*END

*D_NET *363 0.265865
*CONN
*P la_data_out[67] O
*I *739:la_data_out_o[67] O *D ntt_wb_bridge
*CAP
1 la_data_out[67] 0.00071567
2 *739:la_data_out_o[67] 0.000526783
3 *363:75 0.00372302
4 *363:73 0.00300735
5 *363:71 0.0134162
6 *363:69 0.0147587
7 *363:65 0.00605006
8 *363:39 0.0111292
9 *363:15 0.0159054
10 *363:13 0.0100105
11 *363:15 *364:19 0
12 *363:15 *370:15 0
13 *363:15 *372:15 0.00155657
14 *363:15 *391:15 0.00500267
15 *363:15 *393:15 0.0006521
16 *363:15 *395:15 0.00087661
17 *363:15 *397:15 0.0218422
18 *363:15 *530:15 1.96616e-05
19 *363:15 *728:15 0.00691223
20 *363:39 *380:13 0.000273429
21 *363:39 *391:21 0
22 *363:39 *393:21 3.79922e-05
23 *363:39 *666:15 3.90782e-06
24 *363:39 *693:11 0.000308756
25 *363:39 *696:11 0.00018089
26 *363:39 *737:20 0.00113183
27 *363:39 *737:32 0.00303361
28 *363:65 *739:mem_rdata_i[13] 2.47761e-06
29 *363:65 *739:mem_rdata_i[2] 0
30 *363:65 *693:11 0.000291854
31 *363:65 *696:11 0.0001696
32 *363:65 *701:12 0.00116214
33 *363:65 *711:11 0.00010255
34 *363:65 *713:11 0.000111243
35 *363:65 *737:20 0.00128261
36 *363:69 *701:12 0.00047516
37 *363:69 *711:11 0.000345529
38 *363:69 *719:11 0.00122942
39 *363:71 *697:11 0
40 *363:71 *701:8 0.000624347
41 *363:71 *711:11 0.00171149
42 *363:71 *737:6 0.00011602
43 *363:75 *364:27 0.0206821
44 *76:19 *363:71 0.0293543
45 *79:19 *363:71 0.00420712
46 *79:23 *363:71 0.000559879
47 *114:17 *363:71 0.00829755
48 *278:15 *363:15 0.0178371
49 *279:17 *363:39 0.000144141
50 *281:17 *363:15 0.000488334
51 *298:29 *363:39 5.23496e-05
52 *354:15 *363:15 0.00302161
53 *356:19 *363:15 0.00545288
54 *356:31 *363:69 0
55 *356:31 *363:71 0
56 *356:35 *363:71 0
57 *356:39 *363:75 0.00478735
58 *358:7 *363:13 9.88306e-05
59 *359:15 *363:15 0.000281087
60 *360:53 *363:39 0.012891
61 *360:53 *363:65 0.000573552
62 *360:77 *363:65 0.00604101
63 *360:77 *363:69 1.94945e-05
64 *360:87 *363:75 0.0223758
*RES
1 *739:la_data_out_o[67] *363:13 12.6635 
2 *363:13 *363:15 419.464 
3 *363:15 *363:39 49.3402 
4 *363:39 *363:65 36.5315 
5 *363:65 *363:69 38.5893 
6 *363:69 *363:71 446.545 
7 *363:71 *363:73 4.5 
8 *363:73 *363:75 211.643 
9 *363:75 la_data_out[67] 18.6786 
*END

*D_NET *364 0.282866
*CONN
*P la_data_out[68] O
*I *739:la_data_out_o[68] O *D ntt_wb_bridge
*CAP
1 la_data_out[68] 0.00074066
2 *739:la_data_out_o[68] 0.000483729
3 *364:27 0.0037403
4 *364:25 0.00299964
5 *364:23 0.0181948
6 *364:21 0.0181948
7 *364:19 0.00671826
8 *364:17 0.00720199
9 *364:19 *365:19 0.0456094
10 *364:19 *370:15 0.0423328
11 *364:23 *739:busy_i 7.56159e-05
12 *364:23 *739:done_i 0.0001416
13 *364:23 *739:mem_rdata_i[10] 0.000625464
14 *364:23 *739:mem_rdata_i[11] 0.000193187
15 *364:23 *739:mem_rdata_i[13] 4.55034e-05
16 *364:23 *739:mem_rdata_i[23] 5.10726e-05
17 *364:23 *739:mem_rdata_i[2] 4.55034e-05
18 *364:23 *739:mem_rdata_i[3] 2.35213e-05
19 *364:23 *372:19 0
20 *364:23 *663:103 5.91998e-05
21 *364:23 *689:35 0.00976899
22 *364:23 *716:11 0.00133815
23 *364:23 *734:11 0.0285667
24 *364:27 la_data_out[81] 2.38501e-05
25 *364:27 *365:27 0.020457
26 *279:17 *364:19 0.00252014
27 *298:29 *364:19 0.000810441
28 *353:11 *364:19 0.000708234
29 *356:39 *364:27 0.00440017
30 *358:7 *364:17 3.4044e-05
31 *358:7 *364:19 0.00514832
32 *359:31 *364:27 0.000461745
33 *360:79 *364:23 0.0392071
34 *360:85 *364:27 0.00111413
35 *360:87 *364:27 0.000147611
36 *363:15 *364:19 0
37 *363:75 *364:27 0.0206821
*RES
1 *739:la_data_out_o[68] *364:17 10.5416 
2 *364:17 *364:19 436.304 
3 *364:19 *364:21 4.5 
4 *364:21 *364:23 749.036 
5 *364:23 *364:25 4.5 
6 *364:25 *364:27 209.179 
7 *364:27 la_data_out[68] 18.9821 
*END

*D_NET *365 0.301639
*CONN
*P la_data_out[69] O
*I *739:la_data_out_o[69] O *D ntt_wb_bridge
*CAP
1 la_data_out[69] 0.00076565
2 *739:la_data_out_o[69] 0.000365405
3 *365:27 0.00406774
4 *365:25 0.00330209
5 *365:23 0.0105172
6 *365:21 0.0105172
7 *365:19 0.00742635
8 *365:17 0.00779176
9 *365:17 *367:13 0
10 *365:19 *368:19 0.0206354
11 *365:19 *370:15 0.000489015
12 *365:19 *380:13 0.00107985
13 *365:19 *530:15 2.79201e-05
14 *365:23 *739:mem_rdata_i[30] 0.00101022
15 *365:23 *371:27 0.00404079
16 *365:23 *381:29 0.0605962
17 *365:23 *733:19 0.0531547
18 *365:27 la_data_out[81] 0.000193499
19 *365:27 *368:47 1.12713e-05
20 *365:27 *368:49 0.0175017
21 *102:23 *365:23 0.0114406
22 *284:23 *365:27 0.000611739
23 *288:21 *365:19 0.000951722
24 *292:23 *365:27 0.00053001
25 *298:29 *365:19 0.000406859
26 *299:15 *365:19 0.00738275
27 *301:21 *365:19 0.00043519
28 *358:7 *365:17 8.61909e-06
29 *358:7 *365:19 0.00611733
30 *359:31 *365:27 0.00419365
31 *361:19 *365:23 0
32 *364:19 *365:19 0.0456094
33 *364:27 *365:27 0.020457
*RES
1 *739:la_data_out_o[69] *365:17 11.7211 
2 *365:17 *365:19 440.411 
3 *365:19 *365:21 4.5 
4 *365:21 *365:23 748.429 
5 *365:23 *365:25 4.5 
6 *365:25 *365:27 203.839 
7 *365:27 la_data_out[69] 19.2857 
*END

*D_NET *366 0.149556
*CONN
*P la_data_out[6] O
*I *739:la_data_out_o[6] O *D ntt_wb_bridge
*CAP
1 la_data_out[6] 0.0371697
2 *739:la_data_out_o[6] 0.00363833
3 *366:29 0.0371697
4 *366:27 0.011655
5 *366:25 0.0152933
6 *366:25 *388:25 0.000626615
7 *366:25 *399:25 0.00340802
8 *126:29 *366:27 0.0305361
9 *272:25 *366:25 0.000306795
10 *294:19 *366:25 0.000181963
11 *310:27 *366:25 0.000457791
12 *313:23 *366:25 0.000104183
13 *316:19 *366:25 0.000958529
14 *317:15 *366:25 0.000908396
15 *318:15 *366:25 0.000369524
16 *320:15 *366:25 0.000370356
17 *324:19 *366:25 0.000173055
18 *327:31 *366:25 0
19 *333:15 *366:25 0.00424169
20 *335:23 *366:25 0.000154703
21 *337:15 *366:25 0.00166399
22 *351:33 *366:25 0.000168202
23 *355:13 *366:25 0
*RES
1 *739:la_data_out_o[6] *366:25 36.2051 
2 *366:25 *366:27 49.2325 
3 *366:27 *366:29 3.41 
4 *366:29 la_data_out[6] 741.384 
*END

*D_NET *367 0.252808
*CONN
*P la_data_out[70] O
*I *739:la_data_out_o[70] O *D ntt_wb_bridge
*CAP
1 la_data_out[70] 0.000600379
2 *739:la_data_out_o[70] 0.00215161
3 *367:25 0.00839523
4 *367:19 0.0284655
5 *367:17 0.0206706
6 *367:15 0.00893827
7 *367:13 0.0110899
8 *367:15 *668:15 0.0139484
9 *367:15 *696:15 0.00989446
10 *367:15 *712:15 0.00917909
11 *367:15 *719:15 0.00501211
12 *367:15 *727:23 0.00255134
13 *367:15 *727:31 0.00595404
14 *367:19 *370:19 0.000208458
15 *367:19 *371:27 0
16 *367:19 *373:31 0
17 *367:19 *374:29 0
18 *367:19 *375:27 5.46473e-05
19 *367:19 *647:23 0.00348784
20 *367:19 *649:15 0
21 *367:25 la_data_out[72] 0.0163663
22 *367:25 *371:39 0.00296168
23 *367:25 *373:33 0.00117577
24 *367:25 *374:31 0.000904379
25 *367:25 *375:29 0.000169615
26 *281:19 *367:19 0
27 *282:19 *367:19 0.0198287
28 *292:17 *367:19 0
29 *354:31 *367:25 0.00215124
30 *357:27 *367:19 0.0303126
31 *358:7 *367:13 0.000365811
32 *361:15 *367:15 0.0479702
33 *365:17 *367:13 0
*RES
1 *739:la_data_out_o[70] *367:13 34.9979 
2 *367:13 *367:15 74.7081 
3 *367:15 *367:17 3.41 
4 *367:17 *367:19 776.054 
5 *367:19 *367:25 39.3691 
6 *367:25 la_data_out[70] 12.2054 
*END

*D_NET *368 0.244838
*CONN
*P la_data_out[71] O
*I *739:la_data_out_o[71] O *D ntt_wb_bridge
*CAP
1 la_data_out[71] 0.000799632
2 *739:la_data_out_o[71] 0.000495753
3 *368:49 0.00355177
4 *368:47 0.00342127
5 *368:39 0.0177716
6 *368:37 0.0171025
7 *368:35 0.00126872
8 *368:33 0.00251873
9 *368:19 0.0142917
10 *368:17 0.0135374
11 *368:19 *371:21 0.00120437
12 *368:19 *380:13 0.0110351
13 *368:33 *391:23 5.96516e-05
14 *368:35 *391:23 0.00472307
15 *368:39 *375:17 0.0601125
16 *368:39 *378:19 0
17 *368:39 *710:19 0.0276162
18 *368:47 *370:27 0.000276383
19 *368:47 *376:41 0.000129444
20 *368:49 *370:27 5.35544e-05
21 *368:49 *370:29 0.0139415
22 *284:13 *368:19 0
23 *284:23 *368:47 0.000989344
24 *293:13 *368:19 0
25 *297:13 *368:33 0.00164482
26 *297:13 *368:35 0.00220867
27 *298:29 *368:35 0.000404001
28 *299:15 *368:19 0.00135884
29 *301:21 *368:33 0.000350927
30 *358:7 *368:17 0.000362262
31 *358:7 *368:19 0.00150626
32 *359:31 *368:49 0.00384122
33 *362:23 *368:47 0.00011307
34 *365:19 *368:19 0.0206354
35 *365:27 *368:47 1.12713e-05
36 *365:27 *368:49 0.0175017
*RES
1 *739:la_data_out_o[71] *368:17 10.4393 
2 *368:17 *368:19 364.018 
3 *368:19 *368:33 40.7321 
4 *368:33 *368:35 46.125 
5 *368:35 *368:37 4.5 
6 *368:37 *368:39 739.929 
7 *368:39 *368:47 23.8571 
8 *368:47 *368:49 165.643 
9 *368:49 la_data_out[71] 19.5893 
*END

*D_NET *369 0.281221
*CONN
*P la_data_out[72] O
*I *739:la_data_out_o[72] O *D ntt_wb_bridge
*CAP
1 la_data_out[72] 0.00338211
2 *739:la_data_out_o[72] 0.000167032
3 *369:15 0.0156663
4 *369:13 0.0138935
5 *369:7 0.00947679
6 *369:5 0.00803445
7 la_data_out[72] *375:29 0.000703617
8 *369:7 *370:13 0.000489733
9 *369:7 *371:21 0.00158894
10 *369:7 *371:23 0.000995589
11 *369:7 *372:13 0.000210211
12 *369:7 *373:15 0.000290123
13 *369:7 *374:13 0.000279542
14 *369:7 *375:11 2.55258e-05
15 *369:7 *375:13 0.0387661
16 *369:7 *376:13 0.000161271
17 *369:7 *378:13 9.8648e-05
18 *369:7 *381:13 0.00104335
19 *369:7 *381:27 0.000406273
20 *369:7 *383:13 0.0323794
21 *369:13 *371:23 0.00281033
22 *369:13 *375:13 0.000894876
23 *369:13 *392:21 0.000132088
24 *369:15 *739:mem_rdata_i[10] 0.00322362
25 *369:15 *372:19 0.0603103
26 *369:15 *373:31 0
27 *369:15 *735:11 0.0517143
28 *284:17 *369:15 0
29 *288:23 *369:13 0.000122494
30 *293:13 *369:7 0.000848076
31 *302:17 *369:15 0
32 *354:31 la_data_out[72] 0.0163701
33 *358:7 *369:7 0.000369497
34 *360:79 *369:15 0
35 *367:25 la_data_out[72] 0.0163663
*RES
1 *739:la_data_out_o[72] *369:5 0.556167 
2 *369:5 *369:7 67.8022 
3 *369:7 *369:13 8.2933 
4 *369:13 *369:15 746.304 
5 *369:15 la_data_out[72] 45.6235 
*END

*D_NET *370 0.285015
*CONN
*P la_data_out[73] O
*I *739:la_data_out_o[73] O *D ntt_wb_bridge
*CAP
1 la_data_out[73] 0.000833636
2 *739:la_data_out_o[73] 0.000699993
3 *370:29 0.00314577
4 *370:27 0.00259625
5 *370:19 0.01264
6 *370:17 0.0123558
7 *370:15 0.00585557
8 *370:13 0.00655556
9 *370:15 *372:15 0.0413802
10 *370:15 *530:15 0.000395826
11 *370:19 *371:27 0.0592495
12 *370:19 *733:19 0.000185551
13 *370:27 *376:41 0.000405756
14 *370:29 *372:23 0.0105553
15 *370:29 *376:41 2.57552e-06
16 *279:17 *370:15 0.00233876
17 *298:29 *370:15 0.000882309
18 *353:11 *370:15 0.000231446
19 *357:27 *370:19 0.05901
20 *358:7 *370:15 0.00515169
21 *361:23 *370:29 0.00275179
22 *363:15 *370:15 0
23 *364:19 *370:15 0.0423328
24 *365:19 *370:15 0.000489015
25 *367:19 *370:19 0.000208458
26 *368:47 *370:27 0.000276383
27 *368:49 *370:27 5.35544e-05
28 *368:49 *370:29 0.0139415
29 *369:7 *370:13 0.000489733
*RES
1 *739:la_data_out_o[73] *370:13 13.3803 
2 *370:13 *370:15 408.375 
3 *370:15 *370:17 4.5 
4 *370:17 *370:19 746.911 
5 *370:19 *370:27 13.375 
6 *370:27 *370:29 131.964 
7 *370:29 la_data_out[73] 19.8929 
*END

*D_NET *371 0.274392
*CONN
*P la_data_out[74] O
*I *739:la_data_out_o[74] O *D ntt_wb_bridge
*CAP
1 la_data_out[74] 0.000549122
2 *739:la_data_out_o[74] 0.001697
3 *371:39 0.00463805
4 *371:37 0.00525023
5 *371:27 0.0125303
6 *371:25 0.011369
7 *371:23 0.014249
8 *371:21 0.015946
9 *371:21 *375:13 0.00136797
10 *371:21 *378:13 0.000148676
11 *371:23 *375:13 0.000157589
12 *371:23 *378:13 1.7754e-05
13 *371:23 *379:13 0.000106095
14 *371:23 *380:11 0.00022983
15 *371:23 *381:11 0.000223446
16 *371:23 *381:13 0.034221
17 *371:23 *381:27 0.000200148
18 *371:23 *382:13 0.000571984
19 *371:23 *383:11 0.000210678
20 *371:23 *384:13 0.000453713
21 *371:23 *385:13 0.000394577
22 *371:23 *386:15 0.000288541
23 *371:23 *387:13 0.000276306
24 *371:23 *389:21 0.00021717
25 *371:23 *390:13 0.000158035
26 *371:23 *391:13 9.88992e-05
27 *371:23 *392:11 4.69021e-05
28 *371:23 *393:13 0.000355833
29 *371:23 *394:13 0.0005977
30 *371:23 *395:13 0.000565867
31 *371:23 *396:13 0.000492799
32 *371:23 *397:13 0.000447595
33 *371:23 *398:13 0.00038846
34 *371:23 *529:13 0.000168231
35 *371:23 *530:13 0.000133565
36 *371:23 *531:17 0.00064641
37 *371:27 *739:mem_rdata_i[30] 0.000895129
38 *371:27 *733:19 0.0527965
39 *371:37 la_data_out[81] 0
40 *371:37 *376:41 0.000109996
41 *371:39 *373:33 0.00821144
42 *102:23 *371:27 0.0118267
43 *137:13 *371:37 0
44 *273:13 *371:23 0.000306771
45 *274:13 *371:23 0.000176387
46 *275:13 *371:23 0.000211053
47 *276:13 *371:23 0.000151917
48 *277:15 *371:23 7.85104e-05
49 *278:13 *371:23 0.00011191
50 *279:13 *371:23 0.00067802
51 *280:13 *371:23 0.000334473
52 *281:17 *371:23 0.000559749
53 *282:17 *371:23 0.000500613
54 *284:11 *371:23 0.000207276
55 *285:11 *371:23 0.000191525
56 *285:13 *371:23 0.00173713
57 *286:11 *371:23 8.72503e-05
58 *286:13 *371:23 0.00179851
59 *287:11 *371:23 0.000129811
60 *287:13 *371:23 0.00194922
61 *288:21 *371:23 0.000111134
62 *289:11 *371:23 6.80978e-05
63 *289:13 *371:23 0.000501175
64 *290:11 *371:23 7.661e-05
65 *290:13 *371:23 0.000454531
66 *291:11 *371:23 5.50998e-05
67 *291:13 *371:23 0.00010142
68 *292:11 *371:23 0.000171309
69 *292:13 *371:23 0.00162577
70 *293:11 *371:23 0.00021387
71 *295:13 *371:23 0.000319128
72 *296:13 *371:23 0.000494496
73 *297:11 *371:23 0.000118926
74 *298:29 *371:23 0.000376225
75 *298:31 *371:23 0.000509157
76 *299:13 *371:23 0.000314081
77 *300:13 *371:23 0.000257954
78 *301:21 *371:23 0.000198818
79 *302:11 *371:23 3.12446e-05
80 *358:7 *371:21 0.00149482
81 *360:87 *371:39 0
82 *362:23 *371:37 0.00158317
83 *365:23 *371:27 0.00404079
84 *367:19 *371:27 0
85 *367:25 *371:39 0.00296168
86 *368:19 *371:21 0.00120437
87 *369:7 *371:21 0.00158894
88 *369:7 *371:23 0.000995589
89 *369:13 *371:23 0.00281033
90 *370:19 *371:27 0.0592495
*RES
1 *739:la_data_out_o[74] *371:21 28.8554 
2 *371:21 *371:23 64.1863 
3 *371:23 *371:25 3.41 
4 *371:25 *371:27 742.054 
5 *371:27 *371:37 19.3268 
6 *371:37 *371:39 109.375 
7 *371:39 la_data_out[74] 15.6429 
*END

*D_NET *372 0.221359
*CONN
*P la_data_out[75] O
*I *739:la_data_out_o[75] O *D ntt_wb_bridge
*CAP
1 la_data_out[75] 0.00086517
2 *739:la_data_out_o[75] 0.000483306
3 *372:23 0.00346252
4 *372:21 0.00259735
5 *372:19 0.0188105
6 *372:17 0.0188105
7 *372:15 0.00775279
8 *372:13 0.0082361
9 *372:15 *393:15 0.0135319
10 *372:15 *530:15 0.00332625
11 *372:19 *739:busy_i 0.000193187
12 *372:19 *739:mem_rdata_i[10] 0.00360602
13 *372:19 *739:mem_rdata_i[13] 0.000118506
14 *372:19 *739:mem_rdata_i[23] 0.00014183
15 *372:19 *739:mem_rdata_i[2] 0.000118506
16 *372:19 *739:mem_rdata_i[3] 6.80962e-05
17 *372:19 *658:15 0.000267869
18 *372:19 *663:103 0.000166101
19 *372:19 *695:15 0.000218081
20 *372:19 *704:17 0.000118506
21 *372:19 *710:17 9.25974e-05
22 *372:19 *714:13 0.00019303
23 *372:19 *715:13 0.000166724
24 *372:19 *734:11 0.0106746
25 *372:19 *735:11 0.000172794
26 *372:23 la_data_out[79] 0.00255109
27 *372:23 *376:41 0.000337622
28 *279:17 *372:15 0.00333602
29 *353:11 *372:15 0.00135139
30 *358:7 *372:15 0.00328046
31 *361:23 *372:23 0.00229659
32 *363:15 *372:15 0.00155657
33 *364:23 *372:19 0
34 *369:7 *372:13 0.000210211
35 *369:15 *372:19 0.0603103
36 *370:15 *372:15 0.0413802
37 *370:29 *372:23 0.0105553
*RES
1 *739:la_data_out_o[75] *372:13 13.2139 
2 *372:13 *372:15 390.304 
3 *372:15 *372:17 4.5 
4 *372:17 *372:19 748.429 
5 *372:19 *372:21 4.5 
6 *372:21 *372:23 99.9286 
7 *372:23 la_data_out[75] 20.1964 
*END

*D_NET *373 0.210305
*CONN
*P la_data_out[76] O
*I *739:la_data_out_o[76] O *D ntt_wb_bridge
*CAP
1 la_data_out[76] 0.000570193
2 *739:la_data_out_o[76] 0.0015041
3 *373:33 0.00220975
4 *373:31 0.00229191
5 *373:21 0.0271626
6 *373:19 0.0265103
7 *373:17 0.00845632
8 *373:15 0.00996043
9 *373:15 *702:29 0.00011731
10 *373:17 *379:15 0.00524912
11 *373:17 *386:23 0.0152657
12 *373:17 *649:11 0.00188157
13 *373:17 *675:27 0.00349273
14 *373:17 *676:23 0.0020642
15 *373:17 *678:11 0.00121837
16 *373:17 *687:13 0.0249252
17 *373:17 *702:31 2.83129e-05
18 *373:17 *725:23 0.00347973
19 *373:21 *739:mem_rdata_i[22] 0.00183456
20 *373:21 *374:19 0.0340503
21 *373:21 *375:17 0
22 *373:21 *531:21 0
23 *373:21 *690:23 0.000719283
24 *373:21 *710:19 0
25 *373:31 la_data_out[83] 0.00011307
26 *373:33 *374:31 0.00751413
27 *105:19 *373:21 0
28 *292:23 *373:31 0.000121926
29 *302:17 *373:31 4.19535e-05
30 *353:21 *373:17 0.00123821
31 *354:31 *373:31 0.00173652
32 *356:29 *373:17 0.0140177
33 *359:25 *373:17 0.00110875
34 *359:31 *373:31 0.00173033
35 *360:87 *373:33 0
36 *362:19 *373:21 1.32771e-05
37 *367:19 *373:31 0
38 *367:25 *373:33 0.00117577
39 *369:7 *373:15 0.000290123
40 *369:15 *373:31 0
41 *371:39 *373:33 0.00821144
*RES
1 *739:la_data_out_o[76] *373:15 28.4188 
2 *373:15 *373:17 70.3841 
3 *373:17 *373:19 3.41 
4 *373:19 *373:21 765.732 
5 *373:21 *373:31 16.8109 
6 *373:31 *373:33 87.1964 
7 *373:33 la_data_out[76] 15.9464 
*END

*D_NET *374 0.254426
*CONN
*P la_data_out[77] O
*I *739:la_data_out_o[77] O *D ntt_wb_bridge
*CAP
1 la_data_out[77] 0.000591263
2 *739:la_data_out_o[77] 0.000957149
3 *374:31 0.00206066
4 *374:29 0.00220645
5 *374:19 0.0129374
6 *374:17 0.0122004
7 *374:15 0.0091269
8 *374:13 0.0100841
9 *374:15 *378:15 0.0414666
10 *374:15 *385:15 0.0359994
11 *374:15 *657:23 0
12 *374:15 *716:23 0
13 *374:15 *737:34 0.00864595
14 *374:29 la_data_out[82] 0
15 *374:29 *375:27 0
16 *374:29 *381:29 0.000176399
17 *374:31 *375:29 0.00625545
18 *374:31 *378:23 0.000163931
19 *275:15 *374:15 0.00430346
20 *354:31 *374:31 0.000177031
21 *360:87 *374:31 0
22 *362:15 *374:15 0.00213441
23 *362:19 *374:19 0.0610784
24 *362:23 *374:29 0.00111257
25 *367:19 *374:29 0
26 *367:25 *374:31 0.000904379
27 *369:7 *374:13 0.000279542
28 *373:21 *374:19 0.0340503
29 *373:33 *374:31 0.00751413
*RES
1 *739:la_data_out_o[77] *374:13 19.3643 
2 *374:13 *374:15 69.4472 
3 *374:15 *374:17 3.41 
4 *374:17 *374:19 754.804 
5 *374:19 *374:29 17.927 
6 *374:29 *374:31 77.75 
7 *374:31 la_data_out[77] 16.25 
*END

*D_NET *375 0.255408
*CONN
*P la_data_out[78] O
*I *739:la_data_out_o[78] O *D ntt_wb_bridge
*CAP
1 la_data_out[78] 0.000615082
2 *739:la_data_out_o[78] 0.000344609
3 *375:29 0.00201546
4 *375:27 0.0020512
5 *375:17 0.0108703
6 *375:15 0.0102194
7 *375:13 0.00860067
8 *375:11 0.00894528
9 *375:13 *380:13 0.00502664
10 *375:13 *381:27 0.0039006
11 *375:13 *392:17 0.0267725
12 *375:13 *531:17 0.000103344
13 *375:17 *378:19 0
14 *375:17 *710:19 0.000186631
15 *375:27 *378:23 0.000443607
16 *375:29 *378:23 0.00286975
17 la_data_out[72] *375:29 0.000703617
18 *279:17 *375:13 7.80504e-05
19 *284:13 *375:13 0.00133321
20 *298:31 *375:13 0
21 *354:31 *375:27 0.00152124
22 *358:7 *375:13 0.000501625
23 *360:87 *375:29 0
24 *362:19 *375:17 0.0605005
25 *367:19 *375:27 5.46473e-05
26 *367:25 *375:29 0.000169615
27 *368:39 *375:17 0.0601125
28 *369:7 *375:11 2.55258e-05
29 *369:7 *375:13 0.0387661
30 *369:13 *375:13 0.000894876
31 *371:21 *375:13 0.00136797
32 *371:23 *375:13 0.000157589
33 *373:21 *375:17 0
34 *374:29 *375:27 0
35 *374:31 *375:29 0.00625545
*RES
1 *739:la_data_out_o[78] *375:11 10.9075 
2 *375:11 *375:13 68.5103 
3 *375:13 *375:15 3.41 
4 *375:15 *375:17 748.125 
5 *375:17 *375:27 14.6291 
6 *375:27 *375:29 59.2679 
7 *375:29 la_data_out[78] 16.5536 
*END

*D_NET *376 0.257524
*CONN
*P la_data_out[79] O
*I *739:la_data_out_o[79] O *D ntt_wb_bridge
*CAP
1 la_data_out[79] 0.00167846
2 *739:la_data_out_o[79] 0.00119121
3 *376:41 0.00290253
4 *376:27 0.0116581
5 *376:25 0.010434
6 *376:23 0.00259784
7 *376:21 0.00277216
8 *376:15 0.00800641
9 *376:13 0.0090233
10 *376:15 *378:15 0
11 *376:15 *382:15 0
12 *376:15 *384:21 0.0197269
13 *376:15 *389:23 0.00152432
14 *376:15 *394:15 0.00139039
15 *376:15 *657:23 0.00702726
16 *376:15 *676:31 0.00584975
17 *376:15 *711:15 0.00858912
18 *376:15 *716:15 0.00226181
19 *376:15 *725:15 0.0058301
20 *376:15 *733:23 0.00215835
21 *376:23 *379:23 0.00786001
22 *376:23 *675:27 0
23 *376:27 *379:27 0.0617435
24 *376:27 *668:19 1.08359e-05
25 *376:27 *699:11 0.00374371
26 *357:25 *376:15 0.0119517
27 *359:25 *376:21 0.00013571
28 *359:25 *376:23 0.000120342
29 *360:29 *376:15 0.00139231
30 *361:19 *376:27 0.0617659
31 *362:23 la_data_out[79] 0.000480614
32 *368:47 *376:41 0.000129444
33 *369:7 *376:13 0.000161271
34 *370:27 *376:41 0.000405756
35 *370:29 *376:41 2.57552e-06
36 *371:37 *376:41 0.000109996
37 *372:23 la_data_out[79] 0.00255109
38 *372:23 *376:41 0.000337622
*RES
1 *739:la_data_out_o[79] *376:13 24.0397 
2 *376:13 *376:15 53.0881 
3 *376:15 *376:21 10.6154 
4 *376:21 *376:23 74.4643 
5 *376:23 *376:25 4.5 
6 *376:25 *376:27 761.786 
7 *376:27 *376:41 32.0268 
8 *376:41 la_data_out[79] 44.6518 
*END

*D_NET *377 0.125418
*CONN
*P la_data_out[7] O
*I *739:la_data_out_o[7] O *D ntt_wb_bridge
*CAP
1 la_data_out[7] 0.0377284
2 *739:la_data_out_o[7] 0.00192206
3 *377:29 0.0480011
4 *377:25 0.010459
5 *377:19 0.00250921
6 *377:17 0.00424499
7 *118:67 la_data_out[7] 0.00148846
8 *283:13 *377:19 0
9 *294:13 *377:17 0
10 *294:13 *377:19 0
11 *305:23 *377:29 0.00627011
12 *306:13 *377:17 0.000103611
13 *307:13 *377:17 0.000104252
14 *308:15 *377:29 0.00269629
15 *310:27 *377:17 0.000494366
16 *312:13 *377:17 0.000641904
17 *312:13 *377:19 0.00040522
18 *314:13 *377:29 0.00101263
19 *326:15 *377:19 0.000282025
20 *328:15 *377:17 0.00327925
21 *328:15 *377:19 0.00150132
22 *333:15 *377:29 0
23 *338:37 *377:25 0
24 *344:29 *377:29 0.0022741
*RES
1 *739:la_data_out_o[7] *377:17 45.0218 
2 *377:17 *377:19 49.4107 
3 *377:19 *377:25 11.2225 
4 *377:25 *377:29 46.697 
5 *377:29 la_data_out[7] 758.991 
*END

*D_NET *378 0.208984
*CONN
*P la_data_out[80] O
*I *739:la_data_out_o[80] O *D ntt_wb_bridge
*CAP
1 la_data_out[80] 0.000640072
2 *739:la_data_out_o[80] 0.000923921
3 *378:23 0.00200736
4 *378:19 0.0347557
5 *378:17 0.0333884
6 *378:15 0.00933429
7 *378:13 0.0102582
8 *378:15 *382:15 0.0383671
9 *378:15 *385:15 0.000144003
10 *378:15 *396:15 0.0044575
11 *378:19 *662:31 0.000529248
12 *378:19 *664:27 0.0149974
13 *378:19 *710:19 0.00428706
14 *378:23 la_data_out[81] 8.45347e-05
15 *274:15 *378:15 0.0044916
16 *276:15 *378:15 0.0040922
17 *302:23 *378:23 0.000521513
18 *354:31 *378:23 0.000410439
19 *359:27 *378:19 0
20 *360:85 *378:23 0
21 *360:87 *378:23 8.48362e-05
22 *368:39 *378:19 0
23 *369:7 *378:13 9.8648e-05
24 *371:21 *378:13 0.000148676
25 *371:23 *378:13 1.7754e-05
26 *374:15 *378:15 0.0414666
27 *374:31 *378:23 0.000163931
28 *375:17 *378:19 0
29 *375:27 *378:23 0.000443607
30 *375:29 *378:23 0.00286975
31 *376:15 *378:15 0
*RES
1 *739:la_data_out_o[80] *378:13 19.6989 
2 *378:13 *378:15 66.7087 
3 *378:15 *378:17 3.41 
4 *378:17 *378:19 759.509 
5 *378:19 *378:23 47.3393 
6 *378:23 la_data_out[80] 16.8571 
*END

*D_NET *379 0.217878
*CONN
*P la_data_out[81] O
*I *739:la_data_out_o[81] O *D ntt_wb_bridge
*CAP
1 la_data_out[81] 0.00117739
2 *739:la_data_out_o[81] 0.00132441
3 *379:27 0.0225575
4 *379:25 0.0213802
5 *379:23 0.00152851
6 *379:21 0.00154479
7 *379:15 0.00492538
8 *379:13 0.00623351
9 la_data_out[81] la_data_out[83] 0.000441015
10 *379:13 *725:21 8.56412e-05
11 *379:15 *386:23 0.0152657
12 *379:15 *389:21 0.00561714
13 *379:15 *678:11 0.00681251
14 *379:15 *702:23 0.00292722
15 *379:15 *711:15 0.0108464
16 *379:23 *384:23 0.00920834
17 *379:23 *675:27 0
18 *379:23 *711:15 0.000225341
19 *379:27 *668:19 0.0135088
20 *379:27 *699:11 0.0069487
21 *105:19 *379:27 0
22 *292:23 la_data_out[81] 0.000304799
23 *302:23 la_data_out[81] 0.00104643
24 *354:25 *379:21 1.94945e-05
25 *356:29 *379:15 0.00711733
26 *359:25 *379:23 0.00119734
27 *360:85 la_data_out[81] 0.000315812
28 *361:19 *379:27 5.8004e-05
29 *364:27 la_data_out[81] 2.38501e-05
30 *365:27 la_data_out[81] 0.000193499
31 *371:23 *379:13 0.000106095
32 *371:37 la_data_out[81] 0
33 *373:17 *379:15 0.00524912
34 *376:23 *379:23 0.00786001
35 *376:27 *379:27 0.0617435
36 *378:23 la_data_out[81] 8.45347e-05
*RES
1 *739:la_data_out_o[81] *379:13 27.8855 
2 *379:13 *379:15 48.9082 
3 *379:15 *379:21 8.18679 
4 *379:21 *379:23 87.1964 
5 *379:23 *379:25 4.5 
6 *379:25 *379:27 764.518 
7 *379:27 la_data_out[81] 41.0714 
*END

*D_NET *380 0.174888
*CONN
*P la_data_out[82] O
*I *739:la_data_out_o[82] O *D ntt_wb_bridge
*CAP
1 la_data_out[82] 0.0277892
2 *739:la_data_out_o[82] 0.000433839
3 *380:15 0.0277892
4 *380:13 0.00811783
5 *380:11 0.00855167
6 la_data_out[82] *381:29 0
7 *380:13 *381:27 0.0039006
8 *380:13 *392:17 0.0267725
9 *380:13 *529:15 0.000294663
10 *380:13 *531:17 0.00164472
11 *102:23 la_data_out[82] 0.00656095
12 *279:17 *380:13 0.00268104
13 *288:21 *380:13 0.00438659
14 *298:29 *380:13 0.00120736
15 *301:21 *380:13 0.00266763
16 *358:7 *380:13 0.0111054
17 *361:19 la_data_out[82] 0.0233402
18 *363:39 *380:13 0.000273429
19 *365:19 *380:13 0.00107985
20 *368:19 *380:13 0.0110351
21 *371:23 *380:11 0.00022983
22 *374:29 la_data_out[82] 0
23 *375:13 *380:13 0.00502664
*RES
1 *739:la_data_out_o[82] *380:11 12.4789 
2 *380:11 *380:13 61.8802 
3 *380:13 *380:15 3.41 
4 *380:15 la_data_out[82] 762.027 
*END

*D_NET *381 0.215757
*CONN
*P la_data_out[83] O
*I *739:la_data_out_o[83] O *D ntt_wb_bridge
*CAP
1 la_data_out[83] 0.00102579
2 *739:la_data_out_o[83] 0.000264718
3 *381:29 0.0246656
4 *381:27 0.0253365
5 *381:13 0.0066217
6 *381:11 0.00518972
7 *381:13 *383:13 0.0323858
8 *381:27 *391:21 6.28752e-05
9 *381:27 *397:23 0
10 la_data_out[81] la_data_out[83] 0.000441015
11 la_data_out[82] *381:29 0
12 *102:23 *381:29 0.0123437
13 *292:23 la_data_out[83] 0.00186282
14 *302:23 la_data_out[83] 0.000775261
15 *354:27 la_data_out[83] 0
16 *365:23 *381:29 0.0605962
17 *369:7 *381:13 0.00104335
18 *369:7 *381:27 0.000406273
19 *371:23 *381:11 0.000223446
20 *371:23 *381:13 0.034221
21 *371:23 *381:27 0.000200148
22 *373:31 la_data_out[83] 0.00011307
23 *374:29 *381:29 0.000176399
24 *375:13 *381:27 0.0039006
25 *380:13 *381:27 0.0039006
*RES
1 *739:la_data_out_o[83] *381:11 9.42443 
2 *381:11 *381:13 53.3403 
3 *381:13 *381:27 19.4505 
4 *381:27 *381:29 747.366 
5 *381:29 la_data_out[83] 40.9643 
*END

*D_NET *382 0.151666
*CONN
*P la_data_out[84] O
*I *739:la_data_out_o[84] O *D ntt_wb_bridge
*CAP
1 la_data_out[84] 0.0382074
2 *739:la_data_out_o[84] 0.00112953
3 *382:17 0.0382074
4 *382:15 0.0142854
5 *382:13 0.015415
6 la_data_out[84] *646:59 0
7 la_data_out[84] *658:27 0
8 la_data_out[84] *663:97 0.000748702
9 la_data_out[84] *673:57 0
10 la_data_out[84] *682:105 0
11 *382:15 *384:21 0.00289802
12 *382:15 *385:15 0.000689119
13 *382:15 *396:15 0.00014225
14 *382:15 *702:21 6.63171e-06
15 *382:15 *737:32 4.65519e-05
16 *274:15 *382:15 0.000131918
17 *357:25 *382:15 0
18 *359:25 *382:15 0
19 *360:29 *382:15 0.000818998
20 *371:23 *382:13 0.000571984
21 *376:15 *382:15 0
22 *378:15 *382:15 0.0383671
*RES
1 *739:la_data_out_o[84] *382:13 22.5254 
2 *382:13 *382:15 64.907 
3 *382:15 *382:17 3.41 
4 *382:17 la_data_out[84] 772.348 
*END

*D_NET *383 0.183507
*CONN
*P la_data_out[85] O
*I *739:la_data_out_o[85] O *D ntt_wb_bridge
*CAP
1 la_data_out[85] 0.000742132
2 *739:la_data_out_o[85] 0.000293906
3 *383:39 0.00173914
4 *383:29 0.00407555
5 *383:27 0.00312485
6 *383:25 0.0274189
7 *383:23 0.0273726
8 *383:21 0.00149074
9 *383:19 0.0015062
10 *383:13 0.004685
11 *383:11 0.00496344
12 *383:19 *392:17 2.06178e-05
13 *383:21 *392:21 0.00635111
14 *383:25 *688:27 0.018301
15 *383:25 *704:19 0.000365323
16 *383:25 *706:11 0.00647836
17 *383:25 *707:11 0
18 *284:13 *383:13 0.00140578
19 *284:13 *383:21 0.00382359
20 *284:25 *383:39 0.00307096
21 *293:13 *383:21 0.00130142
22 *352:23 *383:29 0
23 *353:23 *383:25 0
24 *353:23 *383:29 0
25 *354:27 *383:25 0
26 *354:27 *383:29 0
27 *359:27 *383:29 0
28 *369:7 *383:13 0.0323794
29 *371:23 *383:11 0.000210678
30 *381:13 *383:13 0.0323858
*RES
1 *739:la_data_out_o[85] *383:11 9.99397 
2 *383:11 *383:13 50.4937 
3 *383:13 *383:19 8.18679 
4 *383:19 *383:21 61.7321 
5 *383:21 *383:23 4.5 
6 *383:23 *383:25 687.402 
7 *383:25 *383:27 0.946429 
8 *383:27 *383:29 57.5089 
9 *383:29 *383:39 39.6607 
10 *383:39 la_data_out[85] 14.7857 
*END

*D_NET *384 0.170807
*CONN
*P la_data_out[86] O
*I *739:la_data_out_o[86] O *D ntt_wb_bridge
*CAP
1 la_data_out[86] 0.0386291
2 *739:la_data_out_o[86] 0.00126452
3 *384:25 0.0386291
4 *384:23 0.00569314
5 *384:21 0.0117697
6 *384:13 0.00734112
7 la_data_out[86] *673:47 0
8 *384:21 *389:23 0.00232768
9 *384:21 *394:15 0.00233382
10 *384:21 *676:31 0.000231989
11 *384:21 *716:15 0.0043272
12 *384:21 *733:23 0.00461704
13 *384:23 *386:25 0.00462102
14 *384:23 *675:27 0
15 *384:23 *702:23 0.0137899
16 *384:23 *711:15 0.00165124
17 *115:25 la_data_out[86] 0
18 *279:19 la_data_out[86] 0
19 *356:29 *384:21 0.000190956
20 *359:25 *384:23 0.00110259
21 *371:23 *384:13 0.000453713
22 *376:15 *384:21 0.0197269
23 *379:23 *384:23 0.00920834
24 *382:15 *384:21 0.00289802
*RES
1 *739:la_data_out_o[86] *384:13 25.3793 
2 *384:13 *384:21 42.0114 
3 *384:21 *384:23 210.411 
4 *384:23 *384:25 4.5 
5 *384:25 la_data_out[86] 777.964 
*END

*D_NET *385 0.197739
*CONN
*P la_data_out[87] O
*I *739:la_data_out_o[87] O *D ntt_wb_bridge
*CAP
1 la_data_out[87] 0.0332255
2 *739:la_data_out_o[87] 0.000977765
3 *385:17 0.0332255
4 *385:15 0.0108288
5 *385:13 0.0118066
6 la_data_out[87] *660:15 0.0109882
7 la_data_out[87] *663:89 0.00328575
8 la_data_out[87] *715:21 0.00127872
9 *385:15 *387:15 0.042386
10 *385:15 *396:15 0.000124728
11 *273:15 *385:15 0.00581259
12 *275:15 *385:15 0.00106466
13 *276:15 *385:15 0.000344914
14 *280:15 *385:15 0.0046271
15 *362:15 *385:15 0.000535178
16 *371:23 *385:13 0.000394577
17 *374:15 *385:15 0.0359994
18 *378:15 *385:15 0.000144003
19 *382:15 *385:15 0.000689119
*RES
1 *739:la_data_out_o[87] *385:13 20.4313 
2 *385:13 *385:15 69.9517 
3 *385:15 *385:17 3.41 
4 *385:17 la_data_out[87] 770.527 
*END

*D_NET *386 0.172169
*CONN
*P la_data_out[88] O
*I *739:la_data_out_o[88] O *D ntt_wb_bridge
*CAP
1 la_data_out[88] 0.0383094
2 *739:la_data_out_o[88] 0.00149473
3 *386:27 0.0383094
4 *386:25 0.00678066
5 *386:23 0.00909419
6 *386:15 0.00380826
7 la_data_out[88] *684:15 0
8 la_data_out[88] *692:11 0
9 *386:15 *657:21 2.06178e-05
10 *386:25 *389:23 0
11 *386:25 *657:15 0.000204731
12 *386:25 *673:45 0.000345474
13 *386:25 *676:31 0.000479999
14 *386:25 *678:19 0.0161661
15 *386:25 *702:23 0.0170666
16 *386:25 *711:15 0.00335493
17 *114:39 la_data_out[88] 0.00102238
18 *358:13 *386:23 0.000138076
19 *359:25 *386:25 0.000132088
20 *371:23 *386:15 0.000288541
21 *373:17 *386:23 0.0152657
22 *379:15 *386:23 0.0152657
23 *384:23 *386:25 0.00462102
*RES
1 *739:la_data_out_o[88] *386:15 29.3041 
2 *386:15 *386:23 33.5336 
3 *386:23 *386:25 272.839 
4 *386:25 *386:27 4.5 
5 *386:27 la_data_out[88] 777.357 
*END

*D_NET *387 0.196899
*CONN
*P la_data_out[89] O
*I *739:la_data_out_o[89] O *D ntt_wb_bridge
*CAP
1 la_data_out[89] 0.0380945
2 *739:la_data_out_o[89] 0.000915365
3 *387:17 0.0380945
4 *387:15 0.0106185
5 *387:13 0.0115339
6 *387:15 *390:15 0.0454075
7 *387:15 *726:15 0.0002845
8 *387:15 *736:15 0.000265496
9 *273:15 *387:15 0.000376845
10 *275:15 *387:15 0.00011742
11 *280:15 *387:15 0.000303905
12 *296:15 *387:15 0.00328043
13 *300:15 *387:15 0.00413688
14 *362:15 *387:15 0.000807222
15 *371:23 *387:13 0.000276306
16 *385:15 *387:15 0.042386
*RES
1 *739:la_data_out_o[89] *387:13 19.6425 
2 *387:13 *387:15 73.3388 
3 *387:15 *387:17 3.41 
4 *387:17 la_data_out[89] 769.92 
*END

*D_NET *388 0.134539
*CONN
*P la_data_out[8] O
*I *739:la_data_out_o[8] O *D ntt_wb_bridge
*CAP
1 la_data_out[8] 0.0362123
2 *739:la_data_out_o[8] 0.00497706
3 *388:29 0.0496924
4 *388:25 0.0184572
5 *388:25 *399:25 0.000198685
6 *388:29 *632:7 0.00396602
7 *126:25 *388:25 0.0015859
8 *272:25 *388:25 0
9 *305:13 *388:25 0.000101187
10 *306:13 *388:25 0.000116425
11 *307:13 *388:25 0.000117507
12 *309:13 *388:25 0.000108972
13 *310:27 *388:25 0.000576062
14 *312:13 *388:25 0.00246207
15 *313:13 *388:25 0.000107058
16 *317:19 *388:25 0.000565177
17 *318:19 *388:25 0.000497279
18 *319:19 *388:25 0.00048282
19 *321:15 *388:25 0.00106013
20 *321:19 *388:25 0.000522437
21 *324:15 *388:25 0.00111808
22 *324:19 *388:25 0.000240874
23 *325:15 *388:25 0.000878029
24 *326:15 *388:25 0.000303102
25 *326:19 *388:25 0.000154703
26 *327:15 *388:25 0.00132455
27 *328:15 *388:25 0.000273281
28 *333:15 *388:25 0.00212761
29 *335:23 *388:25 0.000240874
30 *337:15 *388:25 0.00307854
31 *344:27 *388:25 0.00236588
32 *366:25 *388:25 0.000626615
*RES
1 *739:la_data_out_o[8] *388:25 39.7486 
2 *388:25 *388:29 46.661 
3 *388:29 la_data_out[8] 721.955 
*END

*D_NET *389 0.184093
*CONN
*P la_data_out[90] O
*I *739:la_data_out_o[90] O *D ntt_wb_bridge
*CAP
1 la_data_out[90] 0.0328342
2 *739:la_data_out_o[90] 0.00239803
3 *389:25 0.0328342
4 *389:23 0.00791552
5 *389:21 0.0103135
6 *389:21 *711:15 0.00561714
7 *389:23 *394:15 0.0398145
8 *389:23 *676:31 0.00016984
9 *389:23 *716:15 0.0250466
10 *76:35 la_data_out[90] 0.00392634
11 *78:57 la_data_out[90] 0.012393
12 *360:29 *389:23 0.00114338
13 *371:23 *389:21 0.00021717
14 *376:15 *389:23 0.00152432
15 *379:15 *389:21 0.00561714
16 *384:21 *389:23 0.00232768
17 *386:25 *389:23 0
*RES
1 *739:la_data_out_o[90] *389:21 46.5233 
2 *389:21 *389:23 377.982 
3 *389:23 *389:25 4.5 
4 *389:25 la_data_out[90] 775.536 
*END

*D_NET *390 0.200209
*CONN
*P la_data_out[91] O
*I *739:la_data_out_o[91] O *D ntt_wb_bridge
*CAP
1 la_data_out[91] 0.0390623
2 *739:la_data_out_o[91] 0.00084118
3 *390:17 0.0390623
4 *390:15 0.00899118
5 *390:13 0.00983236
6 la_data_out[91] *658:51 0
7 la_data_out[91] *663:65 0.000983039
8 *390:15 *726:15 0.00591807
9 *390:15 *736:15 0.00638997
10 *115:41 la_data_out[91] 0
11 *273:15 *390:15 0.000185779
12 *275:15 *390:15 0.000358897
13 *277:17 *390:15 0.00851241
14 *280:15 *390:15 0.000242161
15 *296:15 *390:15 0.000312492
16 *362:15 *390:15 0.0339512
17 *371:23 *390:13 0.000158035
18 *387:15 *390:15 0.0454075
*RES
1 *739:la_data_out_o[91] *390:13 18.8536 
2 *390:13 *390:15 76.798 
3 *390:15 *390:17 3.41 
4 *390:17 la_data_out[91] 769.312 
*END

*D_NET *391 0.176371
*CONN
*P la_data_out[92] O
*I *739:la_data_out_o[92] O *D ntt_wb_bridge
*CAP
1 la_data_out[92] 0.0371169
2 *739:la_data_out_o[92] 0.000612994
3 *391:29 0.0371169
4 *391:27 0.00430849
5 *391:25 0.00433104
6 *391:23 0.00202788
7 *391:21 0.00259437
8 *391:15 0.00402227
9 *391:13 0.00404623
10 la_data_out[92] *663:55 0.00636921
11 *391:15 *728:15 0.0266864
12 *391:21 *395:21 0.000688331
13 *391:21 *397:23 0
14 *391:23 *393:23 0.0013374
15 *391:23 *395:23 6.58102e-06
16 *391:27 *393:23 0.00142998
17 *114:59 la_data_out[92] 0
18 *278:15 *391:15 0.0176189
19 *297:13 *391:23 0.000336598
20 *297:13 *391:27 0.00796056
21 *298:31 *391:27 0.00261966
22 *359:15 *391:15 0.00519261
23 *363:15 *391:15 0.00500267
24 *363:39 *391:21 0
25 *368:33 *391:23 5.96516e-05
26 *368:35 *391:23 0.00472307
27 *371:23 *391:13 9.88992e-05
28 *381:27 *391:21 6.28752e-05
*RES
1 *739:la_data_out_o[92] *391:13 16.6652 
2 *391:13 *391:15 251.071 
3 *391:15 *391:21 19.75 
4 *391:21 *391:23 57.4196 
5 *391:23 *391:25 0.428571 
6 *391:25 *391:27 138.741 
7 *391:27 *391:29 4.5 
8 *391:29 la_data_out[92] 755.804 
*END

*D_NET *392 0.184923
*CONN
*P la_data_out[93] O
*I *739:la_data_out_o[93] O *D ntt_wb_bridge
*CAP
1 la_data_out[93] 0.038413
2 *739:la_data_out_o[93] 0.000320475
3 *392:23 0.038413
4 *392:21 0.00425383
5 *392:19 0.00425383
6 *392:17 0.00400455
7 *392:11 0.00432503
8 la_data_out[93] *682:81 0.000786455
9 la_data_out[93] *714:53 0
10 *77:57 la_data_out[93] 0.000418752
11 *284:13 *392:21 2.14757e-05
12 *288:23 *392:21 0.0231222
13 *293:13 *392:21 0.00649446
14 *369:13 *392:21 0.000132088
15 *371:23 *392:11 4.69021e-05
16 *375:13 *392:17 0.0267725
17 *380:13 *392:17 0.0267725
18 *383:19 *392:17 2.06178e-05
19 *383:21 *392:21 0.00635111
*RES
1 *739:la_data_out_o[93] *392:11 11.3485 
2 *392:11 *392:17 47.2818 
3 *392:17 *392:19 4.5 
4 *392:19 *392:21 219.857 
5 *392:21 *392:23 4.5 
6 *392:23 la_data_out[93] 759.446 
*END

*D_NET *393 0.172848
*CONN
*P la_data_out[94] O
*I *739:la_data_out_o[94] O *D ntt_wb_bridge
*CAP
1 la_data_out[94] 0.038416
2 *739:la_data_out_o[94] 0.000592196
3 *393:25 0.038416
4 *393:23 0.00678001
5 *393:21 0.00720339
6 *393:15 0.00418375
7 *393:13 0.00435257
8 *393:15 *395:15 0.0234502
9 *393:15 *530:15 0.000699551
10 *393:21 *395:21 5.48776e-05
11 *393:23 *395:23 0.0236966
12 *393:23 *667:41 0.000710971
13 *281:17 *393:15 0.00311767
14 *297:13 *393:23 0
15 *298:29 *393:21 0.000529468
16 *298:31 *393:23 0.000535878
17 *301:21 *393:21 0.000631379
18 *353:11 *393:15 0.000923429
19 *354:15 *393:15 0.00120918
20 *363:15 *393:15 0.0006521
21 *363:39 *393:21 3.79922e-05
22 *371:23 *393:13 0.000355833
23 *372:15 *393:15 0.0135319
24 *391:23 *393:23 0.0013374
25 *391:27 *393:23 0.00142998
*RES
1 *739:la_data_out_o[94] *393:13 15.5422 
2 *393:13 *393:15 236.696 
3 *393:15 *393:21 19.4464 
4 *393:21 *393:23 226.429 
5 *393:23 *393:25 4.5 
6 *393:25 la_data_out[94] 754.286 
*END

*D_NET *394 0.177126
*CONN
*P la_data_out[95] O
*I *739:la_data_out_o[95] O *D ntt_wb_bridge
*CAP
1 la_data_out[95] 0.0383554
2 *739:la_data_out_o[95] 0.00145966
3 *394:17 0.0383554
4 *394:15 0.0119633
5 *394:13 0.013423
6 la_data_out[95] *685:111 0
7 *394:15 *663:53 0
8 *394:15 *716:15 0.00073597
9 *394:15 *733:23 0.0275537
10 *274:15 *394:15 0
11 *276:15 *394:15 0
12 *360:29 *394:15 0.00114338
13 *371:23 *394:13 0.0005977
14 *376:15 *394:15 0.00139039
15 *384:21 *394:15 0.00233382
16 *389:23 *394:15 0.0398145
*RES
1 *739:la_data_out_o[95] *394:13 26.5808 
2 *394:13 *394:15 469.982 
3 *394:15 *394:17 4.5 
4 *394:17 la_data_out[95] 775.232 
*END

*D_NET *395 0.200205
*CONN
*P la_data_out[96] O
*I *739:la_data_out_o[96] O *D ntt_wb_bridge
*CAP
1 la_data_out[96] 0.03441
2 *739:la_data_out_o[96] 0.00067572
3 *395:25 0.03441
4 *395:23 0.00469145
5 *395:21 0.00511486
6 *395:15 0.00329009
7 *395:13 0.0035424
8 la_data_out[96] *658:59 0.0017503
9 la_data_out[96] *685:101 0.00281376
10 la_data_out[96] *714:59 0.00378462
11 la_data_out[96] *715:43 0
12 *395:15 *397:15 0.021846
13 *395:23 *397:25 0.0271164
14 *395:23 *667:41 0.00115888
15 *77:73 la_data_out[96] 0.000482136
16 *281:17 *395:15 0.00336184
17 *297:13 *395:23 0
18 *301:21 *395:21 0.000650725
19 *353:11 *395:15 0.000711251
20 *354:15 *395:15 0.00105539
21 *363:15 *395:15 0.00087661
22 *371:23 *395:13 0.000565867
23 *391:21 *395:21 0.000688331
24 *391:23 *395:23 6.58102e-06
25 *393:15 *395:15 0.0234502
26 *393:21 *395:21 5.48776e-05
27 *393:23 *395:23 0.0236966
*RES
1 *739:la_data_out_o[96] *395:13 16.1685 
2 *395:13 *395:15 220.679 
3 *395:15 *395:21 20.0536 
4 *395:21 *395:23 258.875 
5 *395:23 *395:25 4.5 
6 *395:25 la_data_out[96] 753.982 
*END

*D_NET *396 0.196767
*CONN
*P la_data_out[97] O
*I *739:la_data_out_o[97] O *D ntt_wb_bridge
*CAP
1 la_data_out[97] 0.0265764
2 *739:la_data_out_o[97] 0.00119305
3 *396:17 0.0265764
4 *396:15 0.0085434
5 *396:13 0.00973645
6 *396:15 *733:23 0
7 *396:15 *737:34 0.0234908
8 *274:15 *396:15 0.0465247
9 *275:15 *396:15 0.0152038
10 *286:17 la_data_out[97] 0.0337048
11 *371:23 *396:13 0.000492799
12 *378:15 *396:15 0.0044575
13 *382:15 *396:15 0.00014225
14 *385:15 *396:15 0.000124728
*RES
1 *739:la_data_out_o[97] *396:13 23.0597 
2 *396:13 *396:15 489.286 
3 *396:15 *396:17 4.5 
4 *396:17 la_data_out[97] 771.893 
*END

*D_NET *397 0.201403
*CONN
*P la_data_out[98] O
*I *739:la_data_out_o[98] O *D ntt_wb_bridge
*CAP
1 la_data_out[98] 0.0367331
2 *739:la_data_out_o[98] 0.000667749
3 *397:27 0.0367331
4 *397:25 0.00526712
5 *397:23 0.00609309
6 *397:15 0.00342841
7 *397:13 0.00327019
8 la_data_out[98] *714:77 0.00198721
9 *397:23 *530:13 0
10 *397:25 *667:41 0.00133312
11 *114:75 la_data_out[98] 0
12 *278:23 *397:25 0.0297199
13 *281:17 *397:15 0.000674452
14 *297:13 *397:25 0
15 *301:23 *397:25 0.000377916
16 *354:15 *397:15 0.00356208
17 *359:15 *397:15 0.000303102
18 *363:15 *397:15 0.0218422
19 *371:23 *397:13 0.000447595
20 *381:27 *397:23 0
21 *391:21 *397:23 0
22 *395:15 *397:15 0.021846
23 *395:23 *397:25 0.0271164
*RES
1 *739:la_data_out_o[98] *397:13 16.2903 
2 *397:13 *397:15 205.482 
3 *397:15 *397:23 20.7857 
4 *397:23 *397:25 293.375 
5 *397:25 *397:27 4.5 
6 *397:27 la_data_out[98] 753.679 
*END

*D_NET *398 0.171536
*CONN
*P la_data_out[99] O
*I *739:la_data_out_o[99] O *D ntt_wb_bridge
*CAP
1 la_data_out[99] 0.0379459
2 *739:la_data_out_o[99] 0.00189087
3 *398:25 0.0379459
4 *398:23 0.0146187
5 *398:21 0.0177794
6 *398:13 0.00505155
7 la_data_out[99] *685:87 0.00302408
8 la_data_out[99] *714:85 0
9 *398:21 *740:mem_slot[0] 0
10 *398:21 *647:11 0.0174525
11 *398:21 *661:23 0.000785322
12 *398:21 *661:31 0.000284522
13 *398:21 *664:15 0.000378438
14 *398:21 *688:15 0.000995054
15 *398:21 *710:31 0.00282024
16 *398:21 *735:17 0.00987764
17 *398:23 *646:57 0.000896419
18 *398:23 *662:27 0.00877124
19 *398:23 *663:47 0
20 *398:23 *675:27 0.00799561
21 *398:23 *679:61 0.000150645
22 *398:23 *688:23 0.000199453
23 *353:21 *398:23 0.001357
24 *358:25 *398:21 0.000797452
25 *361:15 *398:21 0.000129122
26 *371:23 *398:13 0.00038846
*RES
1 *739:la_data_out_o[99] *398:13 34.3862 
2 *398:13 *398:21 40.5286 
3 *398:21 *398:23 341.839 
4 *398:23 *398:25 4.5 
5 *398:25 la_data_out[99] 781.304 
*END

*D_NET *399 0.140967
*CONN
*P la_data_out[9] O
*I *739:la_data_out_o[9] O *D ntt_wb_bridge
*CAP
1 la_data_out[9] 0.0368795
2 *739:la_data_out_o[9] 0.00542166
3 *399:29 0.0456791
4 *399:25 0.0142213
5 *399:25 *728:15 0.000266891
6 *126:25 *399:25 0.000136517
7 *126:29 *399:29 0
8 *129:23 *399:29 0.0237977
9 *305:13 *399:25 0.00011348
10 *306:13 *399:25 0.000129238
11 *307:13 *399:25 0.000130762
12 *309:13 *399:25 0.000121265
13 *310:27 *399:25 0.000635198
14 *313:13 *399:25 0.000119135
15 *316:19 *399:25 0.0003844
16 *317:15 *399:25 0.000461337
17 *330:13 *399:25 0.00021801
18 *331:17 *399:25 0.000106304
19 *333:15 *399:25 0.000228389
20 *337:15 *399:25 0.000171991
21 *338:17 *399:25 0.00105188
22 *339:17 *399:25 0.00177793
23 *339:29 *399:25 0.00236627
24 *341:29 *399:25 0.0013587
25 *343:31 *399:25 0.000147837
26 *346:37 *399:25 0.000106304
27 *348:39 *399:25 0.000159968
28 *350:31 *399:25 0.000173055
29 *355:17 *399:25 0.000995883
30 *366:25 *399:25 0.00340802
31 *388:25 *399:25 0.000198685
*RES
1 *739:la_data_out_o[9] *399:25 42.7217 
2 *399:25 *399:29 43.3459 
3 *399:29 la_data_out[9] 735.312 
*END

*D_NET *529 0.180745
*CONN
*P user_irq[0] O
*I *739:user_irq_o[0] O *D ntt_wb_bridge
*CAP
1 user_irq[0] 0.00229375
2 *739:user_irq_o[0] 0.000533192
3 *529:25 0.00229375
4 *529:23 0.0315588
5 *529:21 0.0315588
6 *529:19 0.0319524
7 *529:17 0.0319524
8 *529:15 0.00674024
9 *529:13 0.00727343
10 *529:19 *682:87 0.00804856
11 *529:19 *715:27 0.00552133
12 *100:31 user_irq[0] 0.000832575
13 *114:51 *529:19 0
14 *128:25 user_irq[0] 0
15 *279:17 *529:15 0.00041787
16 *293:13 *529:15 0
17 *299:15 *529:15 0.0193054
18 *371:23 *529:13 0.000168231
19 *380:13 *529:15 0.000294663
*RES
1 *739:user_irq_o[0] *529:13 13.1289 
2 *529:13 *529:15 183.714 
3 *529:15 *529:17 4.5 
4 *529:17 *529:19 711.696 
5 *529:19 *529:21 4.5 
6 *529:21 *529:23 594.839 
7 *529:23 *529:25 4.5 
8 *529:25 user_irq[0] 50.9107 
*END

*D_NET *530 0.17124
*CONN
*P user_irq[1] O
*I *739:user_irq_o[1] O *D ntt_wb_bridge
*CAP
1 user_irq[1] 0.00276675
2 *739:user_irq_o[1] 0.000652915
3 *530:25 0.00276675
4 *530:23 0.0344582
5 *530:21 0.0344582
6 *530:19 0.031832
7 *530:17 0.031832
8 *530:15 0.00595842
9 *530:13 0.00661134
10 *530:15 *728:15 0
11 *530:19 *670:15 0.0112783
12 *530:19 *682:97 0.00200811
13 *278:15 *530:15 6.35326e-05
14 *279:17 *530:15 0.000945028
15 *299:15 *530:15 0.00100607
16 *363:15 *530:15 1.96616e-05
17 *365:19 *530:15 2.79201e-05
18 *370:15 *530:15 0.000395826
19 *371:23 *530:13 0.000133565
20 *372:15 *530:15 0.00332625
21 *393:15 *530:15 0.000699551
22 *397:23 *530:13 0
*RES
1 *739:user_irq_o[1] *530:13 14.8971 
2 *530:13 *530:15 127.446 
3 *530:15 *530:17 4.5 
4 *530:17 *530:19 707.446 
5 *530:19 *530:21 4.5 
6 *530:21 *530:23 649.464 
7 *530:23 *530:25 4.5 
8 *530:25 user_irq[1] 56.9821 
*END

*D_NET *531 0.175733
*CONN
*P user_irq[2] O
*I *739:user_irq_o[2] O *D ntt_wb_bridge
*CAP
1 user_irq[2] 0.0353896
2 *739:user_irq_o[2] 0.00260655
3 *531:25 0.0353896
4 *531:23 0.0431175
5 *531:21 0.0443473
6 *531:17 0.00383642
7 *531:17 *693:11 0.000186258
8 *531:21 *703:11 0.000497296
9 *531:23 *655:107 0.000344169
10 *531:23 *721:109 0.000142743
11 *105:19 *531:21 0.00282448
12 *278:21 *531:17 0.000410047
13 *279:17 *531:17 0.00368614
14 *286:13 *531:17 0.000125681
15 *287:13 *531:17 0.000110202
16 *289:13 *531:17 0.000110202
17 *290:13 *531:17 0.000118833
18 *298:31 *531:17 9.53122e-05
19 *371:23 *531:17 0.00064641
20 *373:21 *531:21 0
21 *375:13 *531:17 0.000103344
22 *380:13 *531:17 0.00164472
*RES
1 *739:user_irq_o[2] *531:17 23.073 
2 *531:17 *531:21 38.7493 
3 *531:21 *531:23 128.902 
4 *531:23 *531:25 3.41 
5 *531:25 user_irq[2] 728.027 
*END

*D_NET *540 0.80021
*CONN
*P wb_clk_i I
*I *739:wb_clk_i I *D ntt_wb_bridge
*I *740:clk I *D ntt_engine_256
*CAP
1 wb_clk_i 0.003958
2 *739:wb_clk_i 4.17366e-05
3 *740:clk 0.00151209
4 *540:215 0.0238542
5 *540:193 0.0857283
6 *540:191 0.0842162
7 *540:189 0.0650863
8 *540:187 0.0656472
9 *540:181 0.00323
10 *540:159 0.00642961
11 *540:137 0.00611626
12 *540:135 0.00325028
13 *540:129 0.00274298
14 *540:115 0.00521695
15 *540:95 0.0050454
16 *540:85 0.00595377
17 *540:83 0.00558555
18 *540:77 0.0074503
19 *540:75 0.00798292
20 *540:67 0.00286224
21 *540:57 0.00300414
22 *540:51 0.00300708
23 *540:43 0.00313356
24 *540:25 0.00767038
25 *540:23 0.0055607
26 *540:21 0.00241788
27 *540:9 0.0621806
28 *540:7 0.0359503
29 *540:5 0.003958
30 *740:clk *658:135 0.000470581
31 *740:clk *663:11 0.00239052
32 *740:clk *685:21 0.000523138
33 *740:clk *714:147 0.000957991
34 *540:9 *541:9 0
35 *540:21 *548:13 0
36 *540:21 *578:13 0
37 *540:21 *641:9 0
38 *540:21 *642:9 0.000301245
39 *540:25 wbs_dat_o[31] 0.00722773
40 *540:43 wbs_dat_o[30] 0
41 *540:43 *559:9 0.00170569
42 *540:43 *560:9 0
43 *540:43 *562:11 0.00181051
44 *540:43 *563:11 0
45 *540:43 *567:5 0
46 *540:51 wbs_dat_o[29] 0.00204062
47 *540:51 *576:9 0
48 *540:57 *597:5 0.00177904
49 *540:57 *604:9 0.0010567
50 *540:57 *605:9 0
51 *540:67 wbs_dat_o[28] 0
52 *540:67 *605:9 0.00096664
53 *540:67 *606:9 0
54 *540:75 wbs_dat_o[27] 0
55 *540:75 *579:9 0.000205991
56 *540:75 *580:9 0
57 *540:77 wbs_dat_o[27] 0
58 *540:77 *595:5 0
59 *540:83 *542:7 0
60 *540:83 *608:7 0.000878224
61 *540:85 wbs_dat_o[25] 0
62 *540:95 wbs_dat_o[25] 0
63 *540:95 *613:7 0.000371248
64 *540:115 *618:7 0
65 *540:115 *620:13 0.0032443
66 *540:115 *622:7 0
67 *540:159 *737:42 0.00476302
68 *540:181 *656:25 0.000118508
69 *540:181 *675:19 0.000407654
70 *540:181 *676:21 0.00143224
71 *540:181 *691:23 0.000347402
72 *540:181 *709:15 0.000744709
73 *540:187 *734:39 0.000664228
74 *540:189 *717:35 0.00928566
75 *540:189 *736:27 0.012127
76 *540:193 *734:65 0.00183246
77 *540:215 *541:9 0
78 io_out[37] *540:9 0
79 *80:131 *540:95 0.00222614
80 *116:47 *540:21 0
81 *116:131 *540:181 0.000714626
82 *116:149 *540:193 0.0428849
83 *118:43 *540:215 0
84 *118:129 *540:129 0.00127234
85 *118:137 *540:129 0.0010304
86 *119:25 *540:189 0.174024
87 *120:23 *540:193 0.00161166
*RES
1 wb_clk_i *540:5 81.4196 
2 *540:5 *540:7 3.41 
3 *540:7 *540:9 99.0666 
4 *540:9 *540:21 49.3096 
5 *540:21 *540:23 3.41 
6 *540:23 *540:25 161.018 
7 *540:25 *540:43 37.432 
8 *540:43 *540:51 32.6055 
9 *540:51 *540:57 47.1324 
10 *540:57 *540:67 19.747 
11 *540:67 *540:75 39.6444 
12 *540:75 *540:77 123.375 
13 *540:77 *540:83 11.191 
14 *540:83 *540:85 85.7321 
15 *540:85 *540:95 48.5187 
16 *540:95 *540:115 37.4933 
17 *540:115 *540:129 47.006 
18 *540:129 *540:135 9.53347 
19 *540:135 *540:137 48.0893 
20 *540:137 *540:159 41.925 
21 *540:159 *540:181 49.1479 
22 *540:181 *540:187 8.77677 
23 *540:187 *540:189 2133.02 
24 *540:189 *540:191 3.41 
25 *540:191 *540:193 247.308 
26 *540:193 *740:clk 28.1845 
27 *540:9 *540:215 66.6726 
28 *540:215 *739:wb_clk_i 0.0767667 
*END

*D_NET *541 0.125276
*CONN
*P wb_rst_i I
*I *739:wb_rst_i I *D ntt_wb_bridge
*CAP
1 wb_rst_i 0.00438527
2 *739:wb_rst_i 3.97193e-05
3 *541:9 0.0572668
4 *541:7 0.057227
5 *541:5 0.00438527
6 io_out[37] *541:9 0.000248938
7 *118:43 *541:9 0.00172314
8 *130:41 *541:9 0
9 *540:9 *541:9 0
10 *540:215 *541:9 0
*RES
1 wb_rst_i *541:5 86.8839 
2 *541:5 *541:7 3.41 
3 *541:7 *541:9 164.827 
4 *541:9 *739:wb_rst_i 0.0767667 
*END

*D_NET *542 0.176908
*CONN
*P wbs_ack_o O
*I *739:wbs_ack_o O *D ntt_wb_bridge
*CAP
1 wbs_ack_o 0.0011605
2 *739:wbs_ack_o 4.17366e-05
3 *542:11 0.0248272
4 *542:9 0.0236667
5 *542:7 0.0567917
6 *542:5 0.0568335
7 wbs_ack_o *575:11 0.000393292
8 *542:7 *600:9 0
9 *542:7 *608:7 0
10 *542:11 *575:13 0.00355117
11 *542:11 *644:5 0
12 *122:25 *542:11 0
13 *123:27 *542:11 0.00964251
14 *540:83 *542:7 0
*RES
1 *739:wbs_ack_o *542:5 0.0767667 
2 *542:5 *542:7 162.377 
3 *542:7 *542:9 3.41 
4 *542:9 *542:11 510.125 
5 *542:11 wbs_ack_o 23.0143 
*END

*D_NET *543 0.124704
*CONN
*P wbs_adr_i[0] I
*I *739:wbs_adr_i[0] I *D ntt_wb_bridge
*CAP
1 wbs_adr_i[0] 0.00672221
2 *739:wbs_adr_i[0] 3.97193e-05
3 *543:9 0.0556297
4 *543:7 0.05559
5 *543:5 0.00672221
6 *543:9 *554:9 0
7 *543:9 *643:9 0
*RES
1 wbs_adr_i[0] *543:5 136.062 
2 *543:5 *543:7 3.41 
3 *543:7 *543:9 160.143 
4 *543:9 *739:wbs_adr_i[0] 0.0767667 
*END

*D_NET *544 0.110943
*CONN
*P wbs_adr_i[10] I
*I *739:wbs_adr_i[10] I *D ntt_wb_bridge
*CAP
1 wbs_adr_i[10] 0.00982548
2 *739:wbs_adr_i[10] 3.97193e-05
3 *544:9 0.0448648
4 *544:7 0.0448251
5 *544:5 0.00982548
6 *544:9 *545:9 0
7 *544:9 *574:9 0
8 io_oeb[36] *544:9 0
9 *125:25 *544:5 0.00156295
*RES
1 wbs_adr_i[10] *544:5 196.777 
2 *544:5 *544:7 3.41 
3 *544:7 *544:9 128.65 
4 *544:9 *739:wbs_adr_i[10] 0.0767667 
*END

*D_NET *545 0.125005
*CONN
*P wbs_adr_i[11] I
*I *739:wbs_adr_i[11] I *D ntt_wb_bridge
*CAP
1 wbs_adr_i[11] 0.0101469
2 *739:wbs_adr_i[11] 3.97193e-05
3 *545:9 0.030208
4 *545:7 0.0301682
5 *545:5 0.0101469
6 *545:9 *546:9 0
7 io_oeb[36] *545:9 0.0442951
8 *83:25 *545:5 0
9 *544:9 *545:9 0
*RES
1 wbs_adr_i[11] *545:5 202.848 
2 *545:5 *545:7 3.41 
3 *545:7 *545:9 125.911 
4 *545:9 *739:wbs_adr_i[11] 0.0767667 
*END

*D_NET *546 0.107507
*CONN
*P wbs_adr_i[12] I
*I *739:wbs_adr_i[12] I *D ntt_wb_bridge
*CAP
1 wbs_adr_i[12] 0.0104821
2 *739:wbs_adr_i[12] 4.17366e-05
3 *546:9 0.0428308
4 *546:7 0.042789
5 *546:5 0.0104821
6 *546:9 *547:9 0
7 *85:25 *546:5 0.000880878
8 *545:9 *546:9 0
*RES
1 wbs_adr_i[12] *546:5 208.92 
2 *546:5 *546:7 3.41 
3 *546:7 *546:9 123.101 
4 *546:9 *739:wbs_adr_i[12] 0.0767667 
*END

*D_NET *547 0.111152
*CONN
*P wbs_adr_i[13] I
*I *739:wbs_adr_i[13] I *D ntt_wb_bridge
*CAP
1 wbs_adr_i[13] 0.0107847
2 *739:wbs_adr_i[13] 3.97193e-05
3 *547:9 0.0418518
4 *547:7 0.0418121
5 *547:5 0.0107847
6 *547:9 *548:17 0
7 *84:27 *547:5 0
8 *84:29 *547:5 0
9 *86:33 *547:5 0
10 *87:57 *547:5 0.0058788
11 *121:31 *547:5 0
12 *546:9 *547:9 0
*RES
1 wbs_adr_i[13] *547:5 214.991 
2 *547:5 *547:7 3.41 
3 *547:7 *547:9 120.362 
4 *547:9 *739:wbs_adr_i[13] 0.0767667 
*END

*D_NET *548 0.10592
*CONN
*P wbs_adr_i[14] I
*I *739:wbs_adr_i[14] I *D ntt_wb_bridge
*CAP
1 wbs_adr_i[14] 0.000658068
2 *739:wbs_adr_i[14] 4.17366e-05
3 *548:17 0.0232717
4 *548:15 0.02323
5 *548:13 0.0101122
6 *548:11 0.0101122
7 *548:9 0.0179249
8 *548:7 0.018583
9 *548:17 *549:9 0
10 *116:47 *548:13 0.00198616
11 *540:21 *548:13 0
12 *547:9 *548:17 0
*RES
1 wbs_adr_i[14] *548:7 16.8296 
2 *548:7 *548:9 50.4216 
3 *548:9 *548:11 3.41 
4 *548:11 *548:13 207.768 
5 *548:13 *548:15 3.41 
6 *548:15 *548:17 67.1771 
7 *548:17 *739:wbs_adr_i[14] 0.0767667 
*END

*D_NET *549 0.101616
*CONN
*P wbs_adr_i[15] I
*I *739:wbs_adr_i[15] I *D ntt_wb_bridge
*CAP
1 wbs_adr_i[15] 0.0114747
2 *739:wbs_adr_i[15] 3.97193e-05
3 *549:9 0.0377269
4 *549:7 0.0376872
5 *549:5 0.0114747
6 *549:9 *550:9 0
7 *118:67 *549:9 0.00321311
8 *548:17 *549:9 0
*RES
1 wbs_adr_i[15] *549:5 227.134 
2 *549:5 *549:7 3.41 
3 *549:7 *549:9 114.813 
4 *549:9 *739:wbs_adr_i[15] 0.0767667 
*END

*D_NET *550 0.0983775
*CONN
*P wbs_adr_i[16] I
*I *739:wbs_adr_i[16] I *D ntt_wb_bridge
*CAP
1 wbs_adr_i[16] 0.0117799
2 *739:wbs_adr_i[16] 3.97193e-05
3 *550:9 0.0374089
4 *550:7 0.0373692
5 *550:5 0.0117799
6 *550:9 *551:9 0
7 *118:67 *550:9 0
8 *549:9 *550:9 0
*RES
1 wbs_adr_i[16] *550:5 233.205 
2 *550:5 *550:7 3.41 
3 *550:7 *550:9 112.003 
4 *550:9 *739:wbs_adr_i[16] 0.0767667 
*END

*D_NET *551 0.0995135
*CONN
*P wbs_adr_i[17] I
*I *739:wbs_adr_i[17] I *D ntt_wb_bridge
*CAP
1 wbs_adr_i[17] 0.0120842
2 *739:wbs_adr_i[17] 4.17366e-05
3 *551:9 0.0376725
4 *551:7 0.0376308
5 *551:5 0.0120842
6 *551:9 *552:9 0
7 *550:9 *551:9 0
*RES
1 wbs_adr_i[17] *551:5 239.277 
2 *551:5 *551:7 3.41 
3 *551:7 *551:9 109.264 
4 *551:9 *739:wbs_adr_i[17] 0.0767667 
*END

*D_NET *552 0.0984283
*CONN
*P wbs_adr_i[18] I
*I *739:wbs_adr_i[18] I *D ntt_wb_bridge
*CAP
1 wbs_adr_i[18] 0.0123868
2 *739:wbs_adr_i[18] 3.97193e-05
3 *552:9 0.0363485
4 *552:7 0.0363088
5 *552:5 0.0123868
6 *552:9 *553:9 0
7 *118:79 *552:9 0.000957654
8 *551:9 *552:9 0
*RES
1 wbs_adr_i[18] *552:5 245.348 
2 *552:5 *552:7 3.41 
3 *552:7 *552:9 106.453 
4 *552:9 *739:wbs_adr_i[18] 0.0767667 
*END

*D_NET *553 0.0948553
*CONN
*P wbs_adr_i[19] I
*I *739:wbs_adr_i[19] I *D ntt_wb_bridge
*CAP
1 wbs_adr_i[19] 0.012692
2 *739:wbs_adr_i[19] 3.97193e-05
3 *553:9 0.0347356
4 *553:7 0.0346959
5 *553:5 0.012692
6 *553:9 *555:9 0
7 *118:79 *553:9 0
8 *552:9 *553:9 0
*RES
1 wbs_adr_i[19] *553:5 251.42 
2 *553:5 *553:7 3.41 
3 *553:7 *553:9 103.715 
4 *553:9 *739:wbs_adr_i[19] 0.0767667 
*END

*D_NET *554 0.119656
*CONN
*P wbs_adr_i[1] I
*I *739:wbs_adr_i[1] I *D ntt_wb_bridge
*CAP
1 wbs_adr_i[1] 0.0070364
2 *739:wbs_adr_i[1] 3.97193e-05
3 *554:9 0.0527914
4 *554:7 0.0527517
5 *554:5 0.0070364
6 *554:9 *565:9 0
7 *80:65 *554:9 0
8 *543:9 *554:9 0
*RES
1 wbs_adr_i[1] *554:5 142.134 
2 *554:5 *554:7 3.41 
3 *554:7 *554:9 156.468 
4 *554:9 *739:wbs_adr_i[1] 0.0767667 
*END

*D_NET *555 0.0964139
*CONN
*P wbs_adr_i[20] I
*I *739:wbs_adr_i[20] I *D ntt_wb_bridge
*CAP
1 wbs_adr_i[20] 0.0129696
2 *739:wbs_adr_i[20] 4.17366e-05
3 *555:9 0.0306339
4 *555:7 0.0305922
5 *555:5 0.0129696
6 io_out[36] *555:9 0.00920683
7 *553:9 *555:9 0
*RES
1 wbs_adr_i[20] *555:5 256.884 
2 *555:5 *555:7 3.41 
3 *555:7 *555:9 100.904 
4 *555:9 *739:wbs_adr_i[20] 0.0767667 
*END

*D_NET *556 0.0949499
*CONN
*P wbs_adr_i[21] I
*I *739:wbs_adr_i[21] I *D ntt_wb_bridge
*CAP
1 wbs_adr_i[21] 0.0132795
2 *739:wbs_adr_i[21] 3.97193e-05
3 *556:9 0.0269483
4 *556:7 0.0269086
5 *556:5 0.0132795
6 *556:9 *557:9 0
7 io_out[36] *556:9 0.00967215
8 *80:73 *556:9 0.00344031
9 *116:71 *556:9 0.00138181
10 *118:79 *556:9 0
*RES
1 wbs_adr_i[21] *556:5 262.955 
2 *556:5 *556:7 3.41 
3 *556:7 *556:9 98.0937 
4 *556:9 *739:wbs_adr_i[21] 0.0767667 
*END

*D_NET *557 0.0951678
*CONN
*P wbs_adr_i[22] I
*I *739:wbs_adr_i[22] I *D ntt_wb_bridge
*CAP
1 wbs_adr_i[22] 0.013967
2 *739:wbs_adr_i[22] 4.17366e-05
3 *557:9 0.0327489
4 *557:7 0.0327072
5 *557:5 0.013967
6 *118:79 *557:9 0.00173602
7 *556:9 *557:9 0
*RES
1 wbs_adr_i[22] *557:5 269.027 
2 *557:5 *557:7 3.41 
3 *557:7 *557:9 95.3552 
4 *557:9 *739:wbs_adr_i[22] 0.0767667 
*END

*D_NET *558 0.090759
*CONN
*P wbs_adr_i[23] I
*I *739:wbs_adr_i[23] I *D ntt_wb_bridge
*CAP
1 wbs_adr_i[23] 0.0143094
2 *739:wbs_adr_i[23] 3.97193e-05
3 *558:9 0.0310701
4 *558:7 0.0310304
5 *558:5 0.0143094
6 *558:9 *559:9 0
*RES
1 wbs_adr_i[23] *558:5 275.705 
2 *558:5 *558:7 3.41 
3 *558:7 *558:9 92.5446 
4 *558:9 *739:wbs_adr_i[23] 0.0767667 
*END

*D_NET *559 0.0906195
*CONN
*P wbs_adr_i[24] I
*I *739:wbs_adr_i[24] I *D ntt_wb_bridge
*CAP
1 wbs_adr_i[24] 0.0146214
2 *739:wbs_adr_i[24] 3.97193e-05
3 *559:9 0.0298355
4 *559:7 0.0297958
5 *559:5 0.0146214
6 *559:9 *560:9 0
7 *540:43 *559:9 0.00170569
8 *558:9 *559:9 0
*RES
1 wbs_adr_i[24] *559:5 281.777 
2 *559:5 *559:7 3.41 
3 *559:7 *559:9 89.806 
4 *559:9 *739:wbs_adr_i[24] 0.0767667 
*END

*D_NET *560 0.0901574
*CONN
*P wbs_adr_i[25] I
*I *739:wbs_adr_i[25] I *D ntt_wb_bridge
*CAP
1 wbs_adr_i[25] 0.0149333
2 *739:wbs_adr_i[25] 4.17366e-05
3 *560:9 0.0301454
4 *560:7 0.0301036
5 *560:5 0.0149333
6 *560:9 *561:9 0
7 *540:43 *560:9 0
8 *559:9 *560:9 0
*RES
1 wbs_adr_i[25] *560:5 287.848 
2 *560:5 *560:7 3.41 
3 *560:7 *560:9 86.9954 
4 *560:9 *739:wbs_adr_i[25] 0.0767667 
*END

*D_NET *561 0.0888232
*CONN
*P wbs_adr_i[26] I
*I *739:wbs_adr_i[26] I *D ntt_wb_bridge
*CAP
1 wbs_adr_i[26] 0.0152453
2 *739:wbs_adr_i[26] 3.97193e-05
3 *561:9 0.0291663
4 *561:7 0.0291266
5 *561:5 0.0152453
6 *561:9 *562:11 0
7 *561:9 *562:13 0
8 *560:9 *561:9 0
*RES
1 wbs_adr_i[26] *561:5 293.92 
2 *561:5 *561:7 3.41 
3 *561:7 *561:9 84.2569 
4 *561:9 *739:wbs_adr_i[26] 0.0767667 
*END

*D_NET *562 0.0858514
*CONN
*P wbs_adr_i[27] I
*I *739:wbs_adr_i[27] I *D ntt_wb_bridge
*CAP
1 wbs_adr_i[27] 0.0151016
2 *739:wbs_adr_i[27] 3.97193e-05
3 *562:13 0.0233503
4 *562:11 0.0268791
5 *562:5 0.0186702
6 *562:11 *563:11 0
7 *562:13 *563:11 0
8 *562:13 *563:13 0
9 *540:43 *562:11 0.00181051
10 *561:9 *562:11 0
11 *561:9 *562:13 0
*RES
1 wbs_adr_i[27] *562:5 299.384 
2 *562:5 *562:11 15.1052 
3 *562:11 *562:13 69.9517 
4 *562:13 *739:wbs_adr_i[27] 0.0767667 
*END

*D_NET *563 0.0835586
*CONN
*P wbs_adr_i[28] I
*I *739:wbs_adr_i[28] I *D ntt_wb_bridge
*CAP
1 wbs_adr_i[28] 0.0154068
2 *739:wbs_adr_i[28] 3.97193e-05
3 *563:13 0.0228441
4 *563:11 0.0257914
5 *563:5 0.0183938
6 *563:13 *564:9 0
7 *118:87 *563:13 0.00108286
8 *540:43 *563:11 0
9 *562:11 *563:11 0
10 *562:13 *563:11 0
11 *562:13 *563:13 0
*RES
1 wbs_adr_i[28] *563:5 305.455 
2 *563:5 *563:11 12.3666 
3 *563:11 *563:13 69.9517 
4 *563:13 *739:wbs_adr_i[28] 0.0767667 
*END

*D_NET *564 0.082192
*CONN
*P wbs_adr_i[29] I
*I *739:wbs_adr_i[29] I *D ntt_wb_bridge
*CAP
1 wbs_adr_i[29] 0.0157417
2 *739:wbs_adr_i[29] 3.97193e-05
3 *564:9 0.0248141
4 *564:7 0.0247744
5 *564:5 0.0157417
6 *564:9 *566:9 0
7 *118:87 *564:9 0.00108028
8 *563:13 *564:9 0
*RES
1 wbs_adr_i[29] *564:5 312.134 
2 *564:5 *564:7 3.41 
3 *564:7 *564:9 75.8972 
4 *564:9 *739:wbs_adr_i[29] 0.0767667 
*END

*D_NET *565 0.118816
*CONN
*P wbs_adr_i[2] I
*I *739:wbs_adr_i[2] I *D ntt_wb_bridge
*CAP
1 wbs_adr_i[2] 0.00758706
2 *739:wbs_adr_i[2] 3.97193e-05
3 *565:9 0.0516126
4 *565:7 0.0515729
5 *565:5 0.00758706
6 *565:9 *568:9 0
7 *80:65 *565:9 0.000416538
8 *554:9 *565:9 0
*RES
1 wbs_adr_i[2] *565:5 148.205 
2 *565:5 *565:7 3.41 
3 *565:7 *565:9 152.792 
4 *565:9 *739:wbs_adr_i[2] 0.0767667 
*END

*D_NET *566 0.0807941
*CONN
*P wbs_adr_i[30] I
*I *739:wbs_adr_i[30] I *D ntt_wb_bridge
*CAP
1 wbs_adr_i[30] 0.0160632
2 *739:wbs_adr_i[30] 3.97193e-05
3 *566:9 0.0243339
4 *566:7 0.0242942
5 *566:5 0.0160632
6 *566:9 *567:9 0
7 *564:9 *566:9 0
*RES
1 wbs_adr_i[30] *566:5 318.205 
2 *566:5 *566:7 3.41 
3 *566:7 *566:9 73.0866 
4 *566:9 *739:wbs_adr_i[30] 0.0767667 
*END

*D_NET *567 0.0796963
*CONN
*P wbs_adr_i[31] I
*I *739:wbs_adr_i[31] I *D ntt_wb_bridge
*CAP
1 wbs_adr_i[31] 0.0163627
2 *739:wbs_adr_i[31] 3.97193e-05
3 *567:9 0.0234854
4 *567:7 0.0234457
5 *567:5 0.0163627
6 *567:9 *576:9 0
7 *540:43 *567:5 0
8 *566:9 *567:9 0
*RES
1 wbs_adr_i[31] *567:5 324.277 
2 *567:5 *567:7 3.41 
3 *567:7 *567:9 70.348 
4 *567:9 *739:wbs_adr_i[31] 0.0767667 
*END

*D_NET *568 0.117376
*CONN
*P wbs_adr_i[3] I
*I *739:wbs_adr_i[3] I *D ntt_wb_bridge
*CAP
1 wbs_adr_i[3] 0.00767119
2 *739:wbs_adr_i[3] 3.97193e-05
3 *568:9 0.0491234
4 *568:7 0.0490837
5 *568:5 0.00767119
6 *568:9 *569:9 0
7 *80:65 *568:9 0.00378626
8 *565:9 *568:9 0
*RES
1 wbs_adr_i[3] *568:5 154.277 
2 *568:5 *568:7 3.41 
3 *568:7 *568:9 149.045 
4 *568:9 *739:wbs_adr_i[3] 0.0767667 
*END

*D_NET *569 0.113834
*CONN
*P wbs_adr_i[4] I
*I *739:wbs_adr_i[4] I *D ntt_wb_bridge
*CAP
1 wbs_adr_i[4] 0.00799352
2 *739:wbs_adr_i[4] 3.97193e-05
3 *569:9 0.0489235
4 *569:7 0.0488838
5 *569:5 0.00799352
6 *569:9 *570:9 0
7 *80:65 *569:9 0
8 *568:9 *569:9 0
*RES
1 wbs_adr_i[4] *569:5 160.348 
2 *569:5 *569:7 3.41 
3 *569:7 *569:9 145.369 
4 *569:9 *739:wbs_adr_i[4] 0.0767667 
*END

*D_NET *570 0.112503
*CONN
*P wbs_adr_i[5] I
*I *739:wbs_adr_i[5] I *D ntt_wb_bridge
*CAP
1 wbs_adr_i[5] 0.00829897
2 *739:wbs_adr_i[5] 3.97193e-05
3 *570:9 0.0479526
4 *570:7 0.0479129
5 *570:5 0.00829897
6 *570:5 *602:13 0
7 *570:9 *571:9 0
8 *569:9 *570:9 0
*RES
1 wbs_adr_i[5] *570:5 166.42 
2 *570:5 *570:7 3.41 
3 *570:7 *570:9 142.559 
4 *570:9 *739:wbs_adr_i[5] 0.0767667 
*END

*D_NET *571 0.114475
*CONN
*P wbs_adr_i[6] I
*I *739:wbs_adr_i[6] I *D ntt_wb_bridge
*CAP
1 wbs_adr_i[6] 0.00860305
2 *739:wbs_adr_i[6] 4.17366e-05
3 *571:9 0.0486344
4 *571:7 0.0485926
5 *571:5 0.00860305
6 *571:9 *572:9 0
7 *570:9 *571:9 0
*RES
1 wbs_adr_i[6] *571:5 172.491 
2 *571:5 *571:7 3.41 
3 *571:7 *571:9 139.82 
4 *571:9 *739:wbs_adr_i[6] 0.0767667 
*END

*D_NET *572 0.113255
*CONN
*P wbs_adr_i[7] I
*I *739:wbs_adr_i[7] I *D ntt_wb_bridge
*CAP
1 wbs_adr_i[7] 0.00890135
2 *739:wbs_adr_i[7] 3.97193e-05
3 *572:9 0.0477259
4 *572:7 0.0476862
5 *572:5 0.00890135
6 *572:9 *573:9 0
7 *571:9 *572:9 0
*RES
1 wbs_adr_i[7] *572:5 178.562 
2 *572:5 *572:7 3.41 
3 *572:7 *572:9 137.01 
4 *572:9 *739:wbs_adr_i[7] 0.0767667 
*END

*D_NET *573 0.114317
*CONN
*P wbs_adr_i[8] I
*I *739:wbs_adr_i[8] I *D ntt_wb_bridge
*CAP
1 wbs_adr_i[8] 0.0092147
2 *739:wbs_adr_i[8] 3.97193e-05
3 *573:9 0.0453605
4 *573:7 0.0453208
5 *573:5 0.0092147
6 *573:9 *574:9 0
7 *127:19 *573:5 0.00516684
8 *572:9 *573:9 0
*RES
1 wbs_adr_i[8] *573:5 184.634 
2 *573:5 *573:7 3.41 
3 *573:7 *573:9 134.271 
4 *573:9 *739:wbs_adr_i[8] 0.0767667 
*END

*D_NET *574 0.110858
*CONN
*P wbs_adr_i[9] I
*I *739:wbs_adr_i[9] I *D ntt_wb_bridge
*CAP
1 wbs_adr_i[9] 0.00951472
2 *739:wbs_adr_i[9] 4.17366e-05
3 *574:9 0.0459141
4 *574:7 0.0458723
5 *574:5 0.00951472
6 *544:9 *574:9 0
7 *573:9 *574:9 0
*RES
1 wbs_adr_i[9] *574:5 190.705 
2 *574:5 *574:7 3.41 
3 *574:7 *574:9 131.461 
4 *574:9 *739:wbs_adr_i[9] 0.0767667 
*END

*D_NET *575 0.132907
*CONN
*P wbs_cyc_i I
*I *739:wbs_cyc_i I *D ntt_wb_bridge
*CAP
1 wbs_cyc_i 0.000868368
2 *739:wbs_cyc_i 4.17366e-05
3 *575:17 0.0571977
4 *575:15 0.057156
5 *575:13 0.0016728
6 *575:11 0.00254117
7 *575:13 *644:5 0.00245452
8 *575:17 *644:9 0
9 wbs_ack_o *575:11 0.000393292
10 *80:49 *575:17 0.00611513
11 *88:29 *575:13 0.000914777
12 *542:11 *575:13 0.00355117
*RES
1 wbs_cyc_i *575:11 21.6145 
2 *575:11 *575:13 79.6607 
3 *575:13 *575:15 3.41 
4 *575:15 *575:17 162.233 
5 *575:17 *739:wbs_cyc_i 0.0767667 
*END

*D_NET *576 0.139574
*CONN
*P wbs_dat_i[0] I
*I *739:wbs_dat_i[0] I *D ntt_wb_bridge
*CAP
1 wbs_dat_i[0] 0.0161881
2 *739:wbs_dat_i[0] 3.97193e-05
3 *576:9 0.0531129
4 *576:7 0.0530732
5 *576:5 0.0161881
6 *576:9 *587:9 0
7 *80:83 *576:9 0.00097195
8 *540:51 *576:9 0
9 *567:9 *576:9 0
*RES
1 wbs_dat_i[0] *576:5 330.348 
2 *576:5 *576:7 3.41 
3 *576:7 *576:9 159.278 
4 *576:9 *739:wbs_dat_i[0] 0.0767667 
*END

*D_NET *577 0.141008
*CONN
*P wbs_dat_i[10] I
*I *739:wbs_dat_i[10] I *D ntt_wb_bridge
*CAP
1 wbs_dat_i[10] 0.0193794
2 *739:wbs_dat_i[10] 3.97193e-05
3 *577:9 0.0444223
4 *577:7 0.0443826
5 *577:5 0.0193794
6 *577:9 *578:17 0
7 *577:9 *607:9 0
8 *116:79 *577:9 0.000598704
9 *124:27 *577:5 0.0128063
*RES
1 wbs_dat_i[10] *577:5 391.062 
2 *577:5 *577:7 3.41 
3 *577:7 *577:9 127.785 
4 *577:9 *739:wbs_dat_i[10] 0.0767667 
*END

*D_NET *578 0.127468
*CONN
*P wbs_dat_i[11] I
*I *739:wbs_dat_i[11] I *D ntt_wb_bridge
*CAP
1 wbs_dat_i[11] 0.000979668
2 *739:wbs_dat_i[11] 4.17366e-05
3 *578:17 0.0229327
4 *578:15 0.022891
5 *578:13 0.0181459
6 *578:11 0.0181459
7 *578:9 0.0197254
8 *578:7 0.020705
9 *578:17 *579:9 0
10 *116:39 *578:13 0
11 *118:97 *578:13 0.00390061
12 *540:21 *578:13 0
13 *577:9 *578:17 0
*RES
1 wbs_dat_i[11] *578:7 23.5082 
2 *578:7 *578:9 58.8534 
3 *578:9 *578:11 3.41 
4 *578:11 *578:13 377.161 
5 *578:13 *578:15 3.41 
6 *578:15 *578:17 66.1682 
7 *578:17 *739:wbs_dat_i[11] 0.0767667 
*END

*D_NET *579 0.123456
*CONN
*P wbs_dat_i[12] I
*I *739:wbs_dat_i[12] I *D ntt_wb_bridge
*CAP
1 wbs_dat_i[12] 0.0200253
2 *739:wbs_dat_i[12] 3.97193e-05
3 *579:9 0.0415995
4 *579:7 0.0415598
5 *579:5 0.0200253
6 *579:9 *580:9 0
7 *80:105 *579:9 0
8 *540:75 *579:9 0.000205991
9 *578:17 *579:9 0
*RES
1 wbs_dat_i[12] *579:5 403.205 
2 *579:5 *579:7 3.41 
3 *579:7 *579:9 122.236 
4 *579:9 *739:wbs_dat_i[12] 0.0767667 
*END

*D_NET *580 0.123841
*CONN
*P wbs_dat_i[13] I
*I *739:wbs_dat_i[13] I *D ntt_wb_bridge
*CAP
1 wbs_dat_i[13] 0.0203876
2 *739:wbs_dat_i[13] 3.97193e-05
3 *580:9 0.0391022
4 *580:7 0.0390625
5 *580:5 0.0203876
6 *580:9 *581:9 0
7 *80:105 *580:9 0.00287189
8 *84:29 *580:5 0
9 *93:23 *580:5 0.00198957
10 *120:17 *580:5 0
11 *540:75 *580:9 0
12 *579:9 *580:9 0
*RES
1 wbs_dat_i[13] *580:5 409.277 
2 *580:5 *580:7 3.41 
3 *580:7 *580:9 119.425 
4 *580:9 *739:wbs_dat_i[13] 0.0767667 
*END

*D_NET *581 0.131033
*CONN
*P wbs_dat_i[14] I
*I *739:wbs_dat_i[14] I *D ntt_wb_bridge
*CAP
1 wbs_dat_i[14] 0.0148129
2 *739:wbs_dat_i[14] 4.17366e-05
3 *581:9 0.0401428
4 *581:7 0.0401011
5 *581:5 0.0148129
6 *581:9 *582:9 0
7 *80:113 *581:9 0
8 *81:21 *581:5 0
9 *81:23 *581:5 0.0171422
10 *94:85 *581:5 0.00397915
11 *119:25 *581:5 0
12 *580:9 *581:9 0
*RES
1 wbs_dat_i[14] *581:5 415.348 
2 *581:5 *581:7 3.41 
3 *581:7 *581:9 116.615 
4 *581:9 *739:wbs_dat_i[14] 0.0767667 
*END

*D_NET *582 0.121048
*CONN
*P wbs_dat_i[15] I
*I *739:wbs_dat_i[15] I *D ntt_wb_bridge
*CAP
1 wbs_dat_i[15] 0.0210458
2 *739:wbs_dat_i[15] 3.97193e-05
3 *582:9 0.038679
4 *582:7 0.0386393
5 *582:5 0.0210458
6 *582:9 *583:9 0
7 *80:113 *582:9 0.00159824
8 *581:9 *582:9 0
*RES
1 wbs_dat_i[15] *582:5 421.42 
2 *582:5 *582:7 3.41 
3 *582:7 *582:9 113.876 
4 *582:9 *739:wbs_dat_i[15] 0.0767667 
*END

*D_NET *583 0.11675
*CONN
*P wbs_dat_i[16] I
*I *739:wbs_dat_i[16] I *D ntt_wb_bridge
*CAP
1 wbs_dat_i[16] 0.0213591
2 *739:wbs_dat_i[16] 3.97193e-05
3 *583:9 0.036606
4 *583:7 0.0365663
5 *583:5 0.0213591
6 *583:9 *584:9 0
7 *118:103 *583:9 0.000819429
8 *582:9 *583:9 0
*RES
1 wbs_dat_i[16] *583:5 427.491 
2 *583:5 *583:7 3.41 
3 *583:7 *583:9 111.066 
4 *583:9 *739:wbs_dat_i[16] 0.0767667 
*END

*D_NET *584 0.158737
*CONN
*P wbs_dat_i[17] I
*I *739:wbs_dat_i[17] I *D ntt_wb_bridge
*CAP
1 wbs_dat_i[17] 0.0216681
2 *739:wbs_dat_i[17] 4.17366e-05
3 *584:9 0.0244037
4 *584:7 0.024362
5 *584:5 0.0216681
6 *584:9 *585:9 0
7 io_out[35] *584:9 0.0665929
8 *118:103 *584:9 0
9 *583:9 *584:9 0
*RES
1 wbs_dat_i[17] *584:5 433.562 
2 *584:5 *584:7 3.41 
3 *584:7 *584:9 108.327 
4 *584:9 *739:wbs_dat_i[17] 0.0767667 
*END

*D_NET *585 0.116505
*CONN
*P wbs_dat_i[18] I
*I *739:wbs_dat_i[18] I *D ntt_wb_bridge
*CAP
1 wbs_dat_i[18] 0.0219879
2 *739:wbs_dat_i[18] 3.97193e-05
3 *585:9 0.0362647
4 *585:7 0.036225
5 *585:5 0.0219879
6 *585:9 *586:9 0
7 io_out[35] *585:9 0
8 *584:9 *585:9 0
*RES
1 wbs_dat_i[18] *585:5 439.634 
2 *585:5 *585:7 3.41 
3 *585:7 *585:9 105.517 
4 *585:9 *739:wbs_dat_i[18] 0.0767667 
*END

*D_NET *586 0.124106
*CONN
*P wbs_dat_i[19] I
*I *739:wbs_dat_i[19] I *D ntt_wb_bridge
*CAP
1 wbs_dat_i[19] 0.0223017
2 *739:wbs_dat_i[19] 3.97193e-05
3 *586:9 0.0342437
4 *586:7 0.034204
5 *586:5 0.0223017
6 *586:9 *588:9 0
7 *96:27 *586:5 0.0110149
8 *585:9 *586:9 0
*RES
1 wbs_dat_i[19] *586:5 445.705 
2 *586:5 *586:7 3.41 
3 *586:7 *586:9 102.778 
4 *586:9 *739:wbs_dat_i[19] 0.0767667 
*END

*D_NET *587 0.141592
*CONN
*P wbs_dat_i[1] I
*I *739:wbs_dat_i[1] I *D ntt_wb_bridge
*CAP
1 wbs_dat_i[1] 0.0170365
2 *739:wbs_dat_i[1] 4.17366e-05
3 *587:9 0.0537596
4 *587:7 0.0537179
5 *587:5 0.0170365
6 *587:9 *598:9 0
7 *80:83 *587:9 0
8 *576:9 *587:9 0
*RES
1 wbs_dat_i[1] *587:5 336.42 
2 *587:5 *587:7 3.41 
3 *587:7 *587:9 155.531 
4 *587:9 *739:wbs_dat_i[1] 0.0767667 
*END

*D_NET *588 0.114193
*CONN
*P wbs_dat_i[20] I
*I *739:wbs_dat_i[20] I *D ntt_wb_bridge
*CAP
1 wbs_dat_i[20] 0.0226085
2 *739:wbs_dat_i[20] 4.17366e-05
3 *588:9 0.0344879
4 *588:7 0.0344462
5 *588:5 0.0226085
6 *588:9 *589:9 0
7 *586:9 *588:9 0
*RES
1 wbs_dat_i[20] *588:5 451.777 
2 *588:5 *588:7 3.41 
3 *588:7 *588:9 99.9674 
4 *588:9 *739:wbs_dat_i[20] 0.0767667 
*END

*D_NET *589 0.113064
*CONN
*P wbs_dat_i[21] I
*I *739:wbs_dat_i[21] I *D ntt_wb_bridge
*CAP
1 wbs_dat_i[21] 0.0229192
2 *739:wbs_dat_i[21] 3.97193e-05
3 *589:9 0.0336127
4 *589:7 0.033573
5 *589:5 0.0229192
6 *589:9 *590:9 0
7 *588:9 *589:9 0
*RES
1 wbs_dat_i[21] *589:5 457.848 
2 *589:5 *589:7 3.41 
3 *589:7 *589:9 97.2289 
4 *589:9 *739:wbs_dat_i[21] 0.0767667 
*END

*D_NET *590 0.109641
*CONN
*P wbs_dat_i[22] I
*I *739:wbs_dat_i[22] I *D ntt_wb_bridge
*CAP
1 wbs_dat_i[22] 0.0232334
2 *739:wbs_dat_i[22] 3.97193e-05
3 *590:9 0.0315872
4 *590:7 0.0315475
5 *590:5 0.0232334
6 *590:9 *591:9 0
7 *589:9 *590:9 0
*RES
1 wbs_dat_i[22] *590:5 463.92 
2 *590:5 *590:7 3.41 
3 *590:7 *590:9 94.4183 
4 *590:9 *739:wbs_dat_i[22] 0.0767667 
*END

*D_NET *591 0.108348
*CONN
*P wbs_dat_i[23] I
*I *739:wbs_dat_i[23] I *D ntt_wb_bridge
*CAP
1 wbs_dat_i[23] 0.0235467
2 *739:wbs_dat_i[23] 3.97193e-05
3 *591:9 0.0306272
4 *591:7 0.0305875
5 *591:5 0.0235467
6 *591:9 *592:9 0
7 *116:89 *591:5 0
8 *590:9 *591:9 0
*RES
1 wbs_dat_i[23] *591:5 469.991 
2 *591:5 *591:7 3.41 
3 *591:7 *591:9 91.6077 
4 *591:9 *739:wbs_dat_i[23] 0.0767667 
*END

*D_NET *592 0.107201
*CONN
*P wbs_dat_i[24] I
*I *739:wbs_dat_i[24] I *D ntt_wb_bridge
*CAP
1 wbs_dat_i[24] 0.0238665
2 *739:wbs_dat_i[24] 3.97193e-05
3 *592:9 0.0293217
4 *592:7 0.029282
5 *592:5 0.0238665
6 *592:9 *593:9 0
7 *118:111 *592:9 0.00082428
8 *591:9 *592:9 0
*RES
1 wbs_dat_i[24] *592:5 476.062 
2 *592:5 *592:7 3.41 
3 *592:7 *592:9 88.8692 
4 *592:9 *739:wbs_dat_i[24] 0.0767667 
*END

*D_NET *593 0.105744
*CONN
*P wbs_dat_i[25] I
*I *739:wbs_dat_i[25] I *D ntt_wb_bridge
*CAP
1 wbs_dat_i[25] 0.0241807
2 *739:wbs_dat_i[25] 3.97193e-05
3 *593:9 0.0286914
4 *593:7 0.0286517
5 *593:5 0.0241807
6 *593:9 *594:9 0
7 *118:111 *593:9 0
8 *592:9 *593:9 0
*RES
1 wbs_dat_i[25] *593:5 482.134 
2 *593:5 *593:7 3.41 
3 *593:7 *593:9 86.0586 
4 *593:9 *739:wbs_dat_i[25] 0.0767667 
*END

*D_NET *594 0.104448
*CONN
*P wbs_dat_i[26] I
*I *739:wbs_dat_i[26] I *D ntt_wb_bridge
*CAP
1 wbs_dat_i[26] 0.024494
2 *739:wbs_dat_i[26] 3.97193e-05
3 *594:9 0.0276676
4 *594:7 0.0276279
5 *594:5 0.024494
6 *594:9 *595:9 0
7 *341:53 *594:9 0.000124969
8 *593:9 *594:9 0
*RES
1 wbs_dat_i[26] *594:5 488.205 
2 *594:5 *594:7 3.41 
3 *594:7 *594:9 83.32 
4 *594:9 *739:wbs_dat_i[26] 0.0767667 
*END

*D_NET *595 0.104939
*CONN
*P wbs_dat_i[27] I
*I *739:wbs_dat_i[27] I *D ntt_wb_bridge
*CAP
1 wbs_dat_i[27] 0.0248065
2 *739:wbs_dat_i[27] 4.17366e-05
3 *595:9 0.0276005
4 *595:7 0.0275588
5 *595:5 0.0248065
6 *595:9 *596:9 0
7 *283:23 *595:9 0
8 *341:53 *595:9 0.000124969
9 *342:45 *595:9 0
10 *540:77 *595:5 0
11 *594:9 *595:9 0
*RES
1 wbs_dat_i[27] *595:5 494.277 
2 *595:5 *595:7 3.41 
3 *595:7 *595:9 80.5094 
4 *595:9 *739:wbs_dat_i[27] 0.0767667 
*END

*D_NET *596 0.103663
*CONN
*P wbs_dat_i[28] I
*I *739:wbs_dat_i[28] I *D ntt_wb_bridge
*CAP
1 wbs_dat_i[28] 0.0251851
2 *739:wbs_dat_i[28] 3.97193e-05
3 *596:9 0.0265922
4 *596:7 0.0265525
5 *596:5 0.0251851
6 *596:9 *597:9 0
7 *80:115 *596:5 0
8 *283:23 *596:9 3.11711e-05
9 *342:45 *596:9 7.70614e-05
10 *595:9 *596:9 0
*RES
1 wbs_dat_i[28] *596:5 500.348 
2 *596:5 *596:7 3.41 
3 *596:7 *596:9 77.7709 
4 *596:9 *739:wbs_dat_i[28] 0.0767667 
*END

*D_NET *597 0.102545
*CONN
*P wbs_dat_i[29] I
*I *739:wbs_dat_i[29] I *D ntt_wb_bridge
*CAP
1 wbs_dat_i[29] 0.025574
2 *739:wbs_dat_i[29] 3.97193e-05
3 *597:9 0.0248092
4 *597:7 0.0247695
5 *597:5 0.025574
6 *597:9 *599:9 0
7 *540:57 *597:5 0.00177904
8 *596:9 *597:9 0
*RES
1 wbs_dat_i[29] *597:5 506.42 
2 *597:5 *597:7 3.41 
3 *597:7 *597:9 74.9603 
4 *597:9 *739:wbs_dat_i[29] 0.0767667 
*END

*D_NET *598 0.138589
*CONN
*P wbs_dat_i[2] I
*I *739:wbs_dat_i[2] I *D ntt_wb_bridge
*CAP
1 wbs_dat_i[2] 0.0168323
2 *739:wbs_dat_i[2] 3.97193e-05
3 *598:9 0.0524622
4 *598:7 0.0524225
5 *598:5 0.0168323
6 *598:9 *601:9 0
7 *587:9 *598:9 0
*RES
1 wbs_dat_i[2] *598:5 342.491 
2 *598:5 *598:7 3.41 
3 *598:7 *598:9 151.855 
4 *598:9 *739:wbs_dat_i[2] 0.0767667 
*END

*D_NET *599 0.101221
*CONN
*P wbs_dat_i[30] I
*I *739:wbs_dat_i[30] I *D ntt_wb_bridge
*CAP
1 wbs_dat_i[30] 0.0255581
2 *739:wbs_dat_i[30] 4.17366e-05
3 *599:9 0.0247606
4 *599:7 0.0247188
5 *599:5 0.0255581
6 *599:9 *600:9 0
7 *116:59 *599:5 0.000584137
8 *597:9 *599:9 0
*RES
1 wbs_dat_i[30] *599:5 512.491 
2 *599:5 *599:7 3.41 
3 *599:7 *599:9 72.2218 
4 *599:9 *739:wbs_dat_i[30] 0.0767667 
*END

*D_NET *600 0.104014
*CONN
*P wbs_dat_i[31] I
*I *739:wbs_dat_i[31] I *D ntt_wb_bridge
*CAP
1 wbs_dat_i[31] 0.0243946
2 *739:wbs_dat_i[31] 3.97193e-05
3 *600:9 0.023863
4 *600:7 0.0238232
5 *600:5 0.0243946
6 *116:51 *600:5 0.00350234
7 *118:105 *600:5 0.00399698
8 *542:7 *600:9 0
9 *599:9 *600:9 0
*RES
1 wbs_dat_i[31] *600:5 518.562 
2 *600:5 *600:7 3.41 
3 *600:7 *600:9 69.4112 
4 *600:9 *739:wbs_dat_i[31] 0.0767667 
*END

*D_NET *601 0.13747
*CONN
*P wbs_dat_i[3] I
*I *739:wbs_dat_i[3] I *D ntt_wb_bridge
*CAP
1 wbs_dat_i[3] 0.0171528
2 *739:wbs_dat_i[3] 4.17366e-05
3 *601:9 0.0509065
4 *601:7 0.0508647
5 *601:5 0.0171528
6 *601:9 *602:17 0
7 *118:95 *601:9 0.00135091
8 *598:9 *601:9 0
*RES
1 wbs_dat_i[3] *601:5 348.562 
2 *601:5 *601:7 3.41 
3 *601:7 *601:9 148.108 
4 *601:9 *739:wbs_dat_i[3] 0.0767667 
*END

*D_NET *602 0.134835
*CONN
*P wbs_dat_i[4] I
*I *739:wbs_dat_i[4] I *D ntt_wb_bridge
*CAP
1 wbs_dat_i[4] 0.00129854
2 *739:wbs_dat_i[4] 3.97193e-05
3 *602:17 0.049315
4 *602:15 0.0492753
5 *602:13 0.0168038
6 *602:11 0.0181024
7 *602:13 wbs_dat_o[4] 0
8 *602:17 *603:9 0
9 *570:5 *602:13 0
10 *601:9 *602:17 0
*RES
1 wbs_dat_i[4] *602:11 22.4072 
2 *602:11 *602:13 340.732 
3 *602:13 *602:15 3.41 
4 *602:15 *602:17 142.919 
5 *602:17 *739:wbs_dat_i[4] 0.0767667 
*END

*D_NET *603 0.130266
*CONN
*P wbs_dat_i[5] I
*I *739:wbs_dat_i[5] I *D ntt_wb_bridge
*CAP
1 wbs_dat_i[5] 0.0177897
2 *739:wbs_dat_i[5] 3.97193e-05
3 *603:9 0.0473435
4 *603:7 0.0473037
5 *603:5 0.0177897
6 *603:9 *604:9 0
7 *602:17 *603:9 0
*RES
1 wbs_dat_i[5] *603:5 360.705 
2 *603:5 *603:7 3.41 
3 *603:7 *603:9 141.622 
4 *603:9 *739:wbs_dat_i[5] 0.0767667 
*END

*D_NET *604 0.133204
*CONN
*P wbs_dat_i[6] I
*I *739:wbs_dat_i[6] I *D ntt_wb_bridge
*CAP
1 wbs_dat_i[6] 0.0181031
2 *739:wbs_dat_i[6] 4.17366e-05
3 *604:9 0.0474142
4 *604:7 0.0473724
5 *604:5 0.0181031
6 *604:9 *605:9 0
7 *80:97 *604:9 0.00111321
8 *540:57 *604:9 0.0010567
9 *603:9 *604:9 0
*RES
1 wbs_dat_i[6] *604:5 366.777 
2 *604:5 *604:7 3.41 
3 *604:7 *604:9 138.883 
4 *604:9 *739:wbs_dat_i[6] 0.0767667 
*END

*D_NET *605 0.131524
*CONN
*P wbs_dat_i[7] I
*I *739:wbs_dat_i[7] I *D ntt_wb_bridge
*CAP
1 wbs_dat_i[7] 0.0184138
2 *739:wbs_dat_i[7] 3.97193e-05
3 *605:9 0.0468651
4 *605:7 0.0468254
5 *605:5 0.0184138
6 *605:9 *606:9 0
7 io_oeb[35] *605:9 0
8 *80:97 *605:9 0
9 *540:57 *605:9 0
10 *540:67 *605:9 0.00096664
11 *604:9 *605:9 0
*RES
1 wbs_dat_i[7] *605:5 372.848 
2 *605:5 *605:7 3.41 
3 *605:7 *605:9 136.073 
4 *605:9 *739:wbs_dat_i[7] 0.0767667 
*END

*D_NET *606 0.128023
*CONN
*P wbs_dat_i[8] I
*I *739:wbs_dat_i[8] I *D ntt_wb_bridge
*CAP
1 wbs_dat_i[8] 0.0187434
2 *739:wbs_dat_i[8] 3.97193e-05
3 *606:9 0.04212
4 *606:7 0.0420803
5 *606:5 0.0187434
6 *606:9 *607:9 0
7 io_oeb[35] *606:9 0.00521787
8 *80:97 *606:9 0.00107801
9 *540:67 *606:9 0
10 *605:9 *606:9 0
*RES
1 wbs_dat_i[8] *606:5 378.92 
2 *606:5 *606:7 3.41 
3 *606:7 *606:9 133.334 
4 *606:9 *739:wbs_dat_i[8] 0.0767667 
*END

*D_NET *607 0.128741
*CONN
*P wbs_dat_i[9] I
*I *739:wbs_dat_i[9] I *D ntt_wb_bridge
*CAP
1 wbs_dat_i[9] 0.0190524
2 *739:wbs_dat_i[9] 4.17366e-05
3 *607:9 0.0453179
4 *607:7 0.0452762
5 *607:5 0.0190524
6 *80:97 *607:9 0
7 *577:9 *607:9 0
8 *606:9 *607:9 0
*RES
1 wbs_dat_i[9] *607:5 384.991 
2 *607:5 *607:7 3.41 
3 *607:7 *607:9 130.524 
4 *607:9 *739:wbs_dat_i[9] 0.0767667 
*END

*D_NET *608 0.160711
*CONN
*P wbs_dat_o[0] O
*I *739:wbs_dat_o[0] O *D ntt_wb_bridge
*CAP
1 wbs_dat_o[0] 0.0259394
2 *739:wbs_dat_o[0] 3.97193e-05
3 *608:9 0.0259394
4 *608:7 0.0539372
5 *608:5 0.0539769
6 *608:7 *619:7 0
7 *540:83 *608:7 0.000878224
8 *542:7 *608:7 0
*RES
1 *739:wbs_dat_o[0] *608:5 0.0767667 
2 *608:5 *608:7 158.341 
3 *608:7 *608:9 3.41 
4 *608:9 wbs_dat_o[0] 530.705 
*END

*D_NET *609 0.147463
*CONN
*P wbs_dat_o[10] O
*I *739:wbs_dat_o[10] O *D ntt_wb_bridge
*CAP
1 wbs_dat_o[10] 0.0301242
2 *739:wbs_dat_o[10] 4.17366e-05
3 *609:9 0.0301242
4 *609:7 0.0435654
5 *609:5 0.0436071
6 *609:7 *610:7 0
7 *609:7 *639:7 0
8 *80:129 *609:7 0
9 *118:123 *609:7 0
*RES
1 *739:wbs_dat_o[10] *609:5 0.0767667 
2 *609:5 *609:7 126.848 
3 *609:7 *609:9 3.41 
4 *609:9 wbs_dat_o[10] 591.42 
*END

*D_NET *610 0.189156
*CONN
*P wbs_dat_o[11] O
*I *739:wbs_dat_o[11] O *D ntt_wb_bridge
*CAP
1 wbs_dat_o[11] 0.00241752
2 *739:wbs_dat_o[11] 3.97193e-05
3 *610:15 0.0103286
4 *610:13 0.00791109
5 *610:11 0.0275685
6 *610:9 0.0275685
7 *610:7 0.0224571
8 *610:5 0.0224968
9 *610:7 *611:7 0
10 *80:105 *610:11 0
11 *82:21 *610:15 0.0335687
12 *86:29 *610:15 0.000229699
13 *87:53 *610:15 0.0345703
14 *95:79 *610:15 0
15 *116:39 *610:11 0
16 *609:7 *610:7 0
*RES
1 *739:wbs_dat_o[11] *610:5 0.0767667 
2 *610:5 *610:7 65.0872 
3 *610:7 *610:9 3.41 
4 *610:9 *610:11 552.018 
5 *610:11 *610:13 3.41 
6 *610:13 *610:15 58.9975 
7 *610:15 wbs_dat_o[11] 49.0082 
*END

*D_NET *611 0.142254
*CONN
*P wbs_dat_o[12] O
*I *739:wbs_dat_o[12] O *D ntt_wb_bridge
*CAP
1 wbs_dat_o[12] 0.0307924
2 *739:wbs_dat_o[12] 3.97193e-05
3 *611:9 0.0307924
4 *611:7 0.0402947
5 *611:5 0.0403344
6 *611:7 *612:7 0
7 *610:7 *611:7 0
*RES
1 *739:wbs_dat_o[12] *611:5 0.0767667 
2 *611:5 *611:7 121.299 
3 *611:7 *611:9 3.41 
4 *611:9 wbs_dat_o[12] 603.562 
*END

*D_NET *612 0.15149
*CONN
*P wbs_dat_o[13] O
*I *739:wbs_dat_o[13] O *D ntt_wb_bridge
*CAP
1 wbs_dat_o[13] 0.0230948
2 *739:wbs_dat_o[13] 4.17366e-05
3 *612:9 0.0230948
4 *612:7 0.0405275
5 *612:5 0.0405693
6 *612:7 *613:7 0
7 *82:25 wbs_dat_o[13] 0.0240388
8 *120:17 wbs_dat_o[13] 0.000122672
9 *611:7 *612:7 0
*RES
1 *739:wbs_dat_o[13] *612:5 0.0767667 
2 *612:5 *612:7 118.489 
3 *612:7 *612:9 3.41 
4 *612:9 wbs_dat_o[13] 609.634 
*END

*D_NET *613 0.141447
*CONN
*P wbs_dat_o[14] O
*I *739:wbs_dat_o[14] O *D ntt_wb_bridge
*CAP
1 wbs_dat_o[14] 0.0310758
2 *739:wbs_dat_o[14] 3.97193e-05
3 *613:9 0.0310758
4 *613:7 0.0394223
5 *613:5 0.039462
6 *613:7 *614:7 0
7 *119:25 wbs_dat_o[14] 0
8 *540:95 *613:7 0.000371248
9 *612:7 *613:7 0
*RES
1 *739:wbs_dat_o[14] *613:5 0.0767667 
2 *613:5 *613:7 115.75 
3 *613:7 *613:9 3.41 
4 *613:9 wbs_dat_o[14] 615.705 
*END

*D_NET *614 0.13646
*CONN
*P wbs_dat_o[15] O
*I *739:wbs_dat_o[15] O *D ntt_wb_bridge
*CAP
1 wbs_dat_o[15] 0.0309113
2 *739:wbs_dat_o[15] 3.97193e-05
3 *614:9 0.0309113
4 *614:7 0.0372788
5 *614:5 0.0373186
6 *614:7 *615:7 0
7 *613:7 *614:7 0
*RES
1 *739:wbs_dat_o[15] *614:5 0.0767667 
2 *614:5 *614:7 112.939 
3 *614:7 *614:9 3.41 
4 *614:9 wbs_dat_o[15] 621.777 
*END

*D_NET *615 0.136369
*CONN
*P wbs_dat_o[16] O
*I *739:wbs_dat_o[16] O *D ntt_wb_bridge
*CAP
1 wbs_dat_o[16] 0.0312328
2 *739:wbs_dat_o[16] 3.97193e-05
3 *615:9 0.0312328
4 *615:7 0.0347363
5 *615:5 0.034776
6 *615:7 *616:7 0
7 *118:127 *615:7 0.00435153
8 *614:7 *615:7 0
*RES
1 *739:wbs_dat_o[16] *615:5 0.0767667 
2 *615:5 *615:7 110.129 
3 *615:7 *615:9 3.41 
4 *615:9 wbs_dat_o[16] 627.848 
*END

*D_NET *616 0.133994
*CONN
*P wbs_dat_o[17] O
*I *739:wbs_dat_o[17] O *D ntt_wb_bridge
*CAP
1 wbs_dat_o[17] 0.031556
2 *739:wbs_dat_o[17] 3.97193e-05
3 *616:9 0.031556
4 *616:7 0.0354013
5 *616:5 0.035441
6 *616:7 *617:7 0
7 *118:127 *616:7 0
8 *615:7 *616:7 0
*RES
1 *739:wbs_dat_o[17] *616:5 0.0767667 
2 *616:5 *616:7 107.39 
3 *616:7 *616:9 3.41 
4 *616:9 wbs_dat_o[17] 633.92 
*END

*D_NET *617 0.134048
*CONN
*P wbs_dat_o[18] O
*I *739:wbs_dat_o[18] O *D ntt_wb_bridge
*CAP
1 wbs_dat_o[18] 0.0318774
2 *739:wbs_dat_o[18] 3.97193e-05
3 *617:9 0.0318774
4 *617:7 0.033772
5 *617:5 0.0338117
6 *617:7 *618:7 0
7 *80:145 *617:7 0.0021326
8 *116:111 *617:7 0.000536961
9 *616:7 *617:7 0
*RES
1 *739:wbs_dat_o[18] *617:5 0.0767667 
2 *617:5 *617:7 104.58 
3 *617:7 *617:9 3.41 
4 *617:9 wbs_dat_o[18] 639.991 
*END

*D_NET *618 0.131936
*CONN
*P wbs_dat_o[19] O
*I *739:wbs_dat_o[19] O *D ntt_wb_bridge
*CAP
1 wbs_dat_o[19] 0.0321972
2 *739:wbs_dat_o[19] 3.97193e-05
3 *618:9 0.0321972
4 *618:7 0.0337313
5 *618:5 0.033771
6 *618:7 *620:7 0
7 *80:145 *618:7 0
8 *540:115 *618:7 0
9 *617:7 *618:7 0
*RES
1 *739:wbs_dat_o[19] *618:5 0.0767667 
2 *618:5 *618:7 101.841 
3 *618:7 *618:9 3.41 
4 *618:9 wbs_dat_o[19] 646.062 
*END

*D_NET *619 0.155191
*CONN
*P wbs_dat_o[1] O
*I *739:wbs_dat_o[1] O *D ntt_wb_bridge
*CAP
1 wbs_dat_o[1] 0.0262707
2 *739:wbs_dat_o[1] 3.97193e-05
3 *619:9 0.0262707
4 *619:7 0.051285
5 *619:5 0.0513247
6 *619:7 *630:7 0
7 *608:7 *619:7 0
*RES
1 *739:wbs_dat_o[1] *619:5 0.0767667 
2 *619:5 *619:7 154.594 
3 *619:7 *619:9 3.41 
4 *619:9 wbs_dat_o[1] 536.777 
*END

*D_NET *620 0.135455
*CONN
*P wbs_dat_o[20] O
*I *739:wbs_dat_o[20] O *D ntt_wb_bridge
*CAP
1 wbs_dat_o[20] 0.0325483
2 *739:wbs_dat_o[20] 4.17366e-05
3 *620:13 0.0369395
4 *620:7 0.0335154
5 *620:5 0.029166
6 *620:7 *621:7 0
7 *620:13 *621:7 0
8 *116:113 wbs_dat_o[20] 0
9 *540:115 *620:13 0.0032443
10 *618:7 *620:7 0
*RES
1 *739:wbs_dat_o[20] *620:5 0.0767667 
2 *620:5 *620:7 85.0857 
3 *620:7 *620:13 17.5554 
4 *620:13 wbs_dat_o[20] 652.741 
*END

*D_NET *621 0.133159
*CONN
*P wbs_dat_o[21] O
*I *739:wbs_dat_o[21] O *D ntt_wb_bridge
*CAP
1 wbs_dat_o[21] 0.0321627
2 *739:wbs_dat_o[21] 3.97193e-05
3 *621:9 0.0321627
4 *621:7 0.0329072
5 *621:5 0.0329469
6 *621:7 *622:7 0
7 *80:145 *621:7 0.000983497
8 *116:107 wbs_dat_o[21] 0.00195646
9 *620:7 *621:7 0
10 *620:13 *621:7 0
*RES
1 *739:wbs_dat_o[21] *621:5 0.0767667 
2 *621:5 *621:7 96.292 
3 *621:7 *621:9 3.41 
4 *621:9 wbs_dat_o[21] 658.205 
*END

*D_NET *622 0.128606
*CONN
*P wbs_dat_o[22] O
*I *739:wbs_dat_o[22] O *D ntt_wb_bridge
*CAP
1 wbs_dat_o[22] 0.0331766
2 *739:wbs_dat_o[22] 3.97193e-05
3 *622:9 0.0331766
4 *622:7 0.0310869
5 *622:5 0.0311267
6 *622:7 *623:7 0
7 *118:129 wbs_dat_o[22] 0
8 *540:115 *622:7 0
9 *621:7 *622:7 0
*RES
1 *739:wbs_dat_o[22] *622:5 0.0767667 
2 *622:5 *622:7 93.4814 
3 *622:7 *622:9 3.41 
4 *622:9 wbs_dat_o[22] 664.277 
*END

*D_NET *623 0.129369
*CONN
*P wbs_dat_o[23] O
*I *739:wbs_dat_o[23] O *D ntt_wb_bridge
*CAP
1 wbs_dat_o[23] 0.0335109
2 *739:wbs_dat_o[23] 4.17366e-05
3 *623:9 0.0335109
4 *623:7 0.0311319
5 *623:5 0.0311736
6 *623:7 *624:7 0
7 *116:89 wbs_dat_o[23] 0
8 *622:7 *623:7 0
*RES
1 *739:wbs_dat_o[23] *623:5 0.0767667 
2 *623:5 *623:7 90.7429 
3 *623:7 *623:9 3.41 
4 *623:9 wbs_dat_o[23] 670.348 
*END

*D_NET *624 0.128622
*CONN
*P wbs_dat_o[24] O
*I *739:wbs_dat_o[24] O *D ntt_wb_bridge
*CAP
1 wbs_dat_o[24] 0.0330848
2 *739:wbs_dat_o[24] 3.97193e-05
3 *624:9 0.0330848
4 *624:7 0.0301532
5 *624:5 0.0301929
6 *624:7 *625:7 0
7 *116:81 wbs_dat_o[24] 0.00206645
8 *623:7 *624:7 0
*RES
1 *739:wbs_dat_o[24] *624:5 0.0767667 
2 *624:5 *624:7 87.9323 
3 *624:7 *624:9 3.41 
4 *624:9 wbs_dat_o[24] 675.812 
*END

*D_NET *625 0.124781
*CONN
*P wbs_dat_o[25] O
*I *739:wbs_dat_o[25] O *D ntt_wb_bridge
*CAP
1 wbs_dat_o[25] 0.0341226
2 *739:wbs_dat_o[25] 3.97193e-05
3 *625:9 0.0341226
4 *625:7 0.028228
5 *625:5 0.0282677
6 *625:7 *626:7 0
7 *80:131 wbs_dat_o[25] 0
8 *540:85 wbs_dat_o[25] 0
9 *540:95 wbs_dat_o[25] 0
10 *624:7 *625:7 0
*RES
1 *739:wbs_dat_o[25] *625:5 0.0767667 
2 *625:5 *625:7 85.1938 
3 *625:7 *625:9 3.41 
4 *625:9 wbs_dat_o[25] 681.884 
*END

*D_NET *626 0.130973
*CONN
*P wbs_dat_o[26] O
*I *739:wbs_dat_o[26] O *D ntt_wb_bridge
*CAP
1 wbs_dat_o[26] 0.0321363
2 *739:wbs_dat_o[26] 4.17366e-05
3 *626:9 0.0321363
4 *626:7 0.0281712
5 *626:5 0.0282129
6 *116:73 wbs_dat_o[26] 0.0102748
7 *625:7 *626:7 0
*RES
1 *739:wbs_dat_o[26] *626:5 0.0767667 
2 *626:5 *626:7 82.3832 
3 *626:7 *626:9 3.41 
4 *626:9 wbs_dat_o[26] 687.955 
*END

*D_NET *627 0.122255
*CONN
*P wbs_dat_o[27] O
*I *739:wbs_dat_o[27] O *D ntt_wb_bridge
*CAP
1 wbs_dat_o[27] 0.0347842
2 *739:wbs_dat_o[27] 3.97193e-05
3 *627:9 0.0347842
4 *627:7 0.0263036
5 *627:5 0.0263433
6 *627:7 *628:7 0
7 *540:75 wbs_dat_o[27] 0
8 *540:77 wbs_dat_o[27] 0
*RES
1 *739:wbs_dat_o[27] *627:5 0.0767667 
2 *627:5 *627:7 79.5726 
3 *627:7 *627:9 3.41 
4 *627:9 wbs_dat_o[27] 694.634 
*END

*D_NET *628 0.122666
*CONN
*P wbs_dat_o[28] O
*I *739:wbs_dat_o[28] O *D ntt_wb_bridge
*CAP
1 wbs_dat_o[28] 0.0332951
2 *739:wbs_dat_o[28] 3.97193e-05
3 *628:9 0.0332951
4 *628:7 0.0253756
5 *628:5 0.0254153
6 *628:7 *629:7 0
7 *116:65 wbs_dat_o[28] 0.00524527
8 *540:67 wbs_dat_o[28] 0
9 *627:7 *628:7 0
*RES
1 *739:wbs_dat_o[28] *628:5 0.0767667 
2 *628:5 *628:7 76.834 
3 *628:7 *628:9 3.41 
4 *628:9 wbs_dat_o[28] 700.705 
*END

*D_NET *629 0.12256
*CONN
*P wbs_dat_o[29] O
*I *739:wbs_dat_o[29] O *D ntt_wb_bridge
*CAP
1 wbs_dat_o[29] 0.0349606
2 *739:wbs_dat_o[29] 4.17366e-05
3 *629:9 0.0349606
4 *629:7 0.0252575
5 *629:5 0.0252992
6 *629:7 *631:7 0
7 *118:113 wbs_dat_o[29] 0
8 *540:51 wbs_dat_o[29] 0.00204062
9 *628:7 *629:7 0
*RES
1 *739:wbs_dat_o[29] *629:5 0.0767667 
2 *629:5 *629:7 74.0234 
3 *629:7 *629:9 3.41 
4 *629:9 wbs_dat_o[29] 706.777 
*END

*D_NET *630 0.156734
*CONN
*P wbs_dat_o[2] O
*I *739:wbs_dat_o[2] O *D ntt_wb_bridge
*CAP
1 wbs_dat_o[2] 0.0266075
2 *739:wbs_dat_o[2] 4.17366e-05
3 *630:9 0.0266075
4 *630:7 0.0517179
5 *630:5 0.0517596
6 *630:7 *633:7 0
7 *619:7 *630:7 0
*RES
1 *739:wbs_dat_o[2] *630:5 0.0767667 
2 *630:5 *630:7 150.919 
3 *630:7 *630:9 3.41 
4 *630:9 wbs_dat_o[2] 542.848 
*END

*D_NET *631 0.120346
*CONN
*P wbs_dat_o[30] O
*I *739:wbs_dat_o[30] O *D ntt_wb_bridge
*CAP
1 wbs_dat_o[30] 0.0357381
2 *739:wbs_dat_o[30] 3.97193e-05
3 *631:9 0.0357381
4 *631:7 0.0243951
5 *631:5 0.0244348
6 *631:7 *632:7 0
7 *540:43 wbs_dat_o[30] 0
8 *629:7 *631:7 0
*RES
1 *739:wbs_dat_o[30] *631:5 0.0767667 
2 *631:5 *631:7 71.2849 
3 *631:7 *631:9 3.41 
4 *631:9 wbs_dat_o[30] 712.848 
*END

*D_NET *632 0.12187
*CONN
*P wbs_dat_o[31] O
*I *739:wbs_dat_o[31] O *D ntt_wb_bridge
*CAP
1 wbs_dat_o[31] 0.0335647
2 *739:wbs_dat_o[31] 4.17366e-05
3 *632:9 0.0335647
4 *632:7 0.0217316
5 *632:5 0.0217733
6 *388:29 *632:7 0.00396602
7 *540:25 wbs_dat_o[31] 0.00722773
8 *631:7 *632:7 0
*RES
1 *739:wbs_dat_o[31] *632:5 0.0767667 
2 *632:5 *632:7 68.4743 
3 *632:7 *632:9 3.41 
4 *632:9 wbs_dat_o[31] 718.92 
*END

*D_NET *633 0.17963
*CONN
*P wbs_dat_o[3] O
*I *739:wbs_dat_o[3] O *D ntt_wb_bridge
*CAP
1 wbs_dat_o[3] 0.0188804
2 *739:wbs_dat_o[3] 3.97193e-05
3 *633:9 0.0188804
4 *633:7 0.0504108
5 *633:5 0.0504505
6 *633:7 *634:7 0
7 io_out[23] wbs_dat_o[3] 0.0409686
8 *630:7 *633:7 0
*RES
1 *739:wbs_dat_o[3] *633:5 0.0767667 
2 *633:5 *633:7 147.171 
3 *633:7 *633:9 3.41 
4 *633:9 wbs_dat_o[3] 548.92 
*END

*D_NET *634 0.149583
*CONN
*P wbs_dat_o[4] O
*I *739:wbs_dat_o[4] O *D ntt_wb_bridge
*CAP
1 wbs_dat_o[4] 0.0272705
2 *739:wbs_dat_o[4] 3.97193e-05
3 *634:9 0.0272705
4 *634:7 0.0474812
5 *634:5 0.0475209
6 *634:7 *635:7 0
7 *602:13 wbs_dat_o[4] 0
8 *633:7 *634:7 0
*RES
1 *739:wbs_dat_o[4] *634:5 0.0767667 
2 *634:5 *634:7 143.496 
3 *634:7 *634:9 3.41 
4 *634:9 wbs_dat_o[4] 554.991 
*END

*D_NET *635 0.151678
*CONN
*P wbs_dat_o[5] O
*I *739:wbs_dat_o[5] O *D ntt_wb_bridge
*CAP
1 wbs_dat_o[5] 0.0275859
2 *739:wbs_dat_o[5] 4.17366e-05
3 *635:9 0.0275859
4 *635:7 0.0482114
5 *635:5 0.0482531
6 *635:7 *636:7 0
7 *634:7 *635:7 0
*RES
1 *739:wbs_dat_o[5] *635:5 0.0767667 
2 *635:5 *635:7 140.757 
3 *635:7 *635:9 3.41 
4 *635:9 wbs_dat_o[5] 561.062 
*END

*D_NET *636 0.150546
*CONN
*P wbs_dat_o[6] O
*I *739:wbs_dat_o[6] O *D ntt_wb_bridge
*CAP
1 wbs_dat_o[6] 0.0279065
2 *739:wbs_dat_o[6] 3.97193e-05
3 *636:9 0.0279065
4 *636:7 0.0473266
5 *636:5 0.0473663
6 *636:7 *637:7 0
7 *635:7 *636:7 0
*RES
1 *739:wbs_dat_o[6] *636:5 0.0767667 
2 *636:5 *636:7 137.947 
3 *636:7 *636:9 3.41 
4 *636:9 wbs_dat_o[6] 567.134 
*END

*D_NET *637 0.146453
*CONN
*P wbs_dat_o[7] O
*I *739:wbs_dat_o[7] O *D ntt_wb_bridge
*CAP
1 wbs_dat_o[7] 0.028228
2 *739:wbs_dat_o[7] 3.97193e-05
3 *637:9 0.028228
4 *637:7 0.0449587
5 *637:5 0.0449984
6 *637:7 *638:7 0
7 *80:129 *637:7 0
8 *636:7 *637:7 0
*RES
1 *739:wbs_dat_o[7] *637:5 0.0767667 
2 *637:5 *637:7 135.136 
3 *637:7 *637:9 3.41 
4 *637:9 wbs_dat_o[7] 573.205 
*END

*D_NET *638 0.148521
*CONN
*P wbs_dat_o[8] O
*I *739:wbs_dat_o[8] O *D ntt_wb_bridge
*CAP
1 wbs_dat_o[8] 0.0285524
2 *739:wbs_dat_o[8] 4.17366e-05
3 *638:9 0.0285524
4 *638:7 0.0453893
5 *638:5 0.0454311
6 *638:7 *639:7 0
7 *80:129 *638:7 0.000554067
8 *637:7 *638:7 0
*RES
1 *739:wbs_dat_o[8] *638:5 0.0767667 
2 *638:5 *638:7 132.397 
3 *638:7 *638:9 3.41 
4 *638:9 wbs_dat_o[8] 579.277 
*END

*D_NET *639 0.147689
*CONN
*P wbs_dat_o[9] O
*I *739:wbs_dat_o[9] O *D ntt_wb_bridge
*CAP
1 wbs_dat_o[9] 0.028873
2 *739:wbs_dat_o[9] 3.97193e-05
3 *639:9 0.028873
4 *639:7 0.0440698
5 *639:5 0.0441095
6 *80:129 *639:7 0.00172384
7 *609:7 *639:7 0
8 *638:7 *639:7 0
*RES
1 *739:wbs_dat_o[9] *639:5 0.0767667 
2 *639:5 *639:7 129.587 
3 *639:7 *639:9 3.41 
4 *639:9 wbs_dat_o[9] 585.348 
*END

*D_NET *640 0.120753
*CONN
*P wbs_sel_i[0] I
*I *739:wbs_sel_i[0] I *D ntt_wb_bridge
*CAP
1 wbs_sel_i[0] 0.00554601
2 *739:wbs_sel_i[0] 4.17366e-05
3 *640:9 0.0548306
4 *640:7 0.0547889
5 *640:5 0.00554601
6 *640:9 *641:9 0
7 *640:9 *645:9 0
*RES
1 wbs_sel_i[0] *640:5 111.777 
2 *640:5 *640:7 3.41 
3 *640:7 *640:9 157.405 
4 *640:9 *739:wbs_sel_i[0] 0.0767667 
*END

*D_NET *641 0.121235
*CONN
*P wbs_sel_i[1] I
*I *739:wbs_sel_i[1] I *D ntt_wb_bridge
*CAP
1 wbs_sel_i[1] 0.00585676
2 *739:wbs_sel_i[1] 3.97193e-05
3 *641:9 0.0535036
4 *641:7 0.0534639
5 *641:5 0.00585676
6 *641:9 *642:9 0
7 *132:23 *641:5 0.00251384
8 *540:21 *641:9 0
9 *640:9 *641:9 0
*RES
1 wbs_sel_i[1] *641:5 117.848 
2 *641:5 *641:7 3.41 
3 *641:7 *641:9 153.657 
4 *641:9 *739:wbs_sel_i[1] 0.0767667 
*END

*D_NET *642 0.113821
*CONN
*P wbs_sel_i[2] I
*I *739:wbs_sel_i[2] I *D ntt_wb_bridge
*CAP
1 wbs_sel_i[2] 0.00635397
2 *739:wbs_sel_i[2] 3.97193e-05
3 *642:9 0.0504059
4 *642:7 0.0503661
5 *642:5 0.00635397
6 *642:9 *643:9 0
7 *118:55 *642:9 0
8 *540:21 *642:9 0.000301245
9 *641:9 *642:9 0
*RES
1 wbs_sel_i[2] *642:5 123.92 
2 *642:5 *642:7 3.41 
3 *642:7 *642:9 149.982 
4 *642:9 *739:wbs_sel_i[2] 0.0767667 
*END

*D_NET *643 0.114688
*CONN
*P wbs_sel_i[3] I
*I *739:wbs_sel_i[3] I *D ntt_wb_bridge
*CAP
1 wbs_sel_i[3] 0.00647012
2 *739:wbs_sel_i[3] 4.17366e-05
3 *643:9 0.0507255
4 *643:7 0.0506837
5 *643:5 0.00647012
6 *118:55 *643:9 0.000296622
7 *543:9 *643:9 0
8 *642:9 *643:9 0
*RES
1 wbs_sel_i[3] *643:5 129.991 
2 *643:5 *643:7 3.41 
3 *643:7 *643:9 146.306 
4 *643:9 *739:wbs_sel_i[3] 0.0767667 
*END

*D_NET *644 0.125707
*CONN
*P wbs_stb_i I
*I *739:wbs_stb_i I *D ntt_wb_bridge
*CAP
1 wbs_stb_i 0.00386469
2 *739:wbs_stb_i 3.97193e-05
3 *644:9 0.0557871
4 *644:7 0.0557474
5 *644:5 0.00386469
6 *644:9 *645:9 0
7 *80:49 *644:9 0
8 *118:55 *644:9 0.00394906
9 *542:11 *644:5 0
10 *575:13 *644:5 0.00245452
11 *575:17 *644:9 0
*RES
1 wbs_stb_i *644:5 99.6339 
2 *644:5 *644:7 3.41 
3 *644:7 *644:9 162.017 
4 *644:9 *739:wbs_stb_i 0.0767667 
*END

*D_NET *645 0.119189
*CONN
*P wbs_we_i I
*I *739:wbs_we_i I *D ntt_wb_bridge
*CAP
1 wbs_we_i 0.00524167
2 *739:wbs_we_i 3.97193e-05
3 *645:9 0.054353
4 *645:7 0.0543133
5 *645:5 0.00524167
6 *118:55 *645:9 0
7 *640:9 *645:9 0
8 *644:9 *645:9 0
*RES
1 wbs_we_i *645:5 105.705 
2 *645:5 *645:7 3.41 
3 *645:7 *645:9 161.08 
4 *645:9 *739:wbs_we_i 0.0767667 
*END

*D_NET *646 0.721042
*CONN
*I *739:busy_i I *D ntt_wb_bridge
*I *740:busy O *D ntt_engine_256
*CAP
1 *739:busy_i 0.00161781
2 *740:busy 0.000580686
3 *646:65 0.00419582
4 *646:59 0.00542429
5 *646:57 0.00393065
6 *646:53 0.00213464
7 *646:47 0.0216967
8 *646:45 0.0206464
9 *646:43 0.0181826
10 *646:41 0.0193773
11 *646:35 0.0444071
12 *646:33 0.0438534
13 *646:19 0.00763907
14 *646:17 0.00724263
15 *646:11 0.044288
16 *646:9 0.0446241
17 *739:busy_i *734:25 0
18 *646:11 *679:11 0.0790333
19 *646:11 *685:13 0
20 *646:11 *714:155 0
21 *646:17 *740:slot_a[0] 0
22 *646:19 *648:23 0.0367477
23 *646:19 *658:135 0.0459238
24 *646:19 *663:11 0.00431891
25 *646:19 *671:15 0.00404278
26 *646:19 *732:15 0.00196964
27 *646:35 *658:123 0.023396
28 *646:35 *673:15 0
29 *646:35 *685:37 0
30 *646:47 *655:127 0
31 *646:47 *663:35 0.0375649
32 *646:47 *694:165 0
33 *646:47 *703:15 0.0208358
34 *646:47 *715:63 0.000331369
35 *646:47 *723:131 0
36 *646:57 *679:61 0.000131383
37 la_data_out[84] *646:59 0
38 *76:95 *646:33 0.00104419
39 *76:105 *646:19 0
40 *77:171 *646:35 0.1294
41 *77:185 *646:33 0.000282053
42 *78:143 *646:33 0.000347077
43 *115:137 *646:43 0.0444973
44 *115:149 *646:33 0.000169615
45 *364:23 *739:busy_i 7.56159e-05
46 *372:19 *739:busy_i 0.000193187
47 *398:23 *646:57 0.000896419
*RES
1 *740:busy *646:9 14.7493 
2 *646:9 *646:11 172.142 
3 *646:11 *646:17 11.8296 
4 *646:17 *646:19 431.375 
5 *646:19 *646:33 32.1607 
6 *646:33 *646:35 1585.98 
7 *646:35 *646:41 26.7857 
8 *646:41 *646:43 554.446 
9 *646:43 *646:45 4.5 
10 *646:45 *646:47 526.661 
11 *646:47 *646:53 29.1607 
12 *646:53 *646:57 32.5536 
13 *646:57 *646:59 51.125 
14 *646:59 *646:65 49.375 
15 *646:65 *739:busy_i 8.95765 
*END

*D_NET *647 0.326401
*CONN
*I *739:done_i I *D ntt_wb_bridge
*I *740:done O *D ntt_engine_256
*CAP
1 *739:done_i 0.00198955
2 *740:done 0.00115498
3 *647:23 0.00319269
4 *647:19 0.00298635
5 *647:17 0.00184054
6 *647:11 0.02011
7 *647:9 0.0212077
8 *739:done_i *689:35 0.000143267
9 *647:11 *649:11 0.032913
10 *647:11 *661:31 0.00265756
11 *647:11 *662:19 0.120733
12 *647:11 *675:19 0.0702933
13 *647:11 *710:31 0.000361726
14 *647:19 *649:11 0.00125338
15 *647:19 *661:31 0.0022453
16 *647:19 *664:23 0.00852671
17 *354:25 *647:17 8.85276e-05
18 *357:27 *647:23 0.00302293
19 *358:25 *647:11 0.0105988
20 *364:23 *739:done_i 0.0001416
21 *367:19 *647:23 0.00348784
22 *398:21 *647:11 0.0174525
*RES
1 *740:done *647:9 23.8564 
2 *647:9 *647:11 215.67 
3 *647:11 *647:17 9.0975 
4 *647:17 *647:19 80.625 
5 *647:19 *647:23 49.8571 
6 *647:23 *739:done_i 25.7057 
*END

*D_NET *648 0.740171
*CONN
*I *740:rst_n I *D ntt_engine_256
*I *739:engine_rst_n_o O *D ntt_wb_bridge
*CAP
1 *740:rst_n 0.000455531
2 *739:engine_rst_n_o 2.28625e-05
3 *648:23 0.00647275
4 *648:21 0.00672215
5 *648:11 0.0371123
6 *648:9 0.0364073
7 *648:7 0.035164
8 *648:5 0.0351869
9 *648:11 *659:111 0.0300122
10 *648:11 *705:11 0.00689321
11 *648:11 *732:11 0.232401
12 *648:21 *671:15 0.0014577
13 *648:21 *679:21 0.000343066
14 *648:21 *715:93 0
15 *648:23 *653:23 0.0279468
16 *648:23 *658:135 0.0003803
17 *648:23 *732:15 0.00792563
18 *76:105 *648:23 0.000230243
19 *77:41 *648:7 0
20 *78:143 *648:21 0
21 *104:23 *648:11 0.00352569
22 *113:17 *648:11 0.234764
23 *142:19 *648:11 0
24 *646:19 *648:23 0.0367477
*RES
1 *739:engine_rst_n_o *648:5 0.0767667 
2 *648:5 *648:7 105.661 
3 *648:7 *648:9 3.41 
4 *648:9 *648:11 2877.98 
5 *648:11 *648:21 15.1642 
6 *648:21 *648:23 351.696 
7 *648:23 *740:rst_n 12.7589 
*END

*D_NET *649 0.144967
*CONN
*I *739:mem_rvalid_i I *D ntt_wb_bridge
*I *740:mem_rvalid O *D ntt_engine_256
*CAP
1 *739:mem_rvalid_i 0.00152229
2 *740:mem_rvalid 0.00124186
3 *649:15 0.00337584
4 *649:13 0.00185354
5 *649:11 0.0157206
6 *649:9 0.0169624
7 *739:mem_rvalid_i *734:25 0
8 *649:9 *675:25 2.69575e-05
9 *649:11 *661:41 9.50843e-05
10 *649:11 *662:27 0.000588923
11 *649:11 *675:19 0.000121508
12 *649:11 *675:27 0.00346029
13 *649:11 *676:23 0.0152394
14 *649:11 *687:13 0.000995082
15 *649:15 *739:mem_rdata_i[10] 0.000612518
16 *649:15 *676:35 0.00444753
17 *649:15 *735:11 0.000145146
18 *281:19 *649:15 0
19 *282:19 *649:15 0
20 *284:17 *649:15 0.00174624
21 *352:21 *649:11 0.0217414
22 *353:21 *649:11 0.00078855
23 *358:25 *649:11 0.0182336
24 *367:19 *649:15 0
25 *373:17 *649:11 0.00188157
26 *647:11 *649:11 0.032913
27 *647:19 *649:11 0.00125338
*RES
1 *740:mem_rvalid *649:9 25.0707 
2 *649:9 *649:11 120.038 
3 *649:11 *649:13 3.41 
4 *649:13 *649:15 62.6607 
5 *649:15 *739:mem_rvalid_i 6.66867 
*END

*D_NET *650 0.584796
*CONN
*I *740:mac_init I *D ntt_engine_256
*I *739:mac_init_o O *D ntt_wb_bridge
*CAP
1 *740:mac_init 0.00113178
2 *739:mac_init_o 0.000805036
3 *650:19 0.012686
4 *650:17 0.0115542
5 *650:15 0.0240171
6 *650:13 0.0240171
7 *650:11 0.0423448
8 *650:9 0.0431499
9 *740:mac_init *736:27 0.000360771
10 *650:9 *728:9 0
11 *650:11 *702:11 0.0123817
12 *650:11 *727:11 0.000326518
13 *650:11 *729:11 0.00278558
14 *650:11 *734:27 0.000630425
15 *650:11 *736:11 0.00165538
16 *650:15 *683:15 0.177251
17 *650:15 *709:15 0.176656
18 *650:15 *718:15 0
19 *650:19 *656:27 0.0049921
20 *650:19 *701:22 0.0235172
21 *650:19 *706:19 0.00516888
22 *650:19 *718:19 0.00558429
23 *650:19 *734:43 0.0054641
24 *650:19 *737:46 0.00489132
25 *79:19 *650:9 0.000284346
26 *116:137 *650:19 0.00314076
*RES
1 *739:mac_init_o *650:9 5.15057 
2 *650:9 *650:11 114.464 
3 *650:11 *650:13 3.41 
4 *650:13 *650:15 275.63 
5 *650:15 *650:17 3.41 
6 *650:17 *650:19 49.2654 
7 *650:19 *740:mac_init 5.83363 
*END

*D_NET *651 0.161275
*CONN
*I *740:mem_addr[0] I *D ntt_engine_256
*I *739:mem_addr_o[0] O *D ntt_wb_bridge
*CAP
1 *740:mem_addr[0] 0.000876157
2 *739:mem_addr_o[0] 0.00659935
3 *651:15 0.0196459
4 *651:13 0.0187698
5 *651:11 0.0280658
6 *651:9 0.0346652
7 *651:15 *652:121 0.000431455
8 *651:15 *660:11 0.0430948
9 *651:15 *670:13 0.000620181
10 *651:15 *674:15 0
11 *651:15 *699:15 0
12 *651:15 *723:127 0.000247502
13 *76:27 *651:11 0.00756163
14 *114:141 *651:15 0.00069735
*RES
1 *739:mem_addr_o[0] *651:9 20.8658 
2 *651:9 *651:11 601.804 
3 *651:11 *651:13 3.41 
4 *651:13 *651:15 83.8605 
5 *651:15 *740:mem_addr[0] 17.3743 
*END

*D_NET *652 0.334128
*CONN
*I *740:mem_addr[1] I *D ntt_engine_256
*I *739:mem_addr_o[1] O *D ntt_wb_bridge
*CAP
1 *740:mem_addr[1] 0.00141621
2 *739:mem_addr_o[1] 2.28625e-05
3 *652:123 0.0147505
4 *652:121 0.019414
5 *652:93 0.0156912
6 *652:73 0.0197133
7 *652:57 0.0161082
8 *652:37 0.0145602
9 *652:7 0.0337725
10 *652:5 0.0252416
11 *740:mem_addr[1] *654:11 0.000437196
12 *652:7 *694:17 0.00314795
13 *652:37 *659:7 0.000207918
14 *652:37 *724:7 0.000356125
15 *652:57 *659:31 0.00499387
16 *652:57 *705:7 0.000610737
17 *652:57 *723:69 0.000430389
18 *652:73 *659:77 0.000114731
19 *652:73 *694:79 0.00184682
20 *652:73 *721:63 0.00218253
21 *652:73 *721:77 0.000843048
22 *652:73 *723:69 0
23 *652:93 *655:107 0.000263469
24 *652:93 *659:77 0.00603519
25 *652:93 *669:63 0.000225628
26 *652:93 *723:105 0.00109354
27 *652:121 *659:109 0.000526074
28 *652:121 *674:15 0.00048258
29 *652:121 *681:23 0.000106029
30 *652:121 *690:17 0.000822757
31 *652:121 *703:15 0.00238968
32 *652:121 *708:15 9.05749e-06
33 *652:121 *721:141 0.00132834
34 *652:121 *723:105 6.27963e-05
35 *652:121 *723:127 0
36 *652:123 *653:11 0.0147324
37 *652:123 *659:111 0.0614798
38 *652:123 *681:13 0.0457187
39 *652:123 *732:11 0.0131701
40 io_oeb[1] *652:57 0
41 la_data_out[114] *652:93 0.000318935
42 la_data_out[115] *652:121 0.000522113
43 *77:87 *652:37 6.1617e-05
44 *104:23 *652:123 0.0084855
45 *651:15 *652:121 0.000431455
*RES
1 *739:mem_addr_o[1] *652:5 0.0767667 
2 *652:5 *652:7 76.7259 
3 *652:7 *652:37 47.6981 
4 *652:37 *652:57 33.4919 
5 *652:57 *652:73 45.4277 
6 *652:73 *652:93 47.6993 
7 *652:93 *652:121 34.2761 
8 *652:121 *652:123 128.42 
9 *652:123 *740:mem_addr[1] 6.5261 
*END

*D_NET *653 0.665355
*CONN
*I *740:mem_addr[2] I *D ntt_engine_256
*I *739:mem_addr_o[2] O *D ntt_wb_bridge
*CAP
1 *740:mem_addr[2] 0.000479506
2 *739:mem_addr_o[2] 2.28625e-05
3 *653:23 0.00550159
4 *653:21 0.00541432
5 *653:11 0.0359336
6 *653:9 0.0355414
7 *653:7 0.0355037
8 *653:5 0.0355266
9 *653:11 *659:111 0.00161287
10 *653:11 *671:17 0.200342
11 *653:11 *732:11 0.224161
12 *653:21 *740:mem_wdata[31] 0.00019262
13 *653:21 *663:29 2.95642e-05
14 *653:21 *667:15 6.58704e-05
15 *653:21 *671:15 1.39702e-05
16 *653:21 *673:11 0.000516465
17 *653:21 *679:21 1.34737e-05
18 *653:21 *682:11 0.000695732
19 *653:21 *732:15 0.000458931
20 *653:23 *740:mem_slot[1] 5.03772e-05
21 *653:23 *658:135 2.05612e-05
22 *653:23 *663:19 0.0188515
23 *653:23 *732:15 0.00637167
24 *104:23 *653:11 0.00551935
25 *113:17 *653:11 3.38439e-05
26 *115:47 *653:7 0.000484717
27 *142:19 *653:11 0.00931796
28 *648:23 *653:23 0.0279468
29 *652:123 *653:11 0.0147324
*RES
1 *739:mem_addr_o[2] *653:5 0.0767667 
2 *653:5 *653:7 105.805 
3 *653:7 *653:9 3.41 
4 *653:9 *653:11 2749.27 
5 *653:11 *653:21 14.4129 
6 *653:21 *653:23 264.214 
7 *653:23 *740:mem_addr[2] 13.0625 
*END

*D_NET *654 0.398099
*CONN
*I *740:mem_addr[3] I *D ntt_engine_256
*I *739:mem_addr_o[3] O *D ntt_wb_bridge
*CAP
1 *740:mem_addr[3] 0
2 *739:mem_addr_o[3] 2.48797e-05
3 *654:11 0.0555837
4 *654:9 0.0555837
5 *654:7 0.0362199
6 *654:5 0.0362448
7 *654:11 *740:mem_wdata[18] 0.000360771
8 *654:11 *740:mem_wdata[6] 0.000360771
9 *654:11 *740:start 0.000437196
10 *654:11 *663:31 0.0444105
11 *654:11 *666:9 0.000437196
12 *654:11 *666:11 0.0549608
13 *654:11 *667:19 0.0168733
14 *654:11 *672:17 0.000360771
15 *654:11 *690:9 0.000207921
16 *654:11 *700:11 0.0476223
17 *740:mem_addr[1] *654:11 0.000437196
18 *78:55 *654:7 0.00272309
19 *112:69 *654:11 0.0452499
20 *137:17 *654:11 0
*RES
1 *739:mem_addr_o[3] *654:5 0.0767667 
2 *654:5 *654:7 103.391 
3 *654:7 *654:9 3.41 
4 *654:9 *654:11 298.926 
5 *654:11 *740:mem_addr[3] 3.41 
*END

*D_NET *655 0.499934
*CONN
*I *740:mem_addr[4] I *D ntt_engine_256
*I *739:mem_addr_o[4] O *D ntt_wb_bridge
*CAP
1 *740:mem_addr[4] 0.00191064
2 *739:mem_addr_o[4] 2.28625e-05
3 *655:131 0.0277182
4 *655:129 0.0258076
5 *655:127 0.00188509
6 *655:121 0.00537155
7 *655:107 0.0110231
8 *655:77 0.016572
9 *655:49 0.0190857
10 *655:29 0.0201073
11 *655:7 0.03513
12 *655:5 0.0250958
13 *740:mem_addr[4] *682:15 4.38265e-05
14 *740:mem_addr[4] *715:83 2.27002e-05
15 *655:29 *721:25 0
16 *655:29 *723:41 0
17 *655:49 *671:21 5.43794e-05
18 *655:77 *672:27 0
19 *655:107 *680:35 0.0013676
20 *655:107 *681:25 0.00240968
21 *655:107 *721:109 0.000360116
22 *655:107 *723:105 0
23 *655:121 *659:105 0.000931196
24 *655:121 *680:35 0.00164856
25 *655:121 *694:157 0.000943281
26 *655:121 *694:161 0
27 *655:121 *721:125 0.000165754
28 *655:121 *721:133 0
29 *655:121 *721:141 0
30 *655:127 *694:165 0.00201311
31 *655:127 *700:11 0.000346109
32 *655:127 *721:141 0.000380897
33 *655:127 *723:127 0.000501844
34 *655:131 *679:39 0.126449
35 *655:131 *723:133 0.143856
36 la_data_out[107] *655:29 0.00246033
37 la_data_out[113] *655:107 0.00117138
38 *69:21 *655:131 0.0236889
39 *77:87 *655:7 0
40 *77:153 *655:121 0.000205858
41 *114:145 *655:131 0.000208286
42 *298:31 *655:121 0.000367552
43 *531:23 *655:107 0.000344169
44 *646:47 *655:127 0
45 *652:93 *655:107 0.000263469
*RES
1 *739:mem_addr_o[4] *655:5 0.0767667 
2 *655:5 *655:7 74.5639 
3 *655:7 *655:29 41.4568 
4 *655:29 *655:49 44.7665 
5 *655:49 *655:77 48.8417 
6 *655:77 *655:107 49.2249 
7 *655:107 *655:121 45.0331 
8 *655:121 *655:127 48.9911 
9 *655:127 *655:129 4.5 
10 *655:129 *655:131 1767.21 
11 *655:131 *740:mem_addr[4] 34.2497 
*END

*D_NET *656 0.678183
*CONN
*I *740:mem_addr[5] I *D ntt_engine_256
*I *739:mem_addr_o[5] O *D ntt_wb_bridge
*CAP
1 *740:mem_addr[5] 0.000835378
2 *739:mem_addr_o[5] 0.000495037
3 *656:35 0.0232212
4 *656:33 0.0224367
5 *656:27 0.0274013
6 *656:25 0.0285292
7 *656:15 0.0815234
8 *656:13 0.0803446
9 *656:11 0.0102365
10 *656:9 0.0107315
11 *656:11 *657:11 0.0433803
12 *656:11 *718:11 0.000621161
13 *656:11 *719:11 0
14 *656:11 *728:11 0.0431517
15 *656:15 *712:23 0.0533886
16 *656:15 *713:15 0.0120538
17 *656:15 *719:23 0.00169019
18 *656:15 *722:15 0.00206706
19 *656:25 *695:31 0
20 *656:25 *701:18 0.00348012
21 *656:25 *706:15 3.77278e-05
22 *656:25 *712:23 0.000828521
23 *656:25 *717:23 0.000113503
24 *656:27 *706:19 0.000295042
25 *656:27 *718:19 0.0454245
26 *656:27 *718:27 0.00691195
27 *656:27 *725:35 5.07756e-05
28 *656:27 *725:43 0.00562136
29 *656:27 *737:46 0.100367
30 *656:35 *689:11 0
31 *656:35 *706:27 0.00737405
32 *656:35 *734:43 0.00915698
33 *656:35 *737:46 0.00335959
34 *656:35 *737:54 0.0389279
35 *79:19 *656:9 0.000207921
36 *116:137 *656:35 0.00838236
37 *356:31 *656:11 0.000425602
38 *540:181 *656:25 0.000118508
39 *650:19 *656:27 0.0049921
*RES
1 *739:mem_addr_o[5] *656:9 4.50353 
2 *656:9 *656:11 567.652 
3 *656:11 *656:13 4.5 
4 *656:13 *656:15 1535.38 
5 *656:15 *656:25 18.5513 
6 *656:25 *656:27 1230.2 
7 *656:27 *656:33 6.90303 
8 *656:33 *656:35 97.525 
9 *656:35 *740:mem_addr[5] 5.51403 
*END

*D_NET *657 0.29205
*CONN
*I *740:mem_addr[6] I *D ntt_engine_256
*I *739:mem_addr_o[6] O *D ntt_wb_bridge
*CAP
1 *740:mem_addr[6] 0.00159062
2 *739:mem_addr_o[6] 0.000488849
3 *657:23 0.00953057
4 *657:21 0.00795541
5 *657:15 0.00377729
6 *657:13 0.00376183
7 *657:11 0.0097846
8 *657:9 0.0102734
9 *657:11 *718:11 0.0404681
10 *657:15 *676:31 0.030963
11 *657:15 *678:19 0.0295736
12 *657:15 *702:23 0.000397559
13 *657:15 *711:15 0.00321471
14 *657:23 *678:11 0.0170121
15 *657:23 *702:23 0.00152112
16 *657:23 *711:15 0.0227599
17 *657:23 *716:23 0.0449815
18 *357:25 *657:15 0.00336272
19 *374:15 *657:23 0
20 *376:15 *657:23 0.00702726
21 *386:15 *657:21 2.06178e-05
22 *386:25 *657:15 0.000204731
23 *656:11 *657:11 0.0433803
*RES
1 *739:mem_addr_o[6] *657:9 4.46907 
2 *657:9 *657:11 544.277 
3 *657:11 *657:13 4.5 
4 *657:13 *657:15 291.321 
5 *657:15 *657:21 8.18679 
6 *657:21 *657:23 81.7706 
7 *657:23 *740:mem_addr[6] 31.1421 
*END

*D_NET *658 0.723662
*CONN
*I *740:mem_addr[7] I *D ntt_engine_256
*I *739:mem_addr_o[7] O *D ntt_wb_bridge
*CAP
1 *740:mem_addr[7] 0.000543958
2 *739:mem_addr_o[7] 0.00353189
3 *658:143 0.00760108
4 *658:141 0.0072408
5 *658:135 0.0152885
6 *658:133 0.0151048
7 *658:131 0.0183501
8 *658:129 0.0186421
9 *658:123 0.0216858
10 *658:121 0.0268657
11 *658:109 0.00689113
12 *658:103 0.0049534
13 *658:101 0.00446785
14 *658:93 0.00226481
15 *658:89 0.00262576
16 *658:81 0.00274962
17 *658:75 0.00370456
18 *658:73 0.00337047
19 *658:69 0.00249938
20 *658:63 0.00515276
21 *658:61 0.00377432
22 *658:59 0.00283422
23 *658:57 0.00283422
24 *658:55 0.00396713
25 *658:53 0.00396713
26 *658:51 0.00245731
27 *658:49 0.00414123
28 *658:45 0.00284563
29 *658:39 0.00384293
30 *658:37 0.00268121
31 *658:35 0.0025543
32 *658:33 0.00357012
33 *658:27 0.00526706
34 *658:25 0.00492302
35 *658:21 0.00220554
36 *658:15 0.00506565
37 *658:15 *659:7 0
38 *658:15 *734:11 0.000150368
39 *658:21 *695:19 0
40 *658:25 *721:7 0.000395776
41 *658:45 *698:11 0.0030568
42 *658:49 *715:23 0.00327691
43 *658:59 *685:101 0.00277785
44 *658:59 *714:59 0.000975048
45 *658:59 *715:43 0.00401466
46 *658:121 *673:27 0
47 *658:121 *708:15 0.0133159
48 *658:123 *673:15 0
49 *658:123 *673:23 0.0109787
50 *658:123 *682:23 0
51 *658:123 *682:39 0.00561287
52 *658:123 *685:53 0.00767082
53 *658:123 *685:57 0
54 *658:123 *714:123 0.0096888
55 *658:123 *714:139 0.00283867
56 *658:123 *715:75 0.00513627
57 *658:131 *669:19 0.000671046
58 *658:131 *682:15 0.106618
59 *658:131 *685:29 0.039042
60 *658:131 *708:19 0.0369374
61 *658:135 *740:mem_slot[1] 0.000783382
62 *658:135 *663:11 0.00598101
63 *658:135 *671:15 0.00386222
64 *658:135 *673:11 0.0052892
65 *658:135 *685:21 0.0784115
66 *658:135 *685:27 0.000184674
67 *658:143 *679:11 0.036293
68 *658:143 *682:11 0.00712371
69 *658:143 *685:13 0.00267697
70 *658:143 *715:95 0.0113853
71 la_data_out[104] *658:93 0.00163195
72 la_data_out[84] *658:27 0
73 la_data_out[91] *658:51 0
74 la_data_out[96] *658:59 0.0017503
75 *740:clk *658:135 0.000470581
76 *77:171 *658:123 0.00450388
77 *78:71 *658:49 0.000508846
78 *78:127 *658:121 0.0013817
79 *79:19 *658:15 0.000360771
80 *112:67 *658:121 0.000581292
81 *275:19 *658:69 0
82 *285:17 *658:35 0.00676158
83 *300:15 *658:101 0.000108755
84 *372:19 *658:15 0.000267869
85 *646:19 *658:135 0.0459238
86 *646:35 *658:123 0.023396
87 *648:23 *658:135 0.0003803
88 *653:23 *658:135 2.05612e-05
*RES
1 *739:mem_addr_o[7] *658:15 48.6892 
2 *658:15 *658:21 40.0893 
3 *658:21 *658:25 16.9464 
4 *658:25 *658:27 86.3393 
5 *658:27 *658:33 28.0179 
6 *658:33 *658:35 83 
7 *658:35 *658:37 4.5 
8 *658:37 *658:39 49.4107 
9 *658:39 *658:45 46.4643 
10 *658:45 *658:49 47.3393 
11 *658:49 *658:51 49.3036 
12 *658:51 *658:53 4.5 
13 *658:53 *658:55 74.4643 
14 *658:55 *658:57 4.5 
15 *658:57 *658:59 110.929 
16 *658:59 *658:61 4.5 
17 *658:61 *658:63 70.3571 
18 *658:63 *658:69 37.0536 
19 *658:69 *658:73 26.3929 
20 *658:73 *658:75 45.9643 
21 *658:75 *658:81 36.6429 
22 *658:81 *658:89 34.1786 
23 *658:89 *658:93 41.6607 
24 *658:93 *658:101 27.8036 
25 *658:101 *658:103 67.4821 
26 *658:103 *658:109 34.2939 
27 *658:109 *658:121 36.0111 
28 *658:121 *658:123 833.58 
29 *658:123 *658:129 13.2321 
30 *658:129 *658:131 1307 
31 *658:131 *658:133 4.5 
32 *658:133 *658:135 741.464 
33 *658:135 *658:141 10.9189 
34 *658:141 *658:143 57.7003 
35 *658:143 *740:mem_addr[7] 13.9457 
*END

*D_NET *659 0.468826
*CONN
*I *740:mem_addr[8] I *D ntt_engine_256
*I *739:mem_addr_o[8] O *D ntt_wb_bridge
*CAP
1 *740:mem_addr[8] 0.00108296
2 *739:mem_addr_o[8] 2.28625e-05
3 *659:111 0.0618096
4 *659:109 0.0617066
5 *659:105 0.0101122
6 *659:77 0.0194789
7 *659:61 0.01646
8 *659:31 0.0145621
9 *659:7 0.0361062
10 *659:5 0.0276802
11 *659:7 *694:33 0.00137972
12 *659:31 *723:69 0.000718668
13 *659:61 *723:69 2.82126e-05
14 *659:77 *686:77 6.57893e-06
15 *659:77 *723:105 0.00734556
16 *659:105 *669:51 0.000398028
17 *659:105 *672:25 0
18 *659:105 *680:35 0.00131399
19 *659:105 *680:39 0
20 *659:105 *681:25 0
21 *659:105 *694:125 8.75887e-07
22 *659:105 *694:157 6.14836e-06
23 *659:109 *679:45 8.62344e-05
24 *659:109 *690:17 0.000438316
25 *659:109 *721:141 0.00124352
26 *659:111 *740:mem_wdata[13] 0.00307264
27 *659:111 *669:21 0
28 *659:111 *671:17 0.00115976
29 *659:111 *672:17 0.00679774
30 *659:111 *685:45 0
31 *659:111 *705:11 0.00972853
32 *659:111 *732:11 0.0141211
33 la_data_out[114] *659:77 0.00229877
34 *74:17 *659:111 0.0248576
35 *78:129 *659:111 0.00824224
36 *104:23 *659:111 0.00307495
37 *112:33 *659:105 0.000212609
38 *112:67 *659:109 0.000536914
39 *113:17 *659:111 0.0268216
40 *648:11 *659:111 0.0300122
41 *652:37 *659:7 0.000207918
42 *652:57 *659:31 0.00499387
43 *652:73 *659:77 0.000114731
44 *652:93 *659:77 0.00603519
45 *652:121 *659:109 0.000526074
46 *652:123 *659:111 0.0614798
47 *653:11 *659:111 0.00161287
48 *655:121 *659:105 0.000931196
49 *658:15 *659:7 0
*RES
1 *739:mem_addr_o[8] *659:5 0.0767667 
2 *659:5 *659:7 82.7795 
3 *659:7 *659:31 48.0543 
4 *659:31 *659:61 39.1503 
5 *659:61 *659:77 49.9763 
6 *659:77 *659:105 48.7101 
7 *659:105 *659:109 7.06033 
8 *659:109 *659:111 260.521 
9 *659:111 *740:mem_addr[8] 6.01537 
*END

*D_NET *660 0.141684
*CONN
*I *739:mem_rdata_i[0] I *D ntt_wb_bridge
*I *740:mem_rdata[0] O *D ntt_engine_256
*CAP
1 *739:mem_rdata_i[0] 0.0068098
2 *740:mem_rdata[0] 0.000875583
3 *660:15 0.0174438
4 *660:13 0.010634
5 *660:11 0.00793189
6 *660:9 0.00880747
7 *660:11 *673:45 0.000220301
8 *660:11 *684:11 0.031591
9 *660:11 *699:15 0
10 *660:15 *663:89 0.00328747
11 *660:15 *673:45 0
12 la_data_out[87] *660:15 0.0109882
13 *651:15 *660:11 0.0430948
*RES
1 *740:mem_rdata[0] *660:9 17.1779 
2 *660:9 *660:11 67.069 
3 *660:11 *660:13 3.41 
4 *660:13 *660:15 303.696 
5 *660:15 *739:mem_rdata_i[0] 21.9468 
*END

*D_NET *661 0.652618
*CONN
*I *739:mem_rdata_i[10] I *D ntt_wb_bridge
*I *740:mem_rdata[10] O *D ntt_engine_256
*CAP
1 *739:mem_rdata_i[10] 0.0160564
2 *740:mem_rdata[10] 0.00154591
3 *661:41 0.0161255
4 *661:31 0.0087922
5 *661:29 0.00883178
6 *661:23 0.0214566
7 *661:21 0.0213479
8 *661:19 0.00262229
9 *661:17 0.0028165
10 *661:11 0.0599189
11 *661:9 0.0612706
12 *739:mem_rdata_i[10] *739:mem_rdata_i[11] 0
13 *739:mem_rdata_i[10] *676:35 0.00166828
14 *739:mem_rdata_i[10] *701:12 0.000309684
15 *739:mem_rdata_i[10] *702:11 0
16 *739:mem_rdata_i[10] *711:11 0.00013544
17 *739:mem_rdata_i[10] *713:11 0.000110079
18 *739:mem_rdata_i[10] *719:11 0.000118344
19 *739:mem_rdata_i[10] *734:19 0.00298792
20 *739:mem_rdata_i[10] *735:11 0.00322362
21 *661:11 *662:15 0.00170449
22 *661:11 *664:11 0.0232743
23 *661:11 *677:11 0.0255611
24 *661:11 *688:11 0.00295618
25 *661:19 *662:15 0.0167057
26 *661:19 *675:15 0.000130421
27 *661:19 *677:11 0.0034922
28 *661:19 *688:11 0.000143421
29 *661:19 *695:35 0.000981358
30 *661:23 *662:19 0.000909424
31 *661:23 *664:15 3.69276e-05
32 *661:23 *688:15 0.157397
33 *661:23 *710:31 0.154351
34 *661:31 *740:mem_slot[0] 0.000904703
35 *661:31 *664:23 0.00100269
36 *661:31 *688:23 0
37 *661:31 *710:23 0
38 *661:41 *709:11 0
39 *661:41 *735:11 3.52391e-05
40 *86:41 *661:11 0
41 *87:57 *661:11 0
42 *91:53 *661:11 0
43 *92:25 *661:11 0.00231774
44 *93:23 *661:11 0.00256981
45 *118:161 *661:19 0.0146215
46 *358:25 *661:41 4.97574e-05
47 *364:23 *739:mem_rdata_i[10] 0.000625464
48 *369:15 *739:mem_rdata_i[10] 0.00322362
49 *372:19 *739:mem_rdata_i[10] 0.00360602
50 *398:21 *661:23 0.000785322
51 *398:21 *661:31 0.000284522
52 *647:11 *661:31 0.00265756
53 *647:19 *661:31 0.0022453
54 *649:11 *661:41 9.50843e-05
55 *649:15 *739:mem_rdata_i[10] 0.000612518
*RES
1 *740:mem_rdata[10] *661:9 7.0995 
2 *661:9 *661:11 246.565 
3 *661:11 *661:17 7.1913 
4 *661:17 *661:19 204.732 
5 *661:19 *661:21 3.41 
6 *661:21 *661:23 244.857 
7 *661:23 *661:29 9.70464 
8 *661:29 *661:31 191.107 
9 *661:31 *661:41 12.359 
10 *661:41 *739:mem_rdata_i[10] 45.7147 
*END

*D_NET *662 0.70827
*CONN
*I *739:mem_rdata_i[11] I *D ntt_wb_bridge
*I *740:mem_rdata[11] O *D ntt_engine_256
*CAP
1 *739:mem_rdata_i[11] 0.00297745
2 *740:mem_rdata[11] 0.00526177
3 *662:31 0.00660914
4 *662:29 0.00363169
5 *662:27 0.00441073
6 *662:25 0.00458139
7 *662:19 0.0217111
8 *662:17 0.0215404
9 *662:15 0.0719138
10 *662:13 0.0771755
11 *739:mem_rdata_i[11] *689:35 0.000194902
12 *739:mem_rdata_i[11] *701:12 0.000201414
13 *662:13 *740:slot_a[1] 0.00659607
14 *662:13 *695:39 0.000393058
15 *662:15 *664:11 0.00974145
16 *662:15 *675:15 0
17 *662:15 *695:35 0.0209005
18 *662:19 *664:15 1.36077e-05
19 *662:19 *675:19 0.0180012
20 *662:19 *710:31 0.150902
21 *662:25 *687:9 0
22 *662:27 *675:27 0.010197
23 *662:27 *688:23 1.98839e-05
24 *662:27 *710:23 0.0238207
25 *662:31 *664:27 0.0157623
26 *662:31 *710:19 0.0167565
27 *739:mem_rdata_i[10] *739:mem_rdata_i[11] 0
28 *80:205 *662:13 0.000481154
29 *82:25 *662:15 0
30 *84:29 *662:15 0
31 *118:161 *662:15 0.0598869
32 *118:201 *662:13 0
33 *353:21 *662:27 0.00445423
34 *364:23 *739:mem_rdata_i[11] 0.000193187
35 *378:19 *662:31 0.000529248
36 *398:23 *662:27 0.00877124
37 *647:11 *662:19 0.120733
38 *649:11 *662:27 0.000588923
39 *661:11 *662:15 0.00170449
40 *661:19 *662:15 0.0167057
41 *661:23 *662:19 0.000909424
*RES
1 *740:mem_rdata[11] *662:13 37.8696 
2 *662:13 *662:15 2168.84 
3 *662:15 *662:17 3.41 
4 *662:17 *662:19 237.363 
5 *662:19 *662:25 10.9189 
6 *662:25 *662:27 255.589 
7 *662:27 *662:29 4.5 
8 *662:29 *662:31 210.5 
9 *662:31 *739:mem_rdata_i[11] 41.2051 
*END

*D_NET *663 0.818971
*CONN
*I *739:mem_rdata_i[12] I *D ntt_wb_bridge
*I *740:mem_rdata[12] O *D ntt_engine_256
*CAP
1 *739:mem_rdata_i[12] 0.0014682
2 *740:mem_rdata[12] 0.000387586
3 *663:103 0.00410952
4 *663:97 0.0029309
5 *663:91 0.00283432
6 *663:89 0.00309065
7 *663:85 0.00183006
8 *663:77 0.00326039
9 *663:71 0.0041223
10 *663:65 0.00338647
11 *663:55 0.00456333
12 *663:53 0.00412051
13 *663:47 0.00294398
14 *663:41 0.00299659
15 *663:35 0.00593132
16 *663:33 0.00508113
17 *663:31 0.0655305
18 *663:29 0.0660128
19 *663:19 0.00622966
20 *663:17 0.00587013
21 *663:11 0.0317694
22 *663:9 0.0320342
23 *663:11 *673:11 0.0228533
24 *663:11 *685:13 0.0501725
25 *663:11 *685:21 0.0122419
26 *663:11 *714:147 0.0315567
27 *663:11 *714:155 0.0404502
28 *663:11 *732:15 0.0298498
29 *663:19 *673:11 0.00392983
30 *663:29 *740:mem_slot[1] 0.000233782
31 *663:29 *667:15 0.000869363
32 *663:29 *679:21 2.84552e-05
33 *663:31 *667:15 0.00206574
34 *663:31 *667:19 0.169077
35 *663:31 *723:127 0.00011333
36 *663:35 *667:23 0.00802766
37 *663:35 *715:63 0.033594
38 *663:41 *667:33 0.000785858
39 *663:55 *667:37 0.00156771
40 *663:85 *667:43 0
41 *663:85 *670:15 0
42 la_data_out[84] *663:97 0.000748702
43 la_data_out[87] *663:89 0.00328575
44 la_data_out[91] *663:65 0.000983039
45 la_data_out[92] *663:55 0.00636921
46 *740:clk *663:11 0.00239052
47 *102:27 *663:47 0.000678522
48 *112:69 *663:31 0.020982
49 *274:15 *663:53 0.000611642
50 *276:15 *663:53 0.000331662
51 *364:23 *663:103 5.91998e-05
52 *372:19 *663:103 0.000166101
53 *394:15 *663:53 0
54 *398:23 *663:47 0
55 *646:19 *663:11 0.00431891
56 *646:47 *663:35 0.0375649
57 *653:21 *663:29 2.95642e-05
58 *653:23 *663:19 0.0188515
59 *654:11 *663:31 0.0444105
60 *658:135 *663:11 0.00598101
61 *660:15 *663:89 0.00328747
*RES
1 *740:mem_rdata[12] *663:9 10.91 
2 *663:9 *663:11 186.772 
3 *663:11 *663:17 9.40107 
4 *663:17 *663:19 177.143 
5 *663:19 *663:29 17.9196 
6 *663:29 *663:31 2137.12 
7 *663:31 *663:33 4.5 
8 *663:33 *663:35 352.929 
9 *663:35 *663:41 27.9464 
10 *663:41 *663:47 45.6607 
11 *663:47 *663:53 30.4821 
12 *663:53 *663:55 96.9643 
13 *663:55 *663:65 41.5 
14 *663:65 *663:71 45.5 
15 *663:71 *663:77 45.6786 
16 *663:77 *663:85 33.4643 
17 *663:85 *663:89 45 
18 *663:89 *663:91 47.3571 
19 *663:91 *663:97 18.2321 
20 *663:97 *663:103 49.4375 
21 *663:103 *739:mem_rdata_i[12] 6.44933 
*END

*D_NET *664 0.535027
*CONN
*I *739:mem_rdata_i[13] I *D ntt_wb_bridge
*I *740:mem_rdata[13] O *D ntt_engine_256
*CAP
1 *739:mem_rdata_i[13] 0.0028647
2 *740:mem_rdata[13] 0.00176602
3 *664:27 0.00648341
4 *664:25 0.00361872
5 *664:23 0.00378418
6 *664:21 0.00405208
7 *664:15 0.0294746
8 *664:13 0.0292067
9 *664:11 0.0111912
10 *664:9 0.0129572
11 *664:9 *736:27 0.000284346
12 *664:11 *677:11 0.0395231
13 *664:11 *688:11 0.000498301
14 *664:15 *688:15 0.160111
15 *664:15 *695:23 0.0411906
16 *664:15 *695:31 0.00022444
17 *664:15 *704:23 0.0109251
18 *664:15 *704:31 0.0265021
19 *664:15 *717:15 0.00269763
20 *664:15 *727:31 0.0154267
21 *664:23 *688:23 0.0186659
22 *664:27 *710:19 9.58189e-06
23 *93:23 *664:11 0.00204008
24 *352:21 *664:23 0.00345202
25 *353:21 *664:23 0.00012071
26 *358:27 *664:27 0
27 *359:27 *664:27 0
28 *361:15 *664:15 0.0340567
29 *363:65 *739:mem_rdata_i[13] 2.47761e-06
30 *364:23 *739:mem_rdata_i[13] 4.55034e-05
31 *372:19 *739:mem_rdata_i[13] 0.000118506
32 *378:19 *664:27 0.0149974
33 *398:21 *664:15 0.000378438
34 *647:19 *664:23 0.00852671
35 *661:11 *664:11 0.0232743
36 *661:23 *664:15 3.69276e-05
37 *661:31 *664:23 0.00100269
38 *662:15 *664:11 0.00974145
39 *662:19 *664:15 1.36077e-05
40 *662:31 *664:27 0.0157623
*RES
1 *740:mem_rdata[13] *664:9 7.16843 
2 *664:9 *664:11 84.4214 
3 *664:11 *664:13 3.41 
4 *664:13 *664:15 251.524 
5 *664:15 *664:21 12.4368 
6 *664:21 *664:23 175.911 
7 *664:23 *664:25 4.5 
8 *664:25 *664:27 198.964 
9 *664:27 *739:mem_rdata_i[13] 39.1374 
*END

*D_NET *665 0.411054
*CONN
*I *739:mem_rdata_i[14] I *D ntt_wb_bridge
*I *740:mem_rdata[14] O *D ntt_engine_256
*CAP
1 *739:mem_rdata_i[14] 5.14922e-05
2 *740:mem_rdata[14] 0.00168453
3 *665:59 0.0307978
4 *665:57 0.0378801
5 *665:29 0.0165643
6 *665:11 0.0549654
7 *665:9 0.0472195
8 *665:11 *686:11 0.151867
9 *665:29 *669:21 0.00174405
10 *665:29 *672:25 0.00363793
11 *665:29 *679:45 5.86008e-05
12 *665:29 *686:47 0.000251889
13 *665:29 *700:11 0.00134726
14 *665:29 *721:141 4.57582e-05
15 *665:57 *666:15 0
16 *665:57 *669:51 0.000324629
17 *665:57 *669:63 0.000493073
18 *665:57 *672:27 0.000277846
19 *665:57 *686:47 0.00040254
20 *665:57 *723:79 0
21 *665:59 *694:93 0
22 *665:59 *731:41 5.52634e-05
23 la_data_out[115] *665:57 0.000517454
24 *75:17 *665:29 0.00227458
25 *76:91 *665:11 0
26 *77:137 *665:57 0
27 *77:143 *665:29 6.58294e-06
28 *104:23 *665:29 0
29 *115:137 *665:11 0.0585864
*RES
1 *740:mem_rdata[14] *665:9 7.5272 
2 *665:9 *665:11 1861.02 
3 *665:11 *665:29 49.5066 
4 *665:29 *665:57 34.3388 
5 *665:57 *665:59 91.4275 
6 *665:59 *739:mem_rdata_i[14] 0.0767667 
*END

*D_NET *666 0.181338
*CONN
*I *739:mem_rdata_i[15] I *D ntt_wb_bridge
*I *740:mem_rdata[15] O *D ntt_engine_256
*CAP
1 *739:mem_rdata_i[15] 5.35095e-05
2 *740:mem_rdata[15] 0.000392718
3 *666:15 0.0371413
4 *666:13 0.0370878
5 *666:11 0.0245128
6 *666:9 0.0249055
7 *666:11 *721:141 0.000475177
8 *666:15 *694:101 0
9 *666:15 *723:79 0.00136772
10 *363:39 *666:15 3.90782e-06
11 *654:11 *666:9 0.000437196
12 *654:11 *666:11 0.0549608
13 *665:57 *666:15 0
*RES
1 *740:mem_rdata[15] *666:9 4.21057 
2 *666:9 *666:11 115.103 
3 *666:11 *666:13 3.41 
4 *666:13 *666:15 103.535 
5 *666:15 *739:mem_rdata_i[15] 0.0767667 
*END

*D_NET *667 0.652566
*CONN
*I *739:mem_rdata_i[16] I *D ntt_wb_bridge
*I *740:mem_rdata[16] O *D ntt_engine_256
*CAP
1 *739:mem_rdata_i[16] 0.00757462
2 *740:mem_rdata[16] 0.0005715
3 *667:43 0.0141699
4 *667:41 0.0108765
5 *667:37 0.00618627
6 *667:33 0.00379979
7 *667:23 0.00786894
8 *667:21 0.00597424
9 *667:19 0.0633495
10 *667:17 0.0633958
11 *667:15 0.0016863
12 *667:13 0.00163999
13 *667:11 0.0116702
14 *667:9 0.0122417
15 *667:11 *740:mem_wdata[31] 9.37046e-05
16 *667:11 *679:11 0.0684431
17 *667:11 *682:11 0.0686197
18 *667:15 *679:21 0
19 *667:15 *714:139 0.00335148
20 *667:19 *673:23 0
21 *667:19 *714:139 0
22 *667:19 *723:127 4.22135e-06
23 *667:23 *673:27 0
24 *667:23 *703:15 0.0398099
25 *667:23 *708:15 0.0379424
26 *667:23 *715:63 0.00617859
27 *667:33 *740:mem_re 0.00384508
28 *667:33 *698:19 0.00109365
29 *667:33 *699:15 0.00109864
30 *667:43 *684:15 0.00327091
31 *77:155 *667:19 0
32 *278:23 *667:41 0.00146324
33 *298:31 *667:41 0.00109613
34 *301:23 *667:41 0.00271393
35 *393:23 *667:41 0.000710971
36 *395:23 *667:41 0.00115888
37 *397:25 *667:41 0.00133312
38 *653:21 *667:15 6.58704e-05
39 *654:11 *667:19 0.0168733
40 *663:29 *667:15 0.000869363
41 *663:31 *667:15 0.00206574
42 *663:31 *667:19 0.169077
43 *663:35 *667:23 0.00802766
44 *663:41 *667:33 0.000785858
45 *663:55 *667:37 0.00156771
46 *663:85 *667:43 0
*RES
1 *740:mem_rdata[16] *667:9 13.9457 
2 *667:9 *667:11 109.012 
3 *667:11 *667:13 3.41 
4 *667:13 *667:15 77.7321 
5 *667:15 *667:17 0.946429 
6 *667:17 *667:19 2073.02 
7 *667:19 *667:21 3.41 
8 *667:21 *667:23 61.9523 
9 *667:23 *667:33 29.1246 
10 *667:33 *667:37 43.6064 
11 *667:37 *667:41 15.4921 
12 *667:41 *667:43 149.482 
13 *667:43 *739:mem_rdata_i[16] 24.1088 
*END

*D_NET *668 0.283511
*CONN
*I *739:mem_rdata_i[17] I *D ntt_wb_bridge
*I *740:mem_rdata[17] O *D ntt_engine_256
*CAP
1 *739:mem_rdata_i[17] 0.00245967
2 *740:mem_rdata[17] 0.00149995
3 *668:19 0.00625687
4 *668:17 0.0037972
5 *668:15 0.0182241
6 *668:13 0.019724
7 *668:13 *695:31 2.83129e-05
8 *668:13 *696:23 0.0034959
9 *668:13 *727:31 0.0019243
10 *668:15 *677:27 0
11 *668:15 *696:23 0.00369934
12 *668:15 *697:15 0.104944
13 *668:15 *722:15 0.000282378
14 *668:15 *727:31 0.0765799
15 *668:15 *734:37 0
16 *668:19 *675:31 0.00994062
17 *668:19 *677:29 0.000197832
18 *668:19 *699:11 0.00260528
19 *105:19 *668:19 0
20 *361:15 *668:15 0.000166792
21 *361:19 *668:19 0.000216387
22 *367:15 *668:15 0.0139484
23 *376:27 *668:19 1.08359e-05
24 *379:27 *668:19 0.0135088
*RES
1 *740:mem_rdata[17] *668:13 22.8194 
2 *668:13 *668:15 178.664 
3 *668:15 *668:17 3.41 
4 *668:17 *668:19 179.232 
5 *668:19 *739:mem_rdata_i[17] 8.68653 
*END

*D_NET *669 0.309813
*CONN
*I *739:mem_rdata_i[18] I *D ntt_wb_bridge
*I *740:mem_rdata[18] O *D ntt_engine_256
*CAP
1 *739:mem_rdata_i[18] 5.14922e-05
2 *740:mem_rdata[18] 0.00402734
3 *669:65 0.031996
4 *669:63 0.0340261
5 *669:51 0.0143639
6 *669:21 0.0650861
7 *669:19 0.0568311
8 *669:19 *682:15 0.000759557
9 *669:21 *680:11 0.0628592
10 *669:51 *672:25 0
11 *669:51 *680:35 0
12 *669:51 *681:25 0
13 *669:51 *686:47 0.000540162
14 *669:63 *672:27 0.00194011
15 la_data_out[116] *669:51 0.00124892
16 la_data_out[117] *669:51 0.000392063
17 *76:47 *669:65 0.00266226
18 *77:153 *669:51 0
19 *78:103 *669:65 0
20 *104:23 *669:21 0.0271923
21 *112:69 *669:19 0.000237214
22 *291:19 *669:51 0.00125705
23 *295:15 *669:51 0
24 *296:19 *669:51 0.000383596
25 *298:31 *669:51 0
26 *299:15 *669:51 0.000101825
27 *652:93 *669:63 0.000225628
28 *658:131 *669:19 0.000671046
29 *659:105 *669:51 0.000398028
30 *659:111 *669:21 0
31 *665:29 *669:21 0.00174405
32 *665:57 *669:51 0.000324629
33 *665:57 *669:63 0.000493073
*RES
1 *740:mem_rdata[18] *669:19 20.6593 
2 *669:19 *669:21 276.927 
3 *669:21 *669:51 47.9572 
4 *669:51 *669:63 13.9264 
5 *669:63 *669:65 94.5985 
6 *669:65 *739:mem_rdata_i[18] 0.0767667 
*END

*D_NET *670 0.0412271
*CONN
*I *739:mem_rdata_i[19] I *D ntt_wb_bridge
*I *740:mem_rdata[19] O *D ntt_engine_256
*CAP
1 *739:mem_rdata_i[19] 0.00725173
2 *740:mem_rdata[19] 0.00144447
3 *670:15 0.0129099
4 *670:13 0.00710263
5 *670:13 *674:15 0.000441248
6 *670:13 *698:11 0.000178648
7 *670:15 *673:45 0
8 *530:19 *670:15 0.0112783
9 *651:15 *670:13 0.000620181
10 *663:85 *670:15 0
*RES
1 *740:mem_rdata[19] *670:13 26.9856 
2 *670:13 *670:15 162.232 
3 *670:15 *739:mem_rdata_i[19] 23.0999 
*END

*D_NET *671 0.604779
*CONN
*I *739:mem_rdata_i[1] I *D ntt_wb_bridge
*I *740:mem_rdata[1] O *D ntt_engine_256
*CAP
1 *739:mem_rdata_i[1] 4.35856e-05
2 *740:mem_rdata[1] 0.00742643
3 *671:21 0.0381387
4 *671:19 0.0380951
5 *671:17 0.031506
6 *671:15 0.0389325
7 *671:15 *740:mem_slot[1] 0.000101601
8 *671:15 *685:21 0.00386222
9 *671:15 *714:145 0.000112714
10 *671:15 *714:147 0.00808557
11 *671:15 *715:93 0
12 *671:15 *732:15 0.0210319
13 *671:17 *681:13 0.00981053
14 *671:21 *694:77 0.000196774
15 *75:17 *671:17 0
16 *76:31 *671:21 0.00226156
17 *78:71 *671:21 0
18 *78:129 *671:17 0.174255
19 *104:23 *671:17 0.00568322
20 *142:19 *671:17 0.0143025
21 *360:77 *671:21 0
22 *646:19 *671:15 0.00404278
23 *648:21 *671:15 0.0014577
24 *653:11 *671:17 0.200342
25 *653:21 *671:15 1.39702e-05
26 *655:49 *671:21 5.43794e-05
27 *658:135 *671:15 0.00386222
28 *659:111 *671:17 0.00115976
*RES
1 *740:mem_rdata[1] *671:15 47.7651 
2 *671:15 *671:17 2456.02 
3 *671:17 *671:19 3.41 
4 *671:19 *671:21 105.877 
5 *671:21 *739:mem_rdata_i[1] 0.0767667 
*END

*D_NET *672 0.153181
*CONN
*I *739:mem_rdata_i[20] I *D ntt_wb_bridge
*I *740:mem_rdata[20] O *D ntt_engine_256
*CAP
1 *739:mem_rdata_i[20] 5.14922e-05
2 *740:mem_rdata[20] 0.0059569
3 *672:27 0.0339335
4 *672:25 0.0438847
5 *672:17 0.0159596
6 *672:17 *740:mem_wdata[13] 0.0125772
7 *672:17 *740:mem_wdata[16] 0
8 *672:17 *685:51 0
9 *672:17 *690:11 0.000532239
10 *672:17 *705:11 0.0026048
11 *672:17 *705:19 0.00103988
12 *672:17 *724:11 0.00140503
13 *672:25 *680:35 2.91808e-05
14 *672:25 *681:23 0.00878655
15 *672:25 *694:161 0.000259814
16 *672:25 *700:11 0.00368433
17 *672:25 *721:133 0.000121549
18 *672:27 *714:65 0.000772291
19 *672:27 *721:85 0
20 *77:147 *672:25 0.0014587
21 *78:111 *672:27 0.00139581
22 *112:33 *672:25 0.00132131
23 *112:67 *672:25 0.00353854
24 *115:111 *672:27 0.000853545
25 *654:11 *672:17 0.000360771
26 *655:77 *672:27 0
27 *659:105 *672:25 0
28 *659:111 *672:17 0.00679774
29 *665:29 *672:25 0.00363793
30 *665:57 *672:27 0.000277846
31 *669:51 *672:25 0
32 *669:63 *672:27 0.00194011
*RES
1 *740:mem_rdata[20] *672:17 46.6566 
2 *672:17 *672:25 48.4078 
3 *672:25 *672:27 102.67 
4 *672:27 *739:mem_rdata_i[20] 0.0767667 
*END

*D_NET *673 0.641964
*CONN
*I *739:mem_rdata_i[21] I *D ntt_wb_bridge
*I *740:mem_rdata[21] O *D ntt_engine_256
*CAP
1 *739:mem_rdata_i[21] 0.00456711
2 *740:mem_rdata[21] 0.000435615
3 *673:57 0.0066131
4 *673:53 0.00336774
5 *673:47 0.00626055
6 *673:45 0.00832594
7 *673:27 0.0276968
8 *673:25 0.0243097
9 *673:23 0.00863326
10 *673:21 0.00895075
11 *673:15 0.0521763
12 *673:13 0.0518589
13 *673:11 0.015065
14 *673:9 0.0155007
15 *673:11 *682:11 0.00556898
16 *673:11 *685:13 0.0100286
17 *673:11 *685:21 0.000937729
18 *673:11 *714:147 0.000971325
19 *673:11 *715:95 0.0900785
20 *673:11 *732:15 0.0503324
21 *673:15 *674:11 0.00370513
22 *673:15 *682:15 0
23 *673:15 *682:23 0.0143786
24 *673:15 *685:37 0.0143883
25 *673:15 *714:139 0
26 *673:15 *715:83 0.135667
27 *673:21 *740:mem_wdata[13] 0
28 *673:23 *714:123 0.00983306
29 *673:23 *714:139 4.51803e-05
30 *673:27 *680:35 0
31 *673:27 *703:15 0
32 *673:27 *708:15 0
33 *673:45 *740:mem_re 3.42107e-06
34 *673:45 *684:11 0.000186679
35 *673:45 *699:15 0.000495834
36 la_data_out[84] *673:57 0
37 la_data_out[86] *673:47 0
38 *77:155 *673:23 0.0134667
39 *78:127 *673:27 0.0139823
40 *102:27 *673:45 0
41 *386:25 *673:45 0.000345474
42 *646:35 *673:15 0
43 *653:21 *673:11 0.000516465
44 *658:121 *673:27 0
45 *658:123 *673:15 0
46 *658:123 *673:23 0.0109787
47 *658:135 *673:11 0.0052892
48 *660:11 *673:45 0.000220301
49 *660:15 *673:45 0
50 *663:11 *673:11 0.0228533
51 *663:19 *673:11 0.00392983
52 *667:19 *673:23 0
53 *667:23 *673:27 0
54 *670:15 *673:45 0
*RES
1 *740:mem_rdata[21] *673:9 11.7136 
2 *673:9 *673:11 156.215 
3 *673:11 *673:13 3.41 
4 *673:13 *673:15 1782.7 
5 *673:15 *673:21 7.37147 
6 *673:21 *673:23 360.768 
7 *673:23 *673:25 3.41 
8 *673:25 *673:27 82.3111 
9 *673:27 *673:45 42.1085 
10 *673:45 *673:47 96.0536 
11 *673:47 *673:53 11.191 
12 *673:53 *673:57 45.4279 
13 *673:57 *739:mem_rdata_i[21] 10.9698 
*END

*D_NET *674 0.436059
*CONN
*I *739:mem_rdata_i[22] I *D ntt_wb_bridge
*I *740:mem_rdata[22] O *D ntt_engine_256
*CAP
1 *739:mem_rdata_i[22] 0.00827445
2 *740:mem_rdata[22] 0.000860892
3 *674:15 0.0282999
4 *674:13 0.0200254
5 *674:11 0.0289252
6 *674:9 0.0297861
7 *739:mem_rdata_i[22] *690:23 0.01134
8 *674:11 *682:15 0.0199622
9 *674:11 *682:23 7.18046e-06
10 *674:11 *686:19 0
11 *674:11 *714:131 0.0089391
12 *674:11 *715:67 0.0125713
13 *674:11 *715:83 0.0976275
14 *674:11 *730:19 0.0980609
15 *77:155 *674:11 0
16 *102:27 *674:15 0.0634076
17 *112:69 *674:9 0.000237214
18 *354:25 *674:15 0.000362184
19 *358:25 *674:15 0.000908325
20 *373:21 *739:mem_rdata_i[22] 0.00183456
21 *651:15 *674:15 0
22 *652:121 *674:15 0.00048258
23 *670:13 *674:15 0.000441248
24 *673:15 *674:11 0.00370513
*RES
1 *740:mem_rdata[22] *674:9 5.25553 
2 *674:9 *674:11 1687.38 
3 *674:11 *674:13 3.41 
4 *674:13 *674:15 98.8144 
5 *674:15 *739:mem_rdata_i[22] 36.8326 
*END

*D_NET *675 0.663334
*CONN
*I *739:mem_rdata_i[23] I *D ntt_wb_bridge
*I *740:mem_rdata[23] O *D ntt_engine_256
*CAP
1 *739:mem_rdata_i[23] 0.0024837
2 *740:mem_rdata[23] 0.00132574
3 *675:31 0.00443244
4 *675:29 0.00194874
5 *675:27 0.0320697
6 *675:25 0.0321975
7 *675:19 0.0214317
8 *675:17 0.0213039
9 *675:15 0.0320646
10 *675:13 0.0333903
11 *675:13 *695:39 0.000778798
12 *675:13 *704:39 0.00151872
13 *675:15 *688:11 0.0229691
14 *675:15 *695:35 0.176257
15 *675:19 *676:21 0.000729057
16 *675:19 *676:23 0.0268385
17 *675:19 *725:33 0.000167611
18 *675:27 *676:23 0.00824448
19 *675:27 *687:13 0.00140401
20 *675:31 *677:29 0.00898527
21 *675:31 *699:11 0.00193896
22 *80:205 *675:13 0.000312012
23 *82:25 *675:15 0.000116642
24 *105:19 *675:31 0.000381707
25 *118:201 *675:13 0.000397624
26 *120:17 *675:15 0.0990721
27 *120:23 *675:13 0
28 *353:21 *675:27 0.00631417
29 *364:23 *739:mem_rdata_i[23] 5.10726e-05
30 *372:19 *739:mem_rdata_i[23] 0.00014183
31 *373:17 *675:27 0.00349273
32 *376:23 *675:27 0
33 *379:23 *675:27 0
34 *384:23 *675:27 0
35 *398:23 *675:27 0.00799561
36 *540:181 *675:19 0.000407654
37 *647:11 *675:19 0.0702933
38 *649:9 *675:25 2.69575e-05
39 *649:11 *675:19 0.000121508
40 *649:11 *675:27 0.00346029
41 *661:19 *675:15 0.000130421
42 *662:15 *675:15 0
43 *662:19 *675:19 0.0180012
44 *662:27 *675:27 0.010197
45 *668:19 *675:31 0.00994062
*RES
1 *740:mem_rdata[23] *675:13 17.9614 
2 *675:13 *675:15 2166.41 
3 *675:15 *675:17 3.41 
4 *675:17 *675:19 158.666 
5 *675:19 *675:25 10.3118 
6 *675:25 *675:27 695.054 
7 *675:27 *675:29 4.5 
8 *675:29 *675:31 123.679 
9 *675:31 *739:mem_rdata_i[23] 31.744 
*END

*D_NET *676 0.372072
*CONN
*I *739:mem_rdata_i[24] I *D ntt_wb_bridge
*I *740:mem_rdata[24] O *D ntt_engine_256
*CAP
1 *739:mem_rdata_i[24] 0.00151893
2 *740:mem_rdata[24] 0.0055123
3 *676:35 0.00383082
4 *676:33 0.00231189
5 *676:31 0.00440397
6 *676:29 0.00468119
7 *676:23 0.026568
8 *676:21 0.031803
9 *676:21 *710:35 0.00144683
10 *676:21 *725:33 0.00346629
11 *676:21 *726:27 0.00934086
12 *676:21 *736:27 0.00107928
13 *676:23 *725:23 0.132194
14 *676:23 *725:33 0.000690989
15 *676:31 *702:23 0.000574996
16 *676:31 *711:15 0.000121973
17 *676:31 *716:15 8.40933e-05
18 *676:31 *725:15 0.0335665
19 *676:35 *734:19 0.00508059
20 *676:35 *735:11 0.0021309
21 *739:mem_rdata_i[10] *676:35 0.00166828
22 *81:23 *676:21 0.00151402
23 *284:17 *676:35 0.00179146
24 *373:17 *676:23 0.0020642
25 *376:15 *676:31 0.00584975
26 *384:21 *676:31 0.000231989
27 *386:25 *676:31 0.000479999
28 *389:23 *676:31 0.00016984
29 *540:181 *676:21 0.00143224
30 *649:11 *676:23 0.0152394
31 *649:15 *676:35 0.00444753
32 *657:15 *676:31 0.030963
33 *675:19 *676:21 0.000729057
34 *675:19 *676:23 0.0268385
35 *675:27 *676:23 0.00824448
*RES
1 *740:mem_rdata[24] *676:21 34.4513 
2 *676:21 *676:23 212.824 
3 *676:23 *676:29 12.4368 
4 *676:29 *676:31 322.125 
5 *676:31 *676:33 4.5 
6 *676:33 *676:35 114.116 
7 *676:35 *739:mem_rdata_i[24] 6.70313 
*END

*D_NET *677 0.654354
*CONN
*I *739:mem_rdata_i[25] I *D ntt_wb_bridge
*I *740:mem_rdata[25] O *D ntt_engine_256
*CAP
1 *739:mem_rdata_i[25] 0.00243151
2 *740:mem_rdata[25] 0.00172925
3 *677:29 0.00470838
4 *677:27 0.00299108
5 *677:15 0.0255481
6 *677:13 0.0248339
7 *677:11 0.019271
8 *677:9 0.0210002
9 *677:11 *688:11 0.0867988
10 *677:15 *683:15 0.179685
11 *677:15 *706:15 0.17966
12 *677:27 *739:mem_rdata_i[30] 0
13 *677:27 *699:11 0.000314471
14 *677:27 *703:11 9.69507e-06
15 *677:29 *699:11 0.00152501
16 *105:19 *677:29 0.00510244
17 *118:161 *677:11 0.0206821
18 *354:25 *677:27 0.000276214
19 *361:15 *677:27 2.74485e-05
20 *661:11 *677:11 0.0255611
21 *661:19 *677:11 0.0034922
22 *664:11 *677:11 0.0395231
23 *668:15 *677:27 0
24 *668:19 *677:29 0.000197832
25 *675:31 *677:29 0.00898527
*RES
1 *740:mem_rdata[25] *677:9 7.13083 
2 *677:9 *677:11 181.047 
3 *677:11 *677:13 3.41 
4 *677:13 *677:15 280.53 
5 *677:15 *677:27 12.685 
6 *677:27 *677:29 117.304 
7 *677:29 *739:mem_rdata_i[25] 8.83067 
*END

*D_NET *678 0.259063
*CONN
*I *739:mem_rdata_i[26] I *D ntt_wb_bridge
*I *740:mem_rdata[26] O *D ntt_engine_256
*CAP
1 *739:mem_rdata_i[26] 8.25766e-05
2 *740:mem_rdata[26] 0.00150902
3 *678:23 0.00369035
4 *678:21 0.00360777
5 *678:19 0.00386474
6 *678:17 0.00392998
7 *678:11 0.0157348
8 *678:9 0.0171786
9 *678:11 *702:31 0.00786914
10 *678:11 *711:15 0.0238358
11 *678:11 *716:23 0.0151146
12 *678:11 *733:31 0.0700087
13 *678:19 *702:23 0.00742435
14 *678:19 *711:15 0.00277061
15 *678:23 *687:15 0.00803515
16 *356:31 *678:23 0
17 *357:25 *678:19 0.00362432
18 *373:17 *678:11 0.00121837
19 *379:15 *678:11 0.00681251
20 *386:25 *678:19 0.0161661
21 *657:15 *678:19 0.0295736
22 *657:23 *678:11 0.0170121
*RES
1 *740:mem_rdata[26] *678:9 29.9279 
2 *678:9 *678:11 145.982 
3 *678:11 *678:17 8.79393 
4 *678:17 *678:19 278.179 
5 *678:19 *678:21 4.5 
6 *678:21 *678:23 101.062 
7 *678:23 *739:mem_rdata_i[26] 3.61367 
*END

*D_NET *679 0.768533
*CONN
*I *739:mem_rdata_i[27] I *D ntt_wb_bridge
*I *740:mem_rdata[27] O *D ntt_engine_256
*CAP
1 *739:mem_rdata_i[27] 0.00388807
2 *740:mem_rdata[27] 0.000492419
3 *679:63 0.00890979
4 *679:61 0.00675857
5 *679:47 0.0096656
6 *679:45 0.00993657
7 *679:39 0.0402105
8 *679:37 0.0390354
9 *679:31 0.00281387
10 *679:29 0.00240781
11 *679:23 0.0138426
12 *679:21 0.0142005
13 *679:11 0.0309398
14 *679:9 0.0306476
15 *679:11 *740:mem_wdata[31] 0.00934871
16 *679:11 *682:11 0.00670707
17 *679:11 *685:13 0.0020724
18 *679:21 *740:mem_slot[1] 0.000279518
19 *679:21 *715:93 0.000361299
20 *679:23 *685:29 0.0357684
21 *679:45 *686:17 0.00184201
22 *679:45 *690:17 0.00299119
23 *679:45 *699:15 0.000767627
24 *679:45 *721:141 0.000109615
25 *679:47 *690:17 0.00205005
26 *679:47 *690:19 0.0514091
27 *679:47 *699:15 0.057029
28 *679:63 *695:19 0
29 *69:21 *679:39 0.0256629
30 *74:17 *679:23 0
31 *78:129 *679:31 0.0130403
32 *78:143 *679:21 5.10691e-05
33 *102:27 *679:61 0.0004223
34 *103:17 *679:39 0.0207413
35 *114:145 *679:39 6.05121e-05
36 *115:145 *679:31 0.0130383
37 *398:23 *679:61 0.000150645
38 *646:11 *679:11 0.0790333
39 *646:57 *679:61 0.000131383
40 *648:21 *679:21 0.000343066
41 *653:21 *679:21 1.34737e-05
42 *655:131 *679:39 0.126449
43 *658:143 *679:11 0.036293
44 *659:109 *679:45 8.62344e-05
45 *663:29 *679:21 2.84552e-05
46 *665:29 *679:45 5.86008e-05
47 *667:11 *679:11 0.0684431
48 *667:15 *679:21 0
*RES
1 *740:mem_rdata[27] *679:9 12.91 
2 *679:9 *679:11 202.338 
3 *679:11 *679:21 18.666 
4 *679:21 *679:23 438.482 
5 *679:23 *679:29 7.87593 
6 *679:29 *679:31 159.804 
7 *679:31 *679:37 8.8128 
8 *679:37 *679:39 1551.38 
9 *679:39 *679:45 11.4642 
10 *679:45 *679:47 88.653 
11 *679:47 *679:61 28.6638 
12 *679:61 *679:63 97.2679 
13 *679:63 *739:mem_rdata_i[27] 12.2178 
*END

*D_NET *680 0.395783
*CONN
*I *739:mem_rdata_i[28] I *D ntt_wb_bridge
*I *740:mem_rdata[28] O *D ntt_engine_256
*CAP
1 *739:mem_rdata_i[28] 5.14922e-05
2 *740:mem_rdata[28] 0.0014719
3 *680:39 0.0331861
4 *680:37 0.0331346
5 *680:35 0.00839335
6 *680:11 0.0721998
7 *680:9 0.0652784
8 *680:11 *694:167 0.0252303
9 *680:11 *720:11 0.0252303
10 *680:11 *721:143 0.028241
11 *680:35 *681:23 0.00561802
12 *680:35 *700:11 0.00190602
13 *680:35 *721:141 0
14 *680:39 *721:109 0
15 *75:17 *680:11 0.0282232
16 *78:127 *680:35 0
17 *112:67 *680:35 0.000399815
18 *655:107 *680:35 0.0013676
19 *655:121 *680:35 0.00164856
20 *659:105 *680:35 0.00131399
21 *659:105 *680:39 0
22 *669:21 *680:11 0.0628592
23 *669:51 *680:35 0
24 *672:25 *680:35 2.91808e-05
25 *673:27 *680:35 0
*RES
1 *740:mem_rdata[28] *680:9 6.95537 
2 *680:9 *680:11 243.476 
3 *680:11 *680:35 49.3117 
4 *680:35 *680:37 3.41 
5 *680:37 *680:39 98.0577 
6 *680:39 *739:mem_rdata_i[28] 0.0767667 
*END

*D_NET *681 0.233696
*CONN
*I *739:mem_rdata_i[29] I *D ntt_wb_bridge
*I *740:mem_rdata[29] O *D ntt_engine_256
*CAP
1 *739:mem_rdata_i[29] 5.14922e-05
2 *740:mem_rdata[29] 0.00125529
3 *681:25 0.0332801
4 *681:23 0.0366104
5 *681:13 0.0127541
6 *681:11 0.0106275
7 *681:11 *682:21 0.000235058
8 *681:23 *700:11 0.00175916
9 *681:23 *708:15 0.00126362
10 *681:23 *721:141 1.31821e-05
11 *681:25 *694:125 0.00107079
12 *681:25 *721:109 7.5689e-05
13 *78:123 *681:25 0.00555748
14 *78:129 *681:13 0.0109743
15 *104:23 *681:13 0.0457187
16 *652:121 *681:23 0.000106029
17 *652:123 *681:13 0.0457187
18 *655:107 *681:25 0.00240968
19 *659:105 *681:25 0
20 *669:51 *681:25 0
21 *671:17 *681:13 0.00981053
22 *672:25 *681:23 0.00878655
23 *680:35 *681:23 0.00561802
*RES
1 *740:mem_rdata[29] *681:11 6.13757 
2 *681:11 *681:13 95.5009 
3 *681:13 *681:23 31.8876 
4 *681:23 *681:25 102.814 
5 *681:25 *739:mem_rdata_i[29] 0.0767667 
*END

*D_NET *682 0.714296
*CONN
*I *739:mem_rdata_i[2] I *D ntt_wb_bridge
*I *740:mem_rdata[2] O *D ntt_engine_256
*CAP
1 *739:mem_rdata_i[2] 0.0013527
2 *740:mem_rdata[2] 0.00051749
3 *682:107 0.00417423
4 *682:105 0.00449546
5 *682:99 0.00436684
6 *682:97 0.00345736
7 *682:91 0.00333662
8 *682:89 0.00257217
9 *682:87 0.00305785
10 *682:85 0.00518537
11 *682:81 0.00373707
12 *682:73 0.00331398
13 *682:63 0.00333658
14 *682:61 0.00163215
15 *682:59 0.004395
16 *682:57 0.00655747
17 *682:53 0.00389751
18 *682:43 0.00560844
19 *682:41 0.0038734
20 *682:39 0.00255603
21 *682:37 0.0028041
22 *682:31 0.00141647
23 *682:29 0.00133073
24 *682:23 0.00761543
25 *682:21 0.00761953
26 *682:15 0.0258858
27 *682:13 0.0257194
28 *682:11 0.0146
29 *682:9 0.0151175
30 *682:11 *740:mem_wdata[31] 0.000190922
31 *682:11 *715:95 0.0803418
32 *682:15 *740:mem_wdata[5] 1.94945e-05
33 *682:15 *685:45 0.00572371
34 *682:15 *699:19 0.0231454
35 *682:15 *708:19 0.000529566
36 *682:15 *715:83 0.0131701
37 *682:15 *730:19 0.0538026
38 *682:23 *714:131 0.015748
39 *682:23 *715:75 0.0227016
40 *682:29 *740:mem_wdata[6] 0.000236551
41 *682:31 *699:19 0.00753537
42 *682:31 *724:11 0.0014785
43 *682:31 *730:19 0.00753537
44 *682:37 *740:mem_wdata[16] 0.00036227
45 *682:39 *685:57 0
46 *682:39 *685:63 3.78742e-05
47 *682:39 *714:123 0.000262686
48 *682:43 *685:65 4.51317e-05
49 *682:43 *708:15 0.00572983
50 *682:43 *714:119 0.0233509
51 *682:43 *715:63 0.027196
52 la_data_out[84] *682:105 0
53 la_data_out[93] *682:81 0.000786455
54 *740:mem_addr[4] *682:15 4.38265e-05
55 *274:19 *682:63 0.0042801
56 *363:65 *739:mem_rdata_i[2] 0
57 *364:23 *739:mem_rdata_i[2] 4.55034e-05
58 *372:19 *739:mem_rdata_i[2] 0.000118506
59 *529:19 *682:87 0.00804856
60 *530:19 *682:97 0.00200811
61 *653:21 *682:11 0.000695732
62 *658:123 *682:23 0
63 *658:123 *682:39 0.00561287
64 *658:131 *682:15 0.106618
65 *658:143 *682:11 0.00712371
66 *667:11 *682:11 0.0686197
67 *669:19 *682:15 0.000759557
68 *673:11 *682:11 0.00556898
69 *673:15 *682:15 0
70 *673:15 *682:23 0.0143786
71 *674:11 *682:15 0.0199622
72 *674:11 *682:23 7.18046e-06
73 *679:11 *682:11 0.00670707
74 *681:11 *682:21 0.000235058
*RES
1 *740:mem_rdata[2] *682:9 12.9279 
2 *682:9 *682:11 141.37 
3 *682:11 *682:13 3.41 
4 *682:13 *682:15 1604.8 
5 *682:15 *682:21 7.22733 
6 *682:21 *682:23 375.946 
7 *682:23 *682:29 7.22733 
8 *682:29 *682:31 92.4107 
9 *682:31 *682:37 7.44353 
10 *682:37 *682:39 76.4732 
11 *682:39 *682:41 4.5 
12 *682:41 *682:43 255.589 
13 *682:43 *682:53 45.4821 
14 *682:53 *682:57 46.5179 
15 *682:57 *682:59 85.9643 
16 *682:59 *682:61 4.5 
17 *682:61 *682:63 52.6429 
18 *682:63 *682:73 47.2679 
19 *682:73 *682:81 43.6071 
20 *682:81 *682:85 44.4643 
21 *682:85 *682:87 98.7857 
22 *682:87 *682:89 4.5 
23 *682:89 *682:91 49.4107 
24 *682:91 *682:97 33.7143 
25 *682:97 *682:99 49.8214 
26 *682:99 *682:105 43.125 
27 *682:105 *682:107 46.5357 
28 *682:107 *739:mem_rdata_i[2] 12.3339 
*END

*D_NET *683 0.47045
*CONN
*I *739:mem_rdata_i[30] I *D ntt_wb_bridge
*I *740:mem_rdata[30] O *D ntt_engine_256
*CAP
1 *739:mem_rdata_i[30] 0.00785233
2 *740:mem_rdata[30] 0.0112606
3 *683:15 0.0326672
4 *683:13 0.0360755
5 *739:mem_rdata_i[30] *699:11 0
6 *739:mem_rdata_i[30] *733:19 0.000895129
7 *683:13 *688:11 0.0157452
8 *683:13 *736:27 0.000360771
9 *683:15 *709:15 0.000327849
10 *683:15 *718:15 0
11 *102:23 *739:mem_rdata_i[30] 0.00642401
12 *365:23 *739:mem_rdata_i[30] 0.00101022
13 *371:27 *739:mem_rdata_i[30] 0.000895129
14 *650:15 *683:15 0.177251
15 *677:15 *683:15 0.179685
16 *677:27 *739:mem_rdata_i[30] 0
*RES
1 *740:mem_rdata[30] *683:13 43.1118 
2 *683:13 *683:15 279.522 
3 *683:15 *739:mem_rdata_i[30] 27.3637 
*END

*D_NET *684 0.0926774
*CONN
*I *739:mem_rdata_i[31] I *D ntt_wb_bridge
*I *740:mem_rdata[31] O *D ntt_engine_256
*CAP
1 *739:mem_rdata_i[31] 0.00770739
2 *740:mem_rdata[31] 0.000651492
3 *684:15 0.0110844
4 *684:13 0.00337698
5 *684:11 0.00631341
6 *684:9 0.0069649
7 *684:9 *685:71 0.000918544
8 *684:11 *740:mem_re 0.000403611
9 *684:11 *698:19 0.0202081
10 *684:11 *699:15 0
11 la_data_out[88] *684:15 0
12 *660:11 *684:11 0.031591
13 *667:43 *684:15 0.00327091
14 *673:45 *684:11 0.000186679
*RES
1 *740:mem_rdata[31] *684:9 16.5707 
2 *684:9 *684:11 49.1965 
3 *684:11 *684:13 3.41 
4 *684:13 *684:15 78.4464 
5 *684:15 *739:mem_rdata_i[31] 24.1809 
*END

*D_NET *685 0.778247
*CONN
*I *739:mem_rdata_i[3] I *D ntt_wb_bridge
*I *740:mem_rdata[3] O *D ntt_engine_256
*CAP
1 *739:mem_rdata_i[3] 0.00132559
2 *740:mem_rdata[3] 0.000431014
3 *685:121 0.00729601
4 *685:119 0.00597042
5 *685:117 0.00181289
6 *685:115 0.00181289
7 *685:113 0.00587179
8 *685:111 0.00789054
9 *685:107 0.00275334
10 *685:101 0.00212043
11 *685:99 0.00262173
12 *685:91 0.00339644
13 *685:87 0.00331207
14 *685:81 0.00376179
15 *685:79 0.00454364
16 *685:73 0.00468413
17 *685:71 0.00367739
18 *685:65 0.00723395
19 *685:63 0.00640055
20 *685:57 0.00294371
21 *685:55 0.00291856
22 *685:53 0.0042219
23 *685:51 0.00450566
24 *685:45 0.0340339
25 *685:43 0.033956
26 *685:37 0.00603032
27 *685:35 0.00601552
28 *685:29 0.0287795
29 *685:27 0.0288231
30 *685:21 0.0113597
31 *685:19 0.0111141
32 *685:13 0.0139227
33 *685:11 0.0142965
34 *685:13 *714:155 0.00580056
35 *685:13 *715:95 0.00582686
36 *685:21 *714:145 0.000510291
37 *685:21 *714:147 0.0840203
38 *685:27 *740:mem_slot[1] 2.15245e-05
39 *685:29 *708:19 0.0223462
40 *685:45 *740:mem_wdata[13] 0.00425167
41 *685:45 *690:11 0.00719606
42 *685:45 *699:19 0.0101451
43 *685:45 *705:19 0.00313656
44 *685:45 *708:19 0.010355
45 *685:45 *730:19 0.00549654
46 *685:45 *738:19 0.0116012
47 *685:53 *714:131 0.000865517
48 *685:53 *715:67 0
49 *685:53 *715:75 0.0088709
50 *685:57 *715:67 0.00692353
51 *685:63 *715:67 5.59075e-05
52 *685:65 *708:15 0.00422816
53 *685:65 *714:119 0.020772
54 *685:65 *715:63 4.7812e-05
55 *685:65 *723:131 0.000563067
56 *685:99 *708:11 0.000286337
57 *685:101 *714:59 0.00203275
58 *685:101 *715:43 0.00239623
59 *685:113 *714:49 0.000114118
60 *685:117 *692:11 0.00477476
61 la_data_out[95] *685:111 0
62 la_data_out[96] *685:101 0.00281376
63 la_data_out[99] *685:87 0.00302408
64 *740:clk *685:21 0.000523138
65 *74:17 *685:29 0
66 *102:27 *685:73 0.00235597
67 *114:157 *685:27 0
68 *364:23 *739:mem_rdata_i[3] 2.35213e-05
69 *372:19 *739:mem_rdata_i[3] 6.80962e-05
70 *646:11 *685:13 0
71 *646:35 *685:37 0
72 *658:59 *685:101 0.00277785
73 *658:123 *685:53 0.00767082
74 *658:123 *685:57 0
75 *658:131 *685:29 0.039042
76 *658:135 *685:21 0.0784115
77 *658:135 *685:27 0.000184674
78 *658:143 *685:13 0.00267697
79 *659:111 *685:45 0
80 *663:11 *685:13 0.0501725
81 *663:11 *685:21 0.0122419
82 *671:15 *685:21 0.00386222
83 *672:17 *685:51 0
84 *673:11 *685:13 0.0100286
85 *673:11 *685:21 0.000937729
86 *673:15 *685:37 0.0143883
87 *679:11 *685:13 0.0020724
88 *679:23 *685:29 0.0357684
89 *682:15 *685:45 0.00572371
90 *682:39 *685:57 0
91 *682:39 *685:63 3.78742e-05
92 *682:43 *685:65 4.51317e-05
93 *684:9 *685:71 0.000918544
*RES
1 *740:mem_rdata[3] *685:11 12.0529 
2 *685:11 *685:13 93.6616 
3 *685:13 *685:19 8.79393 
4 *685:19 *685:21 798.554 
5 *685:21 *685:27 11.1071 
6 *685:27 *685:29 1127.29 
7 *685:29 *685:35 12.4107 
8 *685:35 *685:37 179.384 
9 *685:37 *685:43 7.33543 
10 *685:43 *685:45 100.508 
11 *685:45 *685:51 7.47957 
12 *685:51 *685:53 178.732 
13 *685:53 *685:55 1.35714 
14 *685:55 *685:57 86.375 
15 *685:57 *685:63 6.6875 
16 *685:63 *685:65 197.268 
17 *685:65 *685:71 29.1607 
18 *685:71 *685:73 52.2857 
19 *685:73 *685:79 46.1607 
20 *685:79 *685:81 49 
21 *685:81 *685:87 46.1607 
22 *685:87 *685:91 44.875 
23 *685:91 *685:99 33.0536 
24 *685:99 *685:101 86.6429 
25 *685:101 *685:107 22.2679 
26 *685:107 *685:111 44.6964 
27 *685:111 *685:113 110.607 
28 *685:113 *685:115 4.5 
29 *685:115 *685:117 58.7143 
30 *685:117 *685:119 4.5 
31 *685:119 *685:121 108.554 
32 *685:121 *739:mem_rdata_i[3] 11.6202 
*END

*D_NET *686 0.481092
*CONN
*I *739:mem_rdata_i[4] I *D ntt_wb_bridge
*I *740:mem_rdata[4] O *D ntt_engine_256
*CAP
1 *739:mem_rdata_i[4] 4.70853e-05
2 *740:mem_rdata[4] 0.00169339
3 *686:79 0.0259924
4 *686:77 0.0351083
5 *686:47 0.0182313
6 *686:19 0.0141194
7 *686:17 0.00593207
8 *686:11 0.0268649
9 *686:9 0.0276773
10 *686:11 *694:167 5.15009e-05
11 *686:11 *720:11 6.35687e-05
12 *686:11 *721:143 0.159402
13 *686:17 *699:15 0.000286707
14 *686:19 *730:19 0
15 *686:77 *721:69 0.000684323
16 *686:77 *723:79 0.000365481
17 la_data_out[113] *686:77 0.000466582
18 la_data_out[115] *686:47 0.00023328
19 la_data_out[116] *686:47 0.00167631
20 *77:137 *686:47 0.00086065
21 *77:143 *686:47 0.00240547
22 *77:155 *686:19 0.00330342
23 *112:69 *686:9 0.000237214
24 *115:137 *686:11 0.00010113
25 *296:19 *686:47 0.000378235
26 *659:77 *686:77 6.57893e-06
27 *665:11 *686:11 0.151867
28 *665:29 *686:47 0.000251889
29 *665:57 *686:47 0.00040254
30 *669:51 *686:47 0.000540162
31 *674:11 *686:19 0
32 *679:45 *686:17 0.00184201
*RES
1 *740:mem_rdata[4] *686:9 7.56167 
2 *686:9 *686:11 1956.95 
3 *686:11 *686:17 9.82173 
4 *686:17 *686:19 116.696 
5 *686:19 *686:47 48.9686 
6 *686:47 *686:77 46.2151 
7 *686:77 *686:79 76.2935 
8 *686:79 *739:mem_rdata_i[4] 0.0767667 
*END

*D_NET *687 0.094556
*CONN
*I *739:mem_rdata_i[5] I *D ntt_wb_bridge
*I *740:mem_rdata[5] O *D ntt_engine_256
*CAP
1 *739:mem_rdata_i[5] 0.00041243
2 *740:mem_rdata[5] 0.00140758
3 *687:15 0.00697109
4 *687:13 0.0109202
5 *687:9 0.00576912
6 *739:mem_rdata_i[5] *701:12 0.000100707
7 *687:15 *701:16 0.0003493
8 *687:15 *719:11 0.0204556
9 *687:15 *731:41 0.000611571
10 *687:15 *737:20 0.000121492
11 *353:21 *687:13 0.0120775
12 *356:31 *687:15 0
13 *373:17 *687:13 0.0249252
14 *649:11 *687:13 0.000995082
15 *662:25 *687:9 0
16 *675:27 *687:13 0.00140401
17 *678:23 *687:15 0.00803515
*RES
1 *740:mem_rdata[5] *687:9 27.4993 
2 *687:9 *687:13 42.2289 
3 *687:13 *687:15 254.518 
4 *687:15 *739:mem_rdata_i[5] 4.23407 
*END

*D_NET *688 0.702133
*CONN
*I *739:mem_rdata_i[6] I *D ntt_wb_bridge
*I *740:mem_rdata[6] O *D ntt_engine_256
*CAP
1 *739:mem_rdata_i[6] 0.00329669
2 *740:mem_rdata[6] 0.00160236
3 *688:27 0.00715081
4 *688:25 0.00385413
5 *688:23 0.00301178
6 *688:21 0.00324472
7 *688:15 0.0220026
8 *688:13 0.0217696
9 *688:11 0.0424865
10 *688:9 0.0440889
11 *739:mem_rdata_i[6] *701:12 0.000201414
12 *739:mem_rdata_i[6] *709:11 0.000168293
13 *739:mem_rdata_i[6] *726:11 0.000170008
14 *688:11 *695:35 0.0205555
15 *688:23 *710:23 0.0199339
16 *688:27 *706:11 0.0200717
17 *688:27 *707:11 0
18 *93:23 *688:11 0
19 *352:21 *688:23 0.00321357
20 *353:21 *688:23 0.00041984
21 *358:13 *688:21 9.07058e-05
22 *383:25 *688:27 0.018301
23 *398:21 *688:15 0.000995054
24 *398:23 *688:23 0.000199453
25 *661:11 *688:11 0.00295618
26 *661:19 *688:11 0.000143421
27 *661:23 *688:15 0.157397
28 *661:31 *688:23 0
29 *662:27 *688:23 1.98839e-05
30 *664:11 *688:11 0.000498301
31 *664:15 *688:15 0.160111
32 *664:23 *688:23 0.0186659
33 *675:15 *688:11 0.0229691
34 *677:11 *688:11 0.0867988
35 *683:13 *688:11 0.0157452
*RES
1 *740:mem_rdata[6] *688:9 6.9867 
2 *688:9 *688:11 199.477 
3 *688:11 *688:13 3.41 
4 *688:13 *688:15 249.001 
5 *688:15 *688:21 12.1332 
6 *688:21 *688:23 193.982 
7 *688:23 *688:25 4.5 
8 *688:25 *688:27 247.839 
9 *688:27 *739:mem_rdata_i[6] 48.0061 
*END

*D_NET *689 0.671375
*CONN
*I *739:mem_rdata_i[7] I *D ntt_wb_bridge
*I *740:mem_rdata[7] O *D ntt_engine_256
*CAP
1 *739:mem_rdata_i[7] 0.00138447
2 *740:mem_rdata[7] 0.000685686
3 *689:35 0.00539108
4 *689:33 0.00400661
5 *689:31 0.0194677
6 *689:29 0.0195711
7 *689:23 0.0123801
8 *689:21 0.0122767
9 *689:19 0.0220849
10 *689:17 0.0221324
11 *689:11 0.0240038
12 *689:9 0.0246419
13 *739:mem_rdata_i[7] *739:mem_rdata_i[8] 0
14 *739:mem_rdata_i[7] *701:12 0.000255549
15 *739:mem_rdata_i[7] *711:11 0.000111764
16 *689:9 *734:49 1.86375e-05
17 *689:11 *702:43 0.00780393
18 *689:11 *706:27 0
19 *689:11 *709:19 0.00176434
20 *689:11 *709:27 0.0548692
21 *689:11 *726:27 0.00409835
22 *689:11 *729:35 0.00396929
23 *689:11 *737:54 0
24 *689:19 *702:35 0.000574134
25 *689:19 *709:19 0.0618203
26 *689:19 *716:27 0.0134384
27 *689:19 *717:27 0.00860023
28 *689:19 *729:27 0.00079797
29 *689:19 *733:35 0
30 *689:23 *729:23 0.0718062
31 *689:23 *737:42 0.0711317
32 *689:29 *729:21 0.000307818
33 *689:31 *726:15 7.95355e-05
34 *689:31 *728:15 0
35 *689:31 *729:15 0.0975894
36 *689:31 *737:34 0
37 *689:35 *716:11 0.0184548
38 *689:35 *735:11 0
39 la_data_out[23] *689:29 1.01241e-05
40 *739:done_i *689:35 0.000143267
41 *739:mem_rdata_i[11] *689:35 0.000194902
42 *81:23 *689:19 0
43 *116:137 *689:19 0
44 *300:15 *689:31 3.30337e-05
45 *316:19 *689:31 0
46 *317:15 *689:31 0
47 *335:15 *689:31 0.00578569
48 *336:21 *689:29 0.000105538
49 *338:29 *689:23 0.000216999
50 *339:29 *689:31 0.00118739
51 *340:25 *689:31 0.000813131
52 *345:23 *689:31 0
53 *346:25 *689:31 0.000397559
54 *347:23 *689:31 0.000567573
55 *348:27 *689:31 0.00106296
56 *349:39 *689:29 4.47031e-05
57 *350:19 *689:31 0.0136483
58 *351:15 *689:31 0.000218677
59 *352:7 *689:31 0.000352321
60 *355:17 *689:31 0
61 *357:15 *689:31 0.000373126
62 *360:19 *689:31 0.0413132
63 *362:15 *689:31 0.00961988
64 *364:23 *689:35 0.00976899
65 *656:35 *689:11 0
*RES
1 *740:mem_rdata[7] *689:9 4.96883 
2 *689:9 *689:11 130.337 
3 *689:11 *689:17 6.90303 
4 *689:17 *689:19 783.946 
5 *689:19 *689:21 3.41 
6 *689:21 *689:23 114.056 
7 *689:23 *689:29 12.1332 
8 *689:29 *689:31 921.768 
9 *689:31 *689:33 4.5 
10 *689:33 *689:35 228.562 
11 *689:35 *739:mem_rdata_i[7] 6.30207 
*END

*D_NET *690 0.326891
*CONN
*I *739:mem_rdata_i[8] I *D ntt_wb_bridge
*I *740:mem_rdata[8] O *D ntt_engine_256
*CAP
1 *739:mem_rdata_i[8] 0.00261453
2 *740:mem_rdata[8] 0.000898777
3 *690:23 0.00992004
4 *690:19 0.0249152
5 *690:17 0.0209698
6 *690:11 0.0222142
7 *690:9 0.0197529
8 *690:11 *740:mem_wdata[13] 0.00384465
9 *690:11 *705:11 0.000956829
10 *690:11 *705:19 0.0427068
11 *690:11 *724:11 0.000991536
12 *690:11 *738:19 0.075461
13 *690:17 *703:15 0
14 *690:19 *699:15 0.0014826
15 *690:19 *703:15 0
16 *690:19 *706:15 0.00118973
17 *690:23 *703:11 0.0209772
18 *739:mem_rdata_i[22] *690:23 0.01134
19 *739:mem_rdata_i[7] *739:mem_rdata_i[8] 0
20 *74:17 *690:11 0
21 *112:67 *690:17 0.000288448
22 *373:21 *690:23 0.000719283
23 *652:121 *690:17 0.000822757
24 *654:11 *690:9 0.000207921
25 *659:109 *690:17 0.000438316
26 *672:17 *690:11 0.000532239
27 *679:45 *690:17 0.00299119
28 *679:47 *690:17 0.00205005
29 *679:47 *690:19 0.0514091
30 *685:45 *690:11 0.00719606
*RES
1 *740:mem_rdata[8] *690:9 5.36833 
2 *690:9 *690:11 925.411 
3 *690:11 *690:17 17.3016 
4 *690:17 *690:19 85.8063 
5 *690:19 *690:23 47.6683 
6 *690:23 *739:mem_rdata_i[8] 9.15497 
*END

*D_NET *691 0.780207
*CONN
*I *739:mem_rdata_i[9] I *D ntt_wb_bridge
*I *740:mem_rdata[9] O *D ntt_engine_256
*CAP
1 *739:mem_rdata_i[9] 0.00105442
2 *740:mem_rdata[9] 0.000351685
3 *691:27 0.00543583
4 *691:25 0.00438141
5 *691:23 0.0572934
6 *691:21 0.0572934
7 *691:19 0.0132308
8 *691:17 0.0133192
9 *691:11 0.0353106
10 *691:9 0.035574
11 *691:11 *702:43 0.00868005
12 *691:11 *704:35 0.0220185
13 *691:11 *709:27 0.0633277
14 *691:11 *710:35 0.00700917
15 *691:11 *717:35 0.0394699
16 *691:11 *733:35 0.0228083
17 *691:17 *740:mem_wdata[8] 2.63501e-05
18 *691:19 *702:35 0.0761313
19 *691:19 *709:19 0.0688581
20 *691:19 *709:27 0.00322697
21 *691:19 *726:27 0.0168992
22 *691:23 *709:15 0
23 *691:23 *718:15 0.176561
24 *691:27 *702:11 0.000539138
25 *691:27 *709:11 0.0198055
26 *691:27 *717:11 0.000284972
27 *691:27 *725:11 0.000236227
28 *691:27 *726:11 0.0175135
29 *691:27 *734:27 0
30 *80:187 *691:11 0.00114401
31 *81:23 *691:11 0.0105475
32 *116:135 *691:23 0.00152668
33 *540:181 *691:23 0.000347402
*RES
1 *740:mem_rdata[9] *691:9 4.25443 
2 *691:9 *691:11 197.879 
3 *691:11 *691:17 6.9751 
4 *691:17 *691:19 933.304 
5 *691:19 *691:21 3.41 
6 *691:21 *691:23 275.414 
7 *691:23 *691:25 3.41 
8 *691:25 *691:27 250.268 
9 *691:27 *739:mem_rdata_i[9] 5.65973 
*END

*D_NET *692 0.102059
*CONN
*I *740:mem_re I *D ntt_engine_256
*I *739:mem_re_o O *D ntt_wb_bridge
*CAP
1 *740:mem_re 0.00363698
2 *739:mem_re_o 0.00755845
3 *692:11 0.033789
4 *692:9 0.0377105
5 *740:mem_re *698:19 0.01015
6 *740:mem_re *699:15 0
7 la_data_out[88] *692:11 0
8 *78:45 *692:9 0
9 *114:39 *692:11 0.00018752
10 *667:33 *740:mem_re 0.00384508
11 *673:45 *740:mem_re 3.42107e-06
12 *684:11 *740:mem_re 0.000403611
13 *685:117 *692:11 0.00477476
*RES
1 *739:mem_re_o *692:9 25.1898 
2 *692:9 *692:11 633.375 
3 *692:11 *740:mem_re 35.3384 
*END

*D_NET *693 0.116463
*CONN
*I *740:mem_slot[0] I *D ntt_engine_256
*I *739:mem_slot_o[0] O *D ntt_wb_bridge
*CAP
1 *740:mem_slot[0] 0.00198282
2 *739:mem_slot_o[0] 0.000202339
3 *693:11 0.022456
4 *693:9 0.0206755
5 *740:mem_slot[0] *735:17 0.00255326
6 *693:9 *737:6 0.000360771
7 *693:11 *696:11 0.0428071
8 *693:11 *737:6 0.00969219
9 *693:11 *737:20 0.0030318
10 *693:11 *737:32 0.00534352
11 *76:19 *693:11 0
12 *79:19 *693:11 0.000997825
13 *278:21 *693:11 0.000156487
14 *358:25 *740:mem_slot[0] 0.00451155
15 *363:39 *693:11 0.000308756
16 *363:65 *693:11 0.000291854
17 *398:21 *740:mem_slot[0] 0
18 *531:17 *693:11 0.000186258
19 *661:31 *740:mem_slot[0] 0.000904703
*RES
1 *739:mem_slot_o[0] *693:9 3.99593 
2 *693:9 *693:11 607.875 
3 *693:11 *740:mem_slot[0] 34.3039 
*END

*D_NET *694 0.578915
*CONN
*I *740:mem_slot[1] I *D ntt_engine_256
*I *739:mem_slot_o[1] O *D ntt_wb_bridge
*CAP
1 *740:mem_slot[1] 0.00115624
2 *739:mem_slot_o[1] 2.28625e-05
3 *694:167 0.0280467
4 *694:165 0.0279685
5 *694:161 0.00198823
6 *694:157 0.00266613
7 *694:141 0.00402219
8 *694:133 0.00371018
9 *694:125 0.00320685
10 *694:117 0.00318815
11 *694:103 0.00420291
12 *694:101 0.00427612
13 *694:93 0.00350844
14 *694:79 0.00520786
15 *694:77 0.00349193
16 *694:73 0.00279793
17 *694:63 0.00478947
18 *694:61 0.0045924
19 *694:47 0.0060405
20 *694:45 0.00808934
21 *694:33 0.00677481
22 *694:19 0.00498099
23 *694:17 0.00444215
24 *694:7 0.0230914
25 *694:5 0.0212339
26 *694:33 *721:11 0
27 *694:47 *721:37 0
28 *694:61 *705:7 0.000484798
29 *694:61 *721:49 0.000482221
30 *694:73 *723:69 4.98422e-05
31 *694:79 *721:63 0.00193211
32 *694:93 *721:77 0.000543621
33 *694:101 *721:79 0
34 *694:117 *723:105 0.000234866
35 *694:125 *721:109 6.71924e-05
36 *694:141 *721:125 0.000103723
37 *694:167 *720:11 0.175531
38 *694:167 *721:143 0.174604
39 la_data_out[105] *694:19 0
40 la_data_out[114] *694:103 0
41 la_data_out[114] *694:117 0
42 la_data_out[115] *694:133 0
43 la_data_out[116] *694:141 0
44 *112:33 *694:157 0
45 *112:33 *694:161 0.00109862
46 *114:137 *694:141 0.0014802
47 *114:153 *694:167 0
48 *291:13 *694:157 0.000201457
49 *291:19 *694:157 4.21517e-05
50 *298:31 *694:141 0
51 *298:31 *694:157 0.000945665
52 *646:47 *694:165 0
53 *652:7 *694:17 0.00314795
54 *652:73 *694:79 0.00184682
55 *653:23 *740:mem_slot[1] 5.03772e-05
56 *655:121 *694:157 0.000943281
57 *655:121 *694:161 0
58 *655:127 *694:165 0.00201311
59 *658:135 *740:mem_slot[1] 0.000783382
60 *659:7 *694:33 0.00137972
61 *659:105 *694:125 8.75887e-07
62 *659:105 *694:157 6.14836e-06
63 *663:29 *740:mem_slot[1] 0.000233782
64 *665:59 *694:93 0
65 *666:15 *694:101 0
66 *671:15 *740:mem_slot[1] 0.000101601
67 *671:21 *694:77 0.000196774
68 *672:25 *694:161 0.000259814
69 *679:21 *740:mem_slot[1] 0.000279518
70 *680:11 *694:167 0.0252303
71 *681:25 *694:125 0.00107079
72 *685:27 *740:mem_slot[1] 2.15245e-05
73 *686:11 *694:167 5.15009e-05
*RES
1 *739:mem_slot_o[1] *694:5 0.0767667 
2 *694:5 *694:7 63.2855 
3 *694:7 *694:17 30.4811 
4 *694:17 *694:19 51.7321 
5 *694:19 *694:33 45.7745 
6 *694:33 *694:45 49.4848 
7 *694:45 *694:47 76.0179 
8 *694:47 *694:61 40.6473 
9 *694:61 *694:63 46.875 
10 *694:63 *694:73 49.5997 
11 *694:73 *694:77 4.538 
12 *694:77 *694:79 74.1964 
13 *694:79 *694:93 35.8928 
14 *694:93 *694:101 26.1846 
15 *694:101 *694:103 56.5893 
16 *694:103 *694:117 28.1639 
17 *694:117 *694:125 35.971 
18 *694:125 *694:133 24.4352 
19 *694:133 *694:141 45.9735 
20 *694:141 *694:157 40.2155 
21 *694:157 *694:161 29.3661 
22 *694:161 *694:165 29.2679 
23 *694:165 *694:167 2151.23 
24 *694:167 *740:mem_slot[1] 34.5804 
*END

*D_NET *695 0.911168
*CONN
*I *740:mem_target I *D ntt_engine_256
*I *739:mem_target_o O *D ntt_wb_bridge
*CAP
1 *740:mem_target 0.000357576
2 *739:mem_target_o 0.00333641
3 *695:39 0.00834396
4 *695:37 0.00798638
5 *695:35 0.0295268
6 *695:33 0.0295268
7 *695:31 0.0122281
8 *695:29 0.0123862
9 *695:23 0.0366517
10 *695:21 0.0364936
11 *695:19 0.0193733
12 *695:17 0.0193733
13 *695:15 0.00333641
14 *695:15 *734:11 0.000122162
15 *695:19 *707:11 5.04683e-05
16 *695:23 *704:23 0.103192
17 *695:23 *704:31 0.00139927
18 *695:31 *696:23 0.0230054
19 *695:31 *704:31 0.0230165
20 *695:31 *717:23 0.00761558
21 *695:31 *727:31 0.0202047
22 *695:39 *740:slot_a[1] 9.94185e-05
23 *695:39 *704:39 0.0418753
24 *695:39 *710:39 0.0315073
25 *79:19 *695:15 0.000284346
26 *82:25 *695:35 0
27 *118:161 *695:35 0.121254
28 *354:25 *695:23 0.000248794
29 *354:27 *695:19 0.0499624
30 *361:15 *695:23 0.00688274
31 *372:19 *695:15 0.000218081
32 *656:25 *695:31 0
33 *658:21 *695:19 0
34 *661:19 *695:35 0.000981358
35 *662:13 *695:39 0.000393058
36 *662:15 *695:35 0.0209005
37 *664:15 *695:23 0.0411906
38 *664:15 *695:31 0.00022444
39 *668:13 *695:31 2.83129e-05
40 *675:13 *695:39 0.000778798
41 *675:15 *695:35 0.176257
42 *679:63 *695:19 0
43 *688:11 *695:35 0.0205555
*RES
1 *739:mem_target_o *695:15 45.5112 
2 *695:15 *695:17 4.5 
3 *695:17 *695:19 616.679 
4 *695:19 *695:21 4.5 
5 *695:21 *695:23 1066.75 
6 *695:23 *695:29 10.6154 
7 *695:29 *695:31 96.5443 
8 *695:31 *695:33 3.41 
9 *695:33 *695:35 2160.95 
10 *695:35 *695:37 3.41 
11 *695:37 *695:39 67.4293 
12 *695:39 *740:mem_target 10.285 
*END

*D_NET *696 0.44467
*CONN
*I *740:mem_wdata[0] I *D ntt_engine_256
*I *739:mem_wdata_o[0] O *D ntt_wb_bridge
*CAP
1 *740:mem_wdata[0] 0.00069322
2 *739:mem_wdata_o[0] 0.000211141
3 *696:23 0.0164903
4 *696:21 0.0159633
5 *696:15 0.00514937
6 *696:13 0.00498314
7 *696:11 0.00870366
8 *696:9 0.0089148
9 *696:9 *737:6 0.000255549
10 *696:11 *697:11 0.0372687
11 *696:11 *737:6 0.00312673
12 *696:11 *737:20 0.00165465
13 *696:11 *737:32 0.00294256
14 *696:15 *712:15 0.0430923
15 *696:15 *719:15 0.0427474
16 *696:21 *719:21 0
17 *696:23 *697:15 0.0592667
18 *696:23 *717:23 0.0901158
19 *696:23 *719:23 0.000117546
20 *696:23 *722:15 0.0193243
21 *76:19 *696:11 0
22 *79:19 *696:11 0.000395891
23 *363:39 *696:11 0.00018089
24 *363:65 *696:11 0.0001696
25 *367:15 *696:15 0.00989446
26 *668:13 *696:23 0.0034959
27 *668:15 *696:23 0.00369934
28 *693:11 *696:11 0.0428071
29 *695:31 *696:23 0.0230054
*RES
1 *739:mem_wdata_o[0] *696:9 3.99593 
2 *696:9 *696:11 532.438 
3 *696:11 *696:13 4.5 
4 *696:13 *696:15 404.679 
5 *696:15 *696:21 10.6154 
6 *696:21 *696:23 170.341 
7 *696:23 *740:mem_wdata[0] 15.7493 
*END

*D_NET *697 0.327368
*CONN
*I *740:mem_wdata[10] I *D ntt_engine_256
*I *739:mem_wdata_o[10] O *D ntt_wb_bridge
*CAP
1 *740:mem_wdata[10] 0.000771259
2 *739:mem_wdata_o[10] 0.0001669
3 *697:15 0.0147597
4 *697:13 0.0139884
5 *697:11 0.00823876
6 *697:9 0.00840566
7 *697:9 *737:6 0.000201414
8 *697:11 *701:8 0.000565717
9 *697:11 *701:16 0.00245014
10 *697:11 *711:11 0.000200751
11 *697:11 *712:11 0.0290191
12 *697:11 *713:11 8.82207e-05
13 *697:11 *737:6 0.000408347
14 *697:11 *737:20 0.00198803
15 *697:15 *722:15 0.00127189
16 *697:15 *731:55 0.0433634
17 *76:19 *697:11 0
18 *363:71 *697:11 0
19 *668:15 *697:15 0.104944
20 *696:11 *697:11 0.0372687
21 *696:23 *697:15 0.0592667
*RES
1 *739:mem_wdata_o[10] *697:9 3.8894 
2 *697:9 *697:11 462.161 
3 *697:11 *697:13 3.41 
4 *697:13 *697:15 163.062 
5 *697:15 *740:mem_wdata[10] 17.1779 
*END

*D_NET *698 0.105615
*CONN
*I *740:mem_wdata[11] I *D ntt_engine_256
*I *739:mem_wdata_o[11] O *D ntt_wb_bridge
*CAP
1 *740:mem_wdata[11] 0.000157921
2 *739:mem_wdata_o[11] 0.00846382
3 *698:19 0.00509245
4 *698:11 0.0268423
5 *698:9 0.0303716
6 *698:19 *699:15 0
7 *740:mem_re *698:19 0.01015
8 *658:45 *698:11 0.0030568
9 *667:33 *698:19 0.00109365
10 *670:13 *698:11 0.000178648
11 *684:11 *698:19 0.0202081
*RES
1 *739:mem_wdata_o[11] *698:9 26.2708 
2 *698:9 *698:11 457.911 
3 *698:11 *698:19 49.3416 
4 *698:19 *740:mem_wdata[11] 1.5 
*END

*D_NET *699 0.396283
*CONN
*I *740:mem_wdata[12] I *D ntt_engine_256
*I *739:mem_wdata_o[12] O *D ntt_wb_bridge
*CAP
1 *740:mem_wdata[12] 0.000709116
2 *739:mem_wdata_o[12] 0.00230373
3 *699:19 0.0124176
4 *699:17 0.0117085
5 *699:15 0.0204007
6 *699:13 0.0204007
7 *699:11 0.019925
8 *699:9 0.0222287
9 *699:11 *703:11 0.0355489
10 *699:15 *706:15 0.00135973
11 *699:15 *723:127 0.000517622
12 *699:15 *738:17 1.31781e-06
13 *699:19 *740:mem_wdata[13] 0.00116187
14 *699:19 *740:mem_wdata[16] 0.00128992
15 *699:19 *708:19 0.0675496
16 *699:19 *724:11 0.00160806
17 *699:19 *730:19 0.020929
18 *699:19 *738:19 0.000279147
19 *739:mem_rdata_i[30] *699:11 0
20 *740:mem_re *699:15 0
21 *102:23 *699:11 0
22 *105:19 *699:11 0.00848157
23 *105:23 *699:15 0.0246564
24 *361:19 *699:11 0.00374371
25 *376:27 *699:11 0.00374371
26 *379:27 *699:11 0.0069487
27 *651:15 *699:15 0
28 *660:11 *699:15 0
29 *667:33 *699:15 0.00109864
30 *668:19 *699:11 0.00260528
31 *673:45 *699:15 0.000495834
32 *675:31 *699:11 0.00193896
33 *677:27 *699:11 0.000314471
34 *677:29 *699:11 0.00152501
35 *679:45 *699:15 0.000767627
36 *679:47 *699:15 0.057029
37 *682:15 *699:19 0.0231454
38 *682:31 *699:19 0.00753537
39 *684:11 *699:15 0
40 *685:45 *699:19 0.0101451
41 *686:17 *699:15 0.000286707
42 *690:19 *699:15 0.0014826
43 *698:19 *699:15 0
*RES
1 *739:mem_wdata_o[12] *699:9 8.8667 
2 *699:9 *699:11 79.8405 
3 *699:11 *699:13 3.41 
4 *699:13 *699:15 99.463 
5 *699:15 *699:17 3.41 
6 *699:17 *699:19 835.554 
7 *699:19 *740:mem_wdata[12] 4.93907 
*END

*D_NET *700 0.226342
*CONN
*I *740:mem_wdata[13] I *D ntt_engine_256
*I *739:mem_wdata_o[13] O *D ntt_wb_bridge
*CAP
1 *740:mem_wdata[13] 0.00783102
2 *739:mem_wdata_o[13] 2.48797e-05
3 *700:17 0.00878194
4 *700:11 0.0171778
5 *700:9 0.0162268
6 *700:7 0.0361066
7 *700:5 0.0361315
8 *740:mem_wdata[13] *705:19 0.0017461
9 *740:mem_wdata[13] *708:19 0.00161581
10 *740:mem_wdata[13] *724:11 0.00469679
11 *740:mem_wdata[13] *738:19 0.00174839
12 *700:7 *721:25 0.00138796
13 *700:7 *723:41 0.00103107
14 *700:17 *705:17 5.0145e-05
15 *77:163 *740:mem_wdata[13] 0.00343695
16 *112:67 *700:11 0.00118004
17 *112:69 *700:11 0.00214275
18 *115:87 *700:7 0.000775113
19 *137:17 *700:11 0.00267694
20 *654:11 *700:11 0.0476223
21 *655:127 *700:11 0.000346109
22 *659:111 *740:mem_wdata[13] 0.00307264
23 *665:29 *700:11 0.00134726
24 *672:17 *740:mem_wdata[13] 0.0125772
25 *672:25 *700:11 0.00368433
26 *673:21 *740:mem_wdata[13] 0
27 *680:35 *700:11 0.00190602
28 *681:23 *700:11 0.00175916
29 *685:45 *740:mem_wdata[13] 0.00425167
30 *690:11 *740:mem_wdata[13] 0.00384465
31 *699:19 *740:mem_wdata[13] 0.00116187
*RES
1 *739:mem_wdata_o[13] *700:5 0.0767667 
2 *700:5 *700:7 103.246 
3 *700:7 *700:9 3.41 
4 *700:9 *700:11 99.8687 
5 *700:11 *700:17 8.74073 
6 *700:17 *740:mem_wdata[13] 48.4564 
*END

*D_NET *701 0.395052
*CONN
*I *740:mem_wdata[14] I *D ntt_engine_256
*I *739:mem_wdata_o[14] O *D ntt_wb_bridge
*CAP
1 *740:mem_wdata[14] 0.00160295
2 *739:mem_wdata_o[14] 0.00517005
3 *701:22 0.0106389
4 *701:20 0.00903599
5 *701:18 0.0419341
6 *701:16 0.0513489
7 *701:12 0.0180797
8 *701:8 0.013835
9 *740:mem_wdata[14] *706:27 2.05803e-05
10 *740:mem_wdata[14] *725:43 0.000713086
11 *740:mem_wdata[14] *729:35 0.00108238
12 *701:8 *702:9 0.000237214
13 *701:8 *709:9 0.000237214
14 *701:8 *712:11 0.000484476
15 *701:8 *713:11 0.000440949
16 *701:8 *737:6 0.00883803
17 *701:12 *711:11 0.00156371
18 *701:12 *713:11 0.00144202
19 *701:12 *719:11 0.00126825
20 *701:12 *737:6 0.000244863
21 *701:12 *737:20 0.00254386
22 *701:12 *737:32 9.5979e-05
23 *701:16 *711:11 0.0023414
24 *701:16 *712:11 0.00274078
25 *701:16 *713:11 0.00253352
26 *701:16 *719:11 0.0003493
27 *701:16 *737:32 0.0126868
28 *701:18 *706:15 0.0970316
29 *701:18 *712:23 0.0341708
30 *701:18 *713:15 0.00686069
31 *701:18 *719:23 0.000915581
32 *701:18 *722:15 0
33 *701:18 *734:37 0.00575059
34 *701:22 *725:43 0.00318234
35 *701:22 *729:35 0.0098506
36 *701:22 *734:43 0.00129364
37 *701:22 *737:46 0.0014553
38 *739:mem_rdata_i[10] *701:12 0.000309684
39 *739:mem_rdata_i[11] *701:12 0.000201414
40 *739:mem_rdata_i[5] *701:12 0.000100707
41 *739:mem_rdata_i[6] *701:12 0.000201414
42 *739:mem_rdata_i[7] *701:12 0.000255549
43 *76:19 *701:8 0.000130761
44 *80:179 *740:mem_wdata[14] 0.000495203
45 *80:179 *701:22 0.0061783
46 *94:85 *701:22 0.000394846
47 *116:137 *740:mem_wdata[14] 0.000442689
48 *116:137 *701:22 0.00169619
49 *363:65 *701:12 0.00116214
50 *363:69 *701:12 0.00047516
51 *363:71 *701:8 0.000624347
52 *650:19 *701:22 0.0235172
53 *656:25 *701:18 0.00348012
54 *687:15 *701:16 0.0003493
55 *697:11 *701:8 0.000565717
56 *697:11 *701:16 0.00245014
*RES
1 *739:mem_wdata_o[14] *701:8 22.3698 
2 *701:8 *701:12 28.6324 
3 *701:12 *701:16 34.101 
4 *701:16 *701:18 273.9 
5 *701:18 *701:20 3.41 
6 *701:20 *701:22 62.369 
7 *701:22 *740:mem_wdata[14] 9.72523 
*END

*D_NET *702 0.773026
*CONN
*I *740:mem_wdata[15] I *D ntt_engine_256
*I *739:mem_wdata_o[15] O *D ntt_wb_bridge
*CAP
1 *740:mem_wdata[15] 0.000720059
2 *739:mem_wdata_o[15] 0.000997759
3 *702:43 0.0209568
4 *702:41 0.0204551
5 *702:35 0.0267895
6 *702:33 0.0265712
7 *702:31 0.0219684
8 *702:29 0.0220277
9 *702:23 0.0113619
10 *702:21 0.0114901
11 *702:11 0.0253734
12 *702:9 0.0261837
13 *702:9 *703:9 0
14 *702:11 *709:11 0.00116942
15 *702:11 *716:11 0.00116942
16 *702:11 *717:11 0.00481041
17 *702:11 *725:11 0.00574454
18 *702:11 *726:11 0.00139453
19 *702:11 *727:11 0.000386749
20 *702:11 *729:11 0.0059008
21 *702:11 *731:11 0.000728987
22 *702:11 *736:11 0.00693451
23 *702:21 *717:11 5.09424e-05
24 *702:21 *734:27 0
25 *702:23 *711:15 0.00287586
26 *702:23 *716:15 0
27 *702:23 *725:15 0.000393696
28 *702:23 *733:23 0
29 *702:31 *716:23 1.22086e-05
30 *702:31 *725:23 0.0733308
31 *702:31 *725:33 0.00530939
32 *702:31 *733:31 0.120473
33 *702:35 *704:35 0.115683
34 *702:35 *709:19 0.000163121
35 *702:35 *709:27 0.020864
36 *702:35 *726:27 0.0151071
37 *702:35 *733:35 0.000412703
38 *702:43 *709:27 0.00858321
39 *702:43 *734:51 0.00322105
40 *702:43 *737:54 0.00460904
41 *739:mem_rdata_i[10] *702:11 0
42 *76:19 *702:9 0.000118344
43 *357:25 *702:21 2.48858e-05
44 *357:25 *702:23 0.000587524
45 *373:15 *702:29 0.00011731
46 *373:17 *702:31 2.83129e-05
47 *379:15 *702:23 0.00292722
48 *382:15 *702:21 6.63171e-06
49 *384:23 *702:23 0.0137899
50 *386:25 *702:23 0.0170666
51 *650:11 *702:11 0.0123817
52 *657:15 *702:23 0.000397559
53 *657:23 *702:23 0.00152112
54 *676:31 *702:23 0.000574996
55 *678:11 *702:31 0.00786914
56 *678:19 *702:23 0.00742435
57 *689:11 *702:43 0.00780393
58 *689:19 *702:35 0.000574134
59 *691:11 *702:43 0.00868005
60 *691:19 *702:35 0.0761313
61 *691:27 *702:11 0.000539138
62 *701:8 *702:9 0.000237214
*RES
1 *739:mem_wdata_o[15] *702:9 5.79603 
2 *702:9 *702:11 71.8505 
3 *702:11 *702:21 13.8048 
4 *702:21 *702:23 376.339 
5 *702:23 *702:29 9.40107 
6 *702:29 *702:31 208.896 
7 *702:31 *702:33 3.41 
8 *702:33 *702:35 1428.12 
9 *702:35 *702:41 7.26337 
10 *702:41 *702:43 98.2707 
11 *702:43 *740:mem_wdata[15] 5.11297 
*END

*D_NET *703 0.217547
*CONN
*I *740:mem_wdata[16] I *D ntt_engine_256
*I *739:mem_wdata_o[16] O *D ntt_wb_bridge
*CAP
1 *740:mem_wdata[16] 0.00436692
2 *739:mem_wdata_o[16] 0.00241584
3 *703:15 0.0291002
4 *703:13 0.0247333
5 *703:11 0.0115732
6 *703:9 0.0139891
7 *740:mem_wdata[16] *708:19 0.00128992
8 *740:mem_wdata[16] *724:11 0.00650912
9 *740:mem_wdata[16] *738:19 0.00144294
10 *703:15 *708:15 0.000405325
11 *531:21 *703:11 0.000497296
12 *646:47 *703:15 0.0208358
13 *652:121 *703:15 0.00238968
14 *667:23 *703:15 0.0398099
15 *672:17 *740:mem_wdata[16] 0
16 *673:27 *703:15 0
17 *677:27 *703:11 9.69507e-06
18 *682:37 *740:mem_wdata[16] 0.00036227
19 *690:17 *703:15 0
20 *690:19 *703:15 0
21 *690:23 *703:11 0.0209772
22 *699:11 *703:11 0.0355489
23 *699:19 *740:mem_wdata[16] 0.00128992
24 *702:9 *703:9 0
*RES
1 *739:mem_wdata_o[16] *703:9 9.01083 
2 *703:9 *703:11 75.7922 
3 *703:11 *703:13 3.41 
4 *703:13 *703:15 99.3549 
5 *703:15 *740:mem_wdata[16] 22.3284 
*END

*D_NET *704 0.94576
*CONN
*I *740:mem_wdata[17] I *D ntt_engine_256
*I *739:mem_wdata_o[17] O *D ntt_wb_bridge
*CAP
1 *740:mem_wdata[17] 0.000401307
2 *739:mem_wdata_o[17] 0.00301902
3 *704:39 0.00937568
4 *704:37 0.00897437
5 *704:35 0.0313628
6 *704:33 0.0313628
7 *704:31 0.014284
8 *704:29 0.0143526
9 *704:23 0.0195924
10 *704:21 0.0195238
11 *704:19 0.00567282
12 *704:17 0.00869184
13 *704:17 *705:7 0
14 *704:17 *734:11 6.57509e-05
15 *704:19 *706:11 0.0320862
16 *704:23 *717:15 0.0627946
17 *704:31 *727:31 0.0305758
18 *704:35 *726:27 0.0167648
19 *704:35 *733:35 0.176299
20 *704:35 *734:51 0.0191685
21 *704:39 *734:67 0.0495903
22 *80:187 *704:35 0
23 *80:205 *704:39 0
24 *118:177 *704:35 0.00215339
25 *352:23 *704:19 7.55177e-05
26 *353:23 *704:19 0.0325605
27 *358:27 *704:19 4.12785e-05
28 *361:15 *704:23 0.0103571
29 *372:19 *704:17 0.000118506
30 *383:25 *704:19 0.000365323
31 *664:15 *704:23 0.0109251
32 *664:15 *704:31 0.0265021
33 *675:13 *704:39 0.00151872
34 *691:11 *704:35 0.0220185
35 *695:23 *704:23 0.103192
36 *695:23 *704:31 0.00139927
37 *695:31 *704:31 0.0230165
38 *695:39 *704:39 0.0418753
39 *702:35 *704:35 0.115683
*RES
1 *739:mem_wdata_o[17] *704:17 43.7618 
2 *704:17 *704:19 407.518 
3 *704:19 *704:21 4.5 
4 *704:21 *704:23 969.411 
5 *704:23 *704:29 9.0975 
6 *704:29 *704:31 110.453 
7 *704:31 *704:33 3.41 
8 *704:33 *704:35 2161.55 
9 *704:35 *704:37 3.41 
10 *704:37 *704:39 80.4734 
11 *704:39 *740:mem_wdata[17] 11.4457 
*END

*D_NET *705 0.275935
*CONN
*I *740:mem_wdata[18] I *D ntt_engine_256
*I *739:mem_wdata_o[18] O *D ntt_wb_bridge
*CAP
1 *740:mem_wdata[18] 0.00105648
2 *739:mem_wdata_o[18] 2.48797e-05
3 *705:19 0.0119055
4 *705:17 0.0110035
5 *705:11 0.0187641
6 *705:9 0.0186097
7 *705:7 0.0372963
8 *705:5 0.0373212
9 *705:7 *721:49 0.000485267
10 *705:7 *723:69 0
11 *705:7 *730:17 0.000159733
12 *705:11 *724:11 0.0155153
13 *705:11 *730:11 4.71923e-05
14 *740:mem_wdata[13] *705:19 0.0017461
15 *74:17 *705:11 0.0184883
16 *74:17 *705:19 0
17 *77:163 *705:19 0.0232747
18 *104:23 *705:11 0.00410166
19 *113:17 *705:11 0.00756164
20 *648:11 *705:11 0.00689321
21 *652:57 *705:7 0.000610737
22 *654:11 *740:mem_wdata[18] 0.000360771
23 *659:111 *705:11 0.00972853
24 *672:17 *705:11 0.0026048
25 *672:17 *705:19 0.00103988
26 *685:45 *705:19 0.00313656
27 *690:11 *705:11 0.000956829
28 *690:11 *705:19 0.0427068
29 *694:61 *705:7 0.000484798
30 *700:17 *705:17 5.0145e-05
31 *704:17 *705:7 0
*RES
1 *739:mem_wdata_o[18] *705:5 0.0767667 
2 *705:5 *705:7 105.408 
3 *705:7 *705:9 3.41 
4 *705:9 *705:11 93.3702 
5 *705:11 *705:17 7.1913 
6 *705:17 *705:19 523.482 
7 *705:19 *740:mem_wdata[18] 5.65347 
*END

*D_NET *706 0.666552
*CONN
*I *740:mem_wdata[19] I *D ntt_engine_256
*I *739:mem_wdata_o[19] O *D ntt_wb_bridge
*CAP
1 *740:mem_wdata[19] 0.000917408
2 *739:mem_wdata_o[19] 0.00322511
3 *706:27 0.0290377
4 *706:25 0.0283244
5 *706:19 0.00713183
6 *706:17 0.00692776
7 *706:15 0.0299926
8 *706:13 0.0299926
9 *706:11 0.00627623
10 *706:9 0.00950134
11 *706:11 *707:11 0
12 *706:15 *734:37 0.00680316
13 *706:19 *718:19 0.0303686
14 *706:19 *725:35 0.0229523
15 *706:19 *725:43 0.00167979
16 *706:27 *718:27 0.0555149
17 *706:27 *725:43 0.00835596
18 *706:27 *729:35 0.014728
19 *706:27 *734:43 0.00334059
20 *706:27 *737:46 0.00373339
21 *740:mem_wdata[14] *706:27 2.05803e-05
22 *80:179 *706:27 0.0169748
23 *383:25 *706:11 0.00647836
24 *650:19 *706:19 0.00516888
25 *656:25 *706:15 3.77278e-05
26 *656:27 *706:19 0.000295042
27 *656:35 *706:27 0.00737405
28 *677:15 *706:15 0.17966
29 *688:27 *706:11 0.0200717
30 *689:11 *706:27 0
31 *690:19 *706:15 0.00118973
32 *699:15 *706:15 0.00135973
33 *701:18 *706:15 0.0970316
34 *704:19 *706:11 0.0320862
*RES
1 *739:mem_wdata_o[19] *706:9 10.9927 
2 *706:9 *706:11 404.482 
3 *706:11 *706:13 3.41 
4 *706:13 *706:15 281.972 
5 *706:15 *706:17 3.41 
6 *706:17 *706:19 378.982 
7 *706:19 *706:25 7.1913 
8 *706:25 *706:27 164.321 
9 *706:27 *740:mem_wdata[19] 5.58297 
*END

*D_NET *707 0.06783
*CONN
*I *740:mem_wdata[1] I *D ntt_engine_256
*I *739:mem_wdata_o[1] O *D ntt_wb_bridge
*CAP
1 *740:mem_wdata[1] 1.3106e-05
2 *739:mem_wdata_o[1] 0.00331104
3 *707:11 0.0187079
4 *707:9 0.0220058
5 io_out[1] *707:9 0
6 *354:27 *707:11 0.0237417
7 *383:25 *707:11 0
8 *688:27 *707:11 0
9 *695:19 *707:11 5.04683e-05
10 *706:11 *707:11 0
*RES
1 *739:mem_wdata_o[1] *707:9 11.5692 
2 *707:9 *707:11 541.696 
3 *707:11 *740:mem_wdata[1] 0.267857 
*END

*D_NET *708 0.437663
*CONN
*I *740:mem_wdata[20] I *D ntt_engine_256
*I *739:mem_wdata_o[20] O *D ntt_wb_bridge
*CAP
1 *740:mem_wdata[20] 0.000898043
2 *739:mem_wdata_o[20] 0.0168467
3 *708:19 0.0171717
4 *708:17 0.0162736
5 *708:15 0.0099979
6 *708:13 0.0099979
7 *708:11 0.0266963
8 *708:9 0.043543
9 *708:11 *715:53 0.000377443
10 *708:15 *714:119 0.00531482
11 *708:15 *715:63 0.00145131
12 *708:19 *724:11 0.00173962
13 *708:19 *738:19 0.0826091
14 *740:mem_wdata[13] *708:19 0.00161581
15 *740:mem_wdata[16] *708:19 0.00128992
16 *74:17 *708:19 0
17 *76:23 *708:9 0.000941488
18 *652:121 *708:15 9.05749e-06
19 *658:121 *708:15 0.0133159
20 *658:131 *708:19 0.0369374
21 *667:23 *708:15 0.0379424
22 *673:27 *708:15 0
23 *681:23 *708:15 0.00126362
24 *682:15 *708:19 0.000529566
25 *682:43 *708:15 0.00572983
26 *685:29 *708:19 0.0223462
27 *685:45 *708:19 0.010355
28 *685:65 *708:15 0.00422816
29 *685:99 *708:11 0.000286337
30 *699:19 *708:19 0.0675496
31 *703:15 *708:15 0.000405325
*RES
1 *739:mem_wdata_o[20] *708:9 48.071 
2 *708:9 *708:11 70.8917 
3 *708:11 *708:13 3.41 
4 *708:13 *708:15 60.3308 
5 *708:15 *708:17 3.41 
6 *708:17 *708:19 1292.73 
7 *708:19 *740:mem_wdata[20] 5.43727 
*END

*D_NET *709 0.729677
*CONN
*I *740:mem_wdata[21] I *D ntt_engine_256
*I *739:mem_wdata_o[21] O *D ntt_wb_bridge
*CAP
1 *740:mem_wdata[21] 0.000528764
2 *739:mem_wdata_o[21] 0.00116232
3 *709:27 0.0156024
4 *709:25 0.0151141
5 *709:19 0.0122315
6 *709:17 0.012191
7 *709:15 0.0564005
8 *709:13 0.0564005
9 *709:11 0.00644944
10 *709:9 0.00761176
11 *709:9 *710:17 0
12 *709:11 *716:11 0.0255002
13 *709:11 *726:11 0.00127289
14 *709:11 *731:11 0.00913607
15 *709:11 *735:11 0
16 *709:15 *718:15 0
17 *709:19 *716:27 0.0150325
18 *709:25 *740:op[0] 7.59402e-06
19 *709:27 *717:35 1.26492e-05
20 *709:27 *726:27 0.00743307
21 *709:27 *734:51 0.00342589
22 *739:mem_rdata_i[6] *709:11 0.000168293
23 *116:137 *709:19 0
24 *360:79 *709:11 0.00157842
25 *540:181 *709:15 0.000744709
26 *650:15 *709:15 0.176656
27 *661:41 *709:11 0
28 *683:15 *709:15 0.000327849
29 *689:11 *709:19 0.00176434
30 *689:11 *709:27 0.0548692
31 *689:19 *709:19 0.0618203
32 *691:11 *709:27 0.0633277
33 *691:19 *709:19 0.0688581
34 *691:19 *709:27 0.00322697
35 *691:23 *709:15 0
36 *691:27 *709:11 0.0198055
37 *701:8 *709:9 0.000237214
38 *702:11 *709:11 0.00116942
39 *702:35 *709:19 0.000163121
40 *702:35 *709:27 0.020864
41 *702:43 *709:27 0.00858321
*RES
1 *739:mem_wdata_o[21] *709:9 6.26447 
2 *709:9 *709:11 389.304 
3 *709:11 *709:13 3.41 
4 *709:13 *709:15 275.558 
5 *709:15 *709:17 3.41 
6 *709:17 *709:19 847.696 
7 *709:19 *709:25 6.90303 
8 *709:25 *709:27 147.809 
9 *709:27 *740:mem_wdata[21] 4.61163 
*END

*D_NET *710 0.888975
*CONN
*I *740:mem_wdata[22] I *D ntt_engine_256
*I *739:mem_wdata_o[22] O *D ntt_wb_bridge
*CAP
1 *740:mem_wdata[22] 0.000435615
2 *739:mem_wdata_o[22] 0.00268299
3 *710:39 0.00649294
4 *710:37 0.00605732
5 *710:35 0.0361975
6 *710:33 0.0361975
7 *710:31 0.0205629
8 *710:29 0.0207588
9 *710:23 0.00385971
10 *710:21 0.00366378
11 *710:19 0.00671119
12 *710:17 0.00939419
13 *710:17 *734:11 4.99468e-05
14 *710:35 *717:35 0.0226183
15 *710:39 *740:slot_a[1] 0.0214676
16 *81:23 *710:35 0.0690311
17 *119:25 *710:35 0.17668
18 *353:21 *710:23 0.00478629
19 *362:19 *710:19 0.000226232
20 *368:39 *710:19 0.0276162
21 *372:19 *710:17 9.25974e-05
22 *373:21 *710:19 0
23 *375:17 *710:19 0.000186631
24 *378:19 *710:19 0.00428706
25 *398:21 *710:31 0.00282024
26 *647:11 *710:31 0.000361726
27 *661:23 *710:31 0.154351
28 *661:31 *710:23 0
29 *662:19 *710:31 0.150902
30 *662:27 *710:23 0.0238207
31 *662:31 *710:19 0.0167565
32 *664:27 *710:19 9.58189e-06
33 *676:21 *710:35 0.00144683
34 *688:23 *710:23 0.0199339
35 *691:11 *710:35 0.00700917
36 *695:39 *710:39 0.0315073
37 *709:9 *710:17 0
*RES
1 *739:mem_wdata_o[22] *710:17 38.119 
2 *710:17 *710:19 365.625 
3 *710:19 *710:21 4.5 
4 *710:21 *710:23 224.375 
5 *710:23 *710:29 11.2225 
6 *710:29 *710:31 239.885 
7 *710:31 *710:33 3.41 
8 *710:33 *710:35 2166.41 
9 *710:35 *710:37 3.41 
10 *710:37 *710:39 48.9803 
11 *710:39 *740:mem_wdata[22] 11.7136 
*END

*D_NET *711 0.200612
*CONN
*I *740:mem_wdata[23] I *D ntt_engine_256
*I *739:mem_wdata_o[23] O *D ntt_wb_bridge
*CAP
1 *740:mem_wdata[23] 0.00156403
2 *739:mem_wdata_o[23] 0.000142774
3 *711:15 0.0102884
4 *711:13 0.00872433
5 *711:11 0.0050727
6 *711:9 0.00521547
7 *740:mem_wdata[23] *733:29 0
8 *711:11 *712:11 0.000322377
9 *711:11 *713:11 0.0276007
10 *711:11 *719:11 0.0247815
11 *711:11 *737:6 0.000460094
12 *711:11 *737:20 0.000647563
13 *711:15 *716:15 0.000168387
14 *711:15 *725:15 0.000606438
15 *739:mem_rdata_i[10] *711:11 0.00013544
16 *739:mem_rdata_i[7] *711:11 0.000111764
17 *356:29 *711:15 0.000530196
18 *357:25 *711:15 0.0170374
19 *359:25 *711:15 0.00507417
20 *363:65 *711:11 0.00010255
21 *363:69 *711:11 0.000345529
22 *363:71 *711:11 0.00171149
23 *376:15 *711:15 0.00858912
24 *379:15 *711:15 0.0108464
25 *379:23 *711:15 0.000225341
26 *384:23 *711:15 0.00165124
27 *386:25 *711:15 0.00335493
28 *389:21 *711:15 0.00561714
29 *657:15 *711:15 0.00321471
30 *657:23 *711:15 0.0227599
31 *676:31 *711:15 0.000121973
32 *678:11 *711:15 0.0238358
33 *678:19 *711:15 0.00277061
34 *697:11 *711:11 0.000200751
35 *701:12 *711:11 0.00156371
36 *701:16 *711:11 0.0023414
37 *702:23 *711:15 0.00287586
*RES
1 *739:mem_wdata_o[23] *711:9 3.8894 
2 *711:9 *711:11 354.089 
3 *711:11 *711:13 3.41 
4 *711:13 *711:15 85.5901 
5 *711:15 *740:mem_wdata[23] 30.535 
*END

*D_NET *712 0.447476
*CONN
*I *740:mem_wdata[24] I *D ntt_engine_256
*I *739:mem_wdata_o[24] O *D ntt_wb_bridge
*CAP
1 *740:mem_wdata[24] 0.000682497
2 *739:mem_wdata_o[24] 0.000101532
3 *712:23 0.025365
4 *712:21 0.0249772
5 *712:15 0.00653111
6 *712:13 0.00623648
7 *712:11 0.00518104
8 *712:9 0.00528257
9 *712:11 *713:11 0.0284317
10 *712:11 *737:6 0.000377382
11 *712:11 *737:20 0.00206331
12 *712:15 *717:15 0.0474162
13 *712:15 *719:15 3.97677e-05
14 *712:15 *727:31 0.00010603
15 *712:23 *717:23 0.00556833
16 *712:23 *719:23 0.115119
17 *119:25 *740:mem_wdata[24] 0
18 *361:15 *712:15 0.000770078
19 *367:15 *712:15 0.00917909
20 *656:15 *712:23 0.0533886
21 *656:25 *712:23 0.000828521
22 *696:15 *712:15 0.0430923
23 *697:11 *712:11 0.0290191
24 *701:8 *712:11 0.000484476
25 *701:16 *712:11 0.00274078
26 *701:18 *712:23 0.0341708
27 *711:11 *712:11 0.000322377
*RES
1 *739:mem_wdata_o[24] *712:9 3.67633 
2 *712:9 *712:11 359.098 
3 *712:11 *712:13 4.5 
4 *712:13 *712:15 445.339 
5 *712:15 *712:21 12.7404 
6 *712:21 *712:23 193.978 
7 *712:23 *740:mem_wdata[24] 14.7493 
*END

*D_NET *713 0.143452
*CONN
*I *740:mem_wdata[25] I *D ntt_engine_256
*I *739:mem_wdata_o[25] O *D ntt_wb_bridge
*CAP
1 *740:mem_wdata[25] 0.000649575
2 *739:mem_wdata_o[25] 0.000108964
3 *713:15 0.00853707
4 *713:13 0.00788749
5 *713:11 0.00531995
6 *713:9 0.00542891
7 *713:11 *719:11 0.00042283
8 *713:11 *737:20 0.000523528
9 *713:15 *722:15 0.0349007
10 *713:15 *734:37 0
11 *739:mem_rdata_i[10] *713:11 0.000110079
12 *363:65 *713:11 0.000111243
13 *656:15 *713:15 0.0120538
14 *697:11 *713:11 8.82207e-05
15 *701:8 *713:11 0.000440949
16 *701:12 *713:11 0.00144202
17 *701:16 *713:11 0.00253352
18 *701:18 *713:15 0.00686069
19 *711:11 *713:11 0.0276007
20 *712:11 *713:11 0.0284317
*RES
1 *739:mem_wdata_o[25] *713:9 3.67633 
2 *713:9 *713:11 355.911 
3 *713:11 *713:13 3.41 
4 *713:13 *713:15 54.2411 
5 *713:15 *740:mem_wdata[25] 15.3564 
*END

*D_NET *714 0.740106
*CONN
*I *740:mem_wdata[26] I *D ntt_engine_256
*I *739:mem_wdata_o[26] O *D ntt_wb_bridge
*CAP
1 *740:mem_wdata[26] 0.000342168
2 *739:mem_wdata_o[26] 0.00144647
3 *714:155 0.0267829
4 *714:153 0.0264601
5 *714:147 0.0300085
6 *714:145 0.0303869
7 *714:139 0.0541373
8 *714:137 0.0539681
9 *714:131 0.00482611
10 *714:129 0.00476462
11 *714:123 0.00183237
12 *714:121 0.00166522
13 *714:119 0.00319982
14 *714:117 0.00443838
15 *714:107 0.00326058
16 *714:99 0.00438575
17 *714:97 0.00383901
18 *714:93 0.00287702
19 *714:85 0.00329839
20 *714:77 0.00264577
21 *714:71 0.00294745
22 *714:65 0.00329702
23 *714:59 0.00177368
24 *714:57 0.000674999
25 *714:55 0.00272384
26 *714:53 0.00372371
27 *714:49 0.00201435
28 *714:39 0.0066237
29 *714:37 0.00711389
30 *714:33 0.00233222
31 *714:27 0.00374893
32 *714:25 0.00466261
33 *714:17 0.00403094
34 *714:13 0.00373618
35 *714:13 *734:11 0.000107616
36 *714:131 *715:67 0.00250452
37 *714:131 *715:75 0.000520116
38 la_data_out[100] *714:93 0.00200938
39 la_data_out[93] *714:53 0
40 la_data_out[96] *714:59 0.00378462
41 la_data_out[98] *714:77 0.00198721
42 la_data_out[99] *714:85 0
43 *740:clk *714:147 0.000957991
44 *77:155 *714:123 0.000183911
45 *77:171 *714:139 0.137476
46 *114:157 *714:145 0
47 *276:19 *714:49 0
48 *285:17 *714:37 0
49 *286:17 *714:71 0
50 *372:19 *714:13 0.00019303
51 *646:11 *714:155 0
52 *658:59 *714:59 0.000975048
53 *658:123 *714:123 0.0096888
54 *658:123 *714:139 0.00283867
55 *663:11 *714:147 0.0315567
56 *663:11 *714:155 0.0404502
57 *667:15 *714:139 0.00335148
58 *667:19 *714:139 0
59 *671:15 *714:145 0.000112714
60 *671:15 *714:147 0.00808557
61 *672:27 *714:65 0.000772291
62 *673:11 *714:147 0.000971325
63 *673:15 *714:139 0
64 *673:23 *714:123 0.00983306
65 *673:23 *714:139 4.51803e-05
66 *674:11 *714:131 0.0089391
67 *682:23 *714:131 0.015748
68 *682:39 *714:123 0.000262686
69 *682:43 *714:119 0.0233509
70 *685:13 *714:155 0.00580056
71 *685:21 *714:145 0.000510291
72 *685:21 *714:147 0.0840203
73 *685:53 *714:131 0.000865517
74 *685:65 *714:119 0.020772
75 *685:101 *714:59 0.00203275
76 *685:113 *714:49 0.000114118
77 *708:15 *714:119 0.00531482
*RES
1 *739:mem_wdata_o[26] *714:13 13.5642 
2 *714:13 *714:17 42 
3 *714:17 *714:25 42.9643 
4 *714:25 *714:27 59.0179 
5 *714:27 *714:33 25.1429 
6 *714:33 *714:37 35.2857 
7 *714:37 *714:39 104.036 
8 *714:39 *714:49 33.8214 
9 *714:49 *714:53 24.6607 
10 *714:53 *714:55 50.6429 
11 *714:55 *714:57 4.5 
12 *714:57 *714:59 46.5714 
13 *714:59 *714:65 29.25 
14 *714:65 *714:71 48.0357 
15 *714:71 *714:77 33.4107 
16 *714:77 *714:85 46.6607 
17 *714:85 *714:93 46.1607 
18 *714:93 *714:97 32.1429 
19 *714:97 *714:99 46.2679 
20 *714:99 *714:107 47.3929 
21 *714:107 *714:117 35.8036 
22 *714:117 *714:119 219.446 
23 *714:119 *714:121 4.5 
24 *714:121 *714:123 125.196 
25 *714:123 *714:129 11.5893 
26 *714:129 *714:131 239.643 
27 *714:131 *714:137 12.4107 
28 *714:137 *714:139 1781.18 
29 *714:139 *714:145 14.0893 
30 *714:145 *714:147 875.357 
31 *714:147 *714:153 8.18679 
32 *714:153 *714:155 109.877 
33 *714:155 *740:mem_wdata[26] 10.3029 
*END

*D_NET *715 0.771898
*CONN
*I *740:mem_wdata[27] I *D ntt_engine_256
*I *739:mem_wdata_o[27] O *D ntt_wb_bridge
*CAP
1 *740:mem_wdata[27] 0.000405022
2 *739:mem_wdata_o[27] 0.00144298
3 *715:95 0.014551
4 *715:93 0.0194899
5 *715:83 0.0340969
6 *715:81 0.028906
7 *715:75 0.00578571
8 *715:73 0.00578389
9 *715:67 0.00329884
10 *715:65 0.00314767
11 *715:63 0.00526587
12 *715:61 0.00678084
13 *715:53 0.00329609
14 *715:43 0.00876822
15 *715:41 0.0069871
16 *715:39 0.00284305
17 *715:37 0.00420101
18 *715:33 0.00301383
19 *715:27 0.00375489
20 *715:25 0.00209903
21 *715:23 0.00241004
22 *715:21 0.00333754
23 *715:15 0.00605024
24 *715:13 0.00656572
25 *715:13 *734:11 9.14436e-05
26 *715:23 *720:7 0.000587262
27 *715:63 *723:131 2.07394e-05
28 *715:83 *740:mem_wdata[5] 1.01912e-05
29 *715:93 *740:mem_wdata[31] 0
30 la_data_out[87] *715:21 0.00127872
31 la_data_out[96] *715:43 0
32 *740:mem_addr[4] *715:83 2.27002e-05
33 *76:105 *715:95 0.000945072
34 *78:71 *715:23 0.000263837
35 *78:143 *715:93 0.00053273
36 *105:23 *715:61 0
37 *114:157 *715:93 0.00218483
38 *115:149 *715:93 0.00129008
39 *276:19 *715:37 0.00353859
40 *277:17 *715:53 0.000447097
41 *300:15 *715:53 0.000108757
42 *372:19 *715:13 0.000166724
43 *529:19 *715:27 0.00552133
44 *646:47 *715:63 0.000331369
45 *648:21 *715:93 0
46 *658:49 *715:23 0.00327691
47 *658:59 *715:43 0.00401466
48 *658:123 *715:75 0.00513627
49 *658:143 *715:95 0.0113853
50 *663:35 *715:63 0.033594
51 *667:23 *715:63 0.00617859
52 *671:15 *715:93 0
53 *673:11 *715:95 0.0900785
54 *673:15 *715:83 0.135667
55 *674:11 *715:67 0.0125713
56 *674:11 *715:83 0.0976275
57 *679:21 *715:93 0.000361299
58 *682:11 *715:95 0.0803418
59 *682:15 *715:83 0.0131701
60 *682:23 *715:75 0.0227016
61 *682:43 *715:63 0.027196
62 *685:13 *715:95 0.00582686
63 *685:53 *715:67 0
64 *685:53 *715:75 0.0088709
65 *685:57 *715:67 0.00692353
66 *685:63 *715:67 5.59075e-05
67 *685:65 *715:63 4.7812e-05
68 *685:101 *715:43 0.00239623
69 *708:11 *715:53 0.000377443
70 *708:15 *715:63 0.00145131
71 *714:131 *715:67 0.00250452
72 *714:131 *715:75 0.000520116
*RES
1 *739:mem_wdata_o[27] *715:13 13.1541 
2 *715:13 *715:15 89.6607 
3 *715:15 *715:21 36.75 
4 *715:21 *715:23 55.9821 
5 *715:23 *715:25 4.5 
6 *715:25 *715:27 67.8214 
7 *715:27 *715:33 39.9286 
8 *715:33 *715:37 48.0357 
9 *715:37 *715:39 55.1607 
10 *715:39 *715:41 4.5 
11 *715:41 *715:43 175.589 
12 *715:43 *715:53 48.0893 
13 *715:53 *715:61 37.0357 
14 *715:61 *715:63 321.304 
15 *715:63 *715:65 4.5 
16 *715:65 *715:67 156.92 
17 *715:67 *715:73 7.0832 
18 *715:73 *715:75 295.196 
19 *715:75 *715:81 7.0832 
20 *715:81 *715:83 1691.02 
21 *715:83 *715:93 32.7605 
22 *715:93 *715:95 155.855 
23 *715:95 *740:mem_wdata[27] 11.0886 
*END

*D_NET *716 0.512036
*CONN
*I *740:mem_wdata[28] I *D ntt_engine_256
*I *739:mem_wdata_o[28] O *D ntt_wb_bridge
*CAP
1 *740:mem_wdata[28] 0.00055972
2 *739:mem_wdata_o[28] 0.00125509
3 *716:27 0.0190798
4 *716:25 0.01852
5 *716:23 0.0380658
6 *716:21 0.0380872
7 *716:15 0.00581938
8 *716:13 0.00579792
9 *716:11 0.0049673
10 *716:9 0.00622239
11 *716:9 *717:9 0
12 *716:11 *735:11 0
13 *716:15 *725:15 0.0368988
14 *716:15 *733:23 0.00457246
15 *716:23 *725:33 0
16 *716:23 *726:23 0.000142668
17 *716:23 *729:23 3.90011e-05
18 *716:23 *733:23 0.00263041
19 *716:23 *733:31 0.0139946
20 *716:23 *736:23 0.0379836
21 *716:27 *717:27 0.00100875
22 *716:27 *726:27 0.0350687
23 *716:27 *729:35 0.0321138
24 *94:85 *716:27 0.00550205
25 *336:15 *716:23 0
26 *343:29 *716:23 0.00917196
27 *345:31 *716:23 0.00458953
28 *346:33 *716:23 0.00481689
29 *347:33 *716:23 0.00312992
30 *348:35 *716:23 0.00277231
31 *349:35 *716:23 0.00549701
32 *350:27 *716:23 0.00311085
33 *360:29 *716:15 0.00123293
34 *360:79 *716:11 0.00171913
35 *364:23 *716:11 0.00133815
36 *374:15 *716:23 0
37 *376:15 *716:15 0.00226181
38 *384:21 *716:15 0.0043272
39 *389:23 *716:15 0.0250466
40 *394:15 *716:15 0.00073597
41 *657:23 *716:23 0.0449815
42 *676:31 *716:15 8.40933e-05
43 *678:11 *716:23 0.0151146
44 *689:19 *716:27 0.0134384
45 *689:35 *716:11 0.0184548
46 *702:11 *716:11 0.00116942
47 *702:23 *716:15 0
48 *702:31 *716:23 1.22086e-05
49 *709:11 *716:11 0.0255002
50 *709:19 *716:27 0.0150325
51 *711:15 *716:15 0.000168387
*RES
1 *739:mem_wdata_o[28] *716:9 6.23 
2 *716:9 *716:11 315.688 
3 *716:11 *716:13 4.5 
4 *716:13 *716:15 366.893 
5 *716:15 *716:21 8.18679 
6 *716:21 *716:23 211.383 
7 *716:23 *716:25 3.41 
8 *716:25 *716:27 136.09 
9 *716:27 *740:mem_wdata[28] 4.64923 
*END

*D_NET *717 0.738024
*CONN
*I *740:mem_wdata[29] I *D ntt_engine_256
*I *739:mem_wdata_o[29] O *D ntt_wb_bridge
*CAP
1 *740:mem_wdata[29] 0.000486791
2 *739:mem_wdata_o[29] 0.00102238
3 *717:35 0.0451954
4 *717:33 0.0450045
5 *717:27 0.00277917
6 *717:25 0.0024833
7 *717:23 0.0162722
8 *717:21 0.0165059
9 *717:15 0.0102939
10 *717:13 0.0100601
11 *717:11 0.00525485
12 *717:9 0.00627723
13 *717:9 *719:9 0
14 *717:11 *725:11 0.0250156
15 *717:11 *734:27 0
16 *717:11 *736:11 0.0245403
17 *717:15 *719:15 4.16984e-05
18 *717:15 *727:23 0.00018094
19 *717:23 *719:23 0.100072
20 *717:27 *729:27 0.00364708
21 *717:35 *726:27 0.0704308
22 *717:35 *736:27 0.00556726
23 *81:23 *717:35 0.0236687
24 *94:85 *717:27 0.000664112
25 *116:137 *717:27 0
26 *119:25 *717:35 0.00928566
27 *361:15 *717:15 0.0108108
28 *540:189 *717:35 0.00928566
29 *656:25 *717:23 0.000113503
30 *664:15 *717:15 0.00269763
31 *689:19 *717:27 0.00860023
32 *691:11 *717:35 0.0394699
33 *691:27 *717:11 0.000284972
34 *695:31 *717:23 0.00761558
35 *696:23 *717:23 0.0901158
36 *702:11 *717:11 0.00481041
37 *702:21 *717:11 5.09424e-05
38 *704:23 *717:15 0.0627946
39 *709:27 *717:35 1.26492e-05
40 *710:35 *717:35 0.0226183
41 *712:15 *717:15 0.0474162
42 *712:23 *717:23 0.00556833
43 *716:9 *717:9 0
44 *716:27 *717:27 0.00100875
*RES
1 *739:mem_wdata_o[29] *717:9 5.6566 
2 *717:9 *717:11 321.759 
3 *717:11 *717:13 4.5 
4 *717:13 *717:15 589.911 
5 *717:15 *717:21 11.8296 
6 *717:21 *717:23 171.926 
7 *717:23 *717:25 3.41 
8 *717:25 *717:27 105.768 
9 *717:27 *717:33 7.33543 
10 *717:33 *717:35 229.52 
11 *717:35 *740:mem_wdata[29] 4.53643 
*END

*D_NET *718 0.625252
*CONN
*I *740:mem_wdata[2] I *D ntt_engine_256
*I *739:mem_wdata_o[2] O *D ntt_wb_bridge
*CAP
1 *740:mem_wdata[2] 0.000855776
2 *739:mem_wdata_o[2] 0.000516636
3 *718:27 0.0272761
4 *718:25 0.0265024
5 *718:19 0.0104969
6 *718:17 0.0104148
7 *718:15 0.0561126
8 *718:13 0.0561126
9 *718:11 0.0129316
10 *718:9 0.0134483
11 *718:11 *722:11 0.0136808
12 *718:11 *734:27 0
13 *718:15 *734:39 0
14 *718:19 *725:43 0.00501728
15 *718:25 *740:mem_wdata[7] 3.77315e-05
16 *718:27 *725:43 0.000124265
17 *718:27 *734:43 0.0133636
18 *718:27 *737:46 0.0119465
19 io_out[1] *718:9 0
20 *82:25 *718:19 0
21 *116:137 *718:27 0.00495944
22 *650:15 *718:15 0
23 *650:19 *718:19 0.00558429
24 *656:11 *718:11 0.000621161
25 *656:27 *718:19 0.0454245
26 *656:27 *718:27 0.00691195
27 *657:11 *718:11 0.0404681
28 *683:15 *718:15 0
29 *691:23 *718:15 0.176561
30 *706:19 *718:19 0.0303686
31 *706:27 *718:27 0.0555149
32 *709:15 *718:15 0
*RES
1 *739:mem_wdata_o[2] *718:9 4.54113 
2 *718:9 *718:11 534.411 
3 *718:11 *718:13 3.41 
4 *718:13 *718:15 275.342 
5 *718:15 *718:17 3.41 
6 *718:17 *718:19 556.875 
7 *718:19 *718:25 6.9751 
8 *718:25 *718:27 115.742 
9 *718:27 *740:mem_wdata[2] 5.4075 
*END

*D_NET *719 0.426928
*CONN
*I *740:mem_wdata[30] I *D ntt_engine_256
*I *739:mem_wdata_o[30] O *D ntt_wb_bridge
*CAP
1 *740:mem_wdata[30] 0.000657716
2 *739:mem_wdata_o[30] 0.000143862
3 *719:23 0.0171012
4 *719:21 0.0166633
5 *719:15 0.0070092
6 *719:13 0.00678938
7 *719:11 0.00555681
8 *719:9 0.00570068
9 *719:11 *737:20 0.000113898
10 *719:15 *727:23 0.0331178
11 *719:23 *722:15 0.0196715
12 *739:mem_rdata_i[10] *719:11 0.000118344
13 *356:31 *719:11 0
14 *360:77 *719:11 2.11419e-05
15 *363:69 *719:11 0.00122942
16 *367:15 *719:15 0.00501211
17 *656:11 *719:11 0
18 *656:15 *719:23 0.00169019
19 *687:15 *719:11 0.0204556
20 *696:15 *719:15 0.0427474
21 *696:21 *719:21 0
22 *696:23 *719:23 0.000117546
23 *701:12 *719:11 0.00126825
24 *701:16 *719:11 0.0003493
25 *701:18 *719:23 0.000915581
26 *711:11 *719:11 0.0247815
27 *712:15 *719:15 3.97677e-05
28 *712:23 *719:23 0.115119
29 *713:11 *719:11 0.00042283
30 *717:9 *719:9 0
31 *717:15 *719:15 4.16984e-05
32 *717:23 *719:23 0.100072
*RES
1 *739:mem_wdata_o[30] *719:9 3.67633 
2 *719:9 *719:11 317.812 
3 *719:11 *719:13 4.5 
4 *719:13 *719:15 403.446 
5 *719:15 *719:21 11.5261 
6 *719:21 *719:23 186.411 
7 *719:23 *740:mem_wdata[30] 15.3564 
*END

*D_NET *720 0.569817
*CONN
*I *740:mem_wdata[31] I *D ntt_engine_256
*I *739:mem_wdata_o[31] O *D ntt_wb_bridge
*CAP
1 *740:mem_wdata[31] 0.00516388
2 *739:mem_wdata_o[31] 4.15684e-05
3 *720:11 0.0418119
4 *720:9 0.036648
5 *720:7 0.0356934
6 *720:5 0.035735
7 *75:17 *720:11 0.201893
8 *77:121 *720:7 0
9 *78:71 *720:7 0.00159326
10 *115:137 *720:11 0
11 *653:21 *740:mem_wdata[31] 0.00019262
12 *667:11 *740:mem_wdata[31] 9.37046e-05
13 *679:11 *740:mem_wdata[31] 0.00934871
14 *680:11 *720:11 0.0252303
15 *682:11 *740:mem_wdata[31] 0.000190922
16 *686:11 *720:11 6.35687e-05
17 *694:167 *720:11 0.175531
18 *715:23 *720:7 0.000587262
19 *715:93 *740:mem_wdata[31] 0
*RES
1 *739:mem_wdata_o[31] *720:5 0.0767667 
2 *720:5 *720:7 106.67 
3 *720:7 *720:9 3.41 
4 *720:9 *720:11 2474.84 
5 *720:11 *740:mem_wdata[31] 36.7057 
*END

*D_NET *721 0.632178
*CONN
*I *740:mem_wdata[3] I *D ntt_engine_256
*I *739:mem_wdata_o[3] O *D ntt_wb_bridge
*CAP
1 *740:mem_wdata[3] 0.00140024
2 *739:mem_wdata_o[3] 2.28625e-05
3 *721:147 0.0275659
4 *721:145 0.0261656
5 *721:143 0.029662
6 *721:141 0.0318762
7 *721:133 0.00350882
8 *721:125 0.00469632
9 *721:109 0.00650667
10 *721:87 0.00641531
11 *721:85 0.00363382
12 *721:79 0.0022513
13 *721:77 0.00238665
14 *721:71 0.002893
15 *721:69 0.00263393
16 *721:63 0.00339901
17 *721:61 0.0058771
18 *721:49 0.00518816
19 *721:37 0.00496809
20 *721:25 0.0053075
21 *721:11 0.00531734
22 *721:9 0.00246764
23 *721:7 0.0240907
24 *721:5 0.0241136
25 *721:109 *723:105 0
26 *721:125 *723:105 0.00019425
27 *721:141 *723:127 0.000308096
28 *721:143 *723:147 0.000996436
29 io_oeb[1] *721:25 0.00154226
30 la_data_out[113] *721:79 0.00505014
31 la_data_out[115] *721:109 0
32 la_data_out[115] *721:125 0
33 *77:147 *721:133 0.000347294
34 *77:155 *721:141 0
35 *112:33 *721:133 0
36 *114:129 *721:109 0.000214081
37 *114:153 *721:143 0
38 *115:149 *740:mem_wdata[3] 0.0019493
39 *115:149 *721:147 0.0128188
40 *295:15 *721:133 0.000591947
41 *296:19 *721:125 0
42 *531:23 *721:109 0.000142743
43 *652:73 *721:63 0.00218253
44 *652:73 *721:77 0.000843048
45 *652:121 *721:141 0.00132834
46 *655:29 *721:25 0
47 *655:107 *721:109 0.000360116
48 *655:121 *721:125 0.000165754
49 *655:121 *721:133 0
50 *655:121 *721:141 0
51 *655:127 *721:141 0.000380897
52 *658:25 *721:7 0.000395776
53 *659:109 *721:141 0.00124352
54 *665:29 *721:141 4.57582e-05
55 *666:11 *721:141 0.000475177
56 *672:25 *721:133 0.000121549
57 *672:27 *721:85 0
58 *679:45 *721:141 0.000109615
59 *680:11 *721:143 0.028241
60 *680:35 *721:141 0
61 *680:39 *721:109 0
62 *681:23 *721:141 1.31821e-05
63 *681:25 *721:109 7.5689e-05
64 *686:11 *721:143 0.159402
65 *686:77 *721:69 0.000684323
66 *694:33 *721:11 0
67 *694:47 *721:37 0
68 *694:61 *721:49 0.000482221
69 *694:79 *721:63 0.00193211
70 *694:93 *721:77 0.000543621
71 *694:101 *721:79 0
72 *694:125 *721:109 6.71924e-05
73 *694:141 *721:125 0.000103723
74 *694:167 *721:143 0.174604
75 *700:7 *721:25 0.00138796
76 *705:7 *721:49 0.000485267
*RES
1 *739:mem_wdata_o[3] *721:5 0.0767667 
2 *721:5 *721:7 71.429 
3 *721:7 *721:9 3.41 
4 *721:9 *721:11 49.9107 
5 *721:11 *721:25 44.0236 
6 *721:25 *721:37 49.1482 
7 *721:37 *721:49 49.8861 
8 *721:49 *721:61 32.2162 
9 *721:61 *721:63 73.5893 
10 *721:63 *721:69 7.87593 
11 *721:69 *721:71 49.9107 
12 *721:71 *721:77 9.10107 
13 *721:77 *721:79 62.0536 
14 *721:79 *721:85 7.87593 
15 *721:85 *721:87 67.5179 
16 *721:87 *721:109 49.3708 
17 *721:109 *721:125 43.3558 
18 *721:125 *721:133 27.3574 
19 *721:133 *721:141 43.0207 
20 *721:141 *721:143 2139.7 
21 *721:143 *721:145 3.41 
22 *721:145 *721:147 91.1032 
23 *721:147 *740:mem_wdata[3] 9.41033 
*END

*D_NET *722 0.218395
*CONN
*I *740:mem_wdata[4] I *D ntt_engine_256
*I *739:mem_wdata_o[4] O *D ntt_wb_bridge
*CAP
1 *740:mem_wdata[4] 0.000695564
2 *739:mem_wdata_o[4] 0.00074345
3 *722:15 0.0119034
4 *722:13 0.0112078
5 *722:11 0.0138295
6 *722:9 0.0145729
7 *722:9 *723:7 0
8 *722:11 *727:11 0
9 *722:11 *727:19 0.0305199
10 *722:11 *729:11 0
11 *722:11 *734:27 0
12 *722:15 *731:55 0.0433634
13 *722:15 *734:37 0
14 *79:19 *722:9 0.000360771
15 *656:15 *722:15 0.00206706
16 *668:15 *722:15 0.000282378
17 *696:23 *722:15 0.0193243
18 *697:15 *722:15 0.00127189
19 *701:18 *722:15 0
20 *713:15 *722:15 0.0349007
21 *718:11 *722:11 0.0136808
22 *719:23 *722:15 0.0196715
*RES
1 *739:mem_wdata_o[4] *722:9 5.07693 
2 *722:9 *722:11 506.482 
3 *722:11 *722:13 3.41 
4 *722:13 *722:15 102.382 
5 *722:15 *740:mem_wdata[4] 15.9636 
*END

*D_NET *723 0.540037
*CONN
*I *740:mem_wdata[5] I *D ntt_engine_256
*I *739:mem_wdata_o[5] O *D ntt_wb_bridge
*CAP
1 *740:mem_wdata[5] 0.00137618
2 *739:mem_wdata_o[5] 2.48797e-05
3 *723:147 0.00231833
4 *723:133 0.0304564
5 *723:131 0.0310017
6 *723:127 0.00470857
7 *723:105 0.0133342
8 *723:79 0.0177707
9 *723:69 0.01662
10 *723:41 0.0181382
11 *723:7 0.0334661
12 *723:5 0.024315
13 la_data_out[114] *723:105 0.00144158
14 la_data_out[115] *723:105 0.000239433
15 *69:21 *723:133 0.0169769
16 *77:155 *723:127 0
17 *78:129 *740:mem_wdata[5] 0.00152313
18 *114:145 *723:133 0.164538
19 *114:153 *723:147 0.000186208
20 *115:145 *740:mem_wdata[5] 0.00152143
21 *295:15 *723:105 0
22 *646:47 *723:131 0
23 *651:15 *723:127 0.000247502
24 *652:57 *723:69 0.000430389
25 *652:73 *723:69 0
26 *652:93 *723:105 0.00109354
27 *652:121 *723:105 6.27963e-05
28 *652:121 *723:127 0
29 *655:29 *723:41 0
30 *655:107 *723:105 0
31 *655:127 *723:127 0.000501844
32 *655:131 *723:133 0.143856
33 *659:31 *723:69 0.000718668
34 *659:61 *723:69 2.82126e-05
35 *659:77 *723:105 0.00734556
36 *663:31 *723:127 0.00011333
37 *665:57 *723:79 0
38 *666:15 *723:79 0.00136772
39 *667:19 *723:127 4.22135e-06
40 *682:15 *740:mem_wdata[5] 1.94945e-05
41 *685:65 *723:131 0.000563067
42 *686:77 *723:79 0.000365481
43 *694:73 *723:69 4.98422e-05
44 *694:117 *723:105 0.000234866
45 *699:15 *723:127 0.000517622
46 *700:7 *723:41 0.00103107
47 *705:7 *723:69 0
48 *715:63 *723:131 2.07394e-05
49 *715:83 *740:mem_wdata[5] 1.01912e-05
50 *721:109 *723:105 0
51 *721:125 *723:105 0.00019425
52 *721:141 *723:127 0.000308096
53 *721:143 *723:147 0.000996436
54 *722:9 *723:7 0
*RES
1 *739:mem_wdata_o[5] *723:5 0.0767667 
2 *723:5 *723:7 67.6455 
3 *723:7 *723:41 47.0651 
4 *723:41 *723:69 49.9635 
5 *723:69 *723:79 34.9645 
6 *723:79 *723:105 46.8148 
7 *723:105 *723:127 34.0401 
8 *723:127 *723:131 29.6786 
9 *723:131 *723:133 2016.14 
10 *723:133 *723:147 40.7857 
11 *723:147 *740:mem_wdata[5] 40.6431 
*END

*D_NET *724 0.193304
*CONN
*I *740:mem_wdata[6] I *D ntt_engine_256
*I *739:mem_wdata_o[6] O *D ntt_wb_bridge
*CAP
1 *740:mem_wdata[6] 0.000885886
2 *739:mem_wdata_o[6] 2.28625e-05
3 *724:11 0.0177831
4 *724:9 0.0168972
5 *724:7 0.0350755
6 *724:5 0.0350983
7 *724:11 *730:11 0.00751072
8 *724:11 *730:19 0.00106313
9 *724:11 *738:11 0.0417231
10 *724:11 *738:19 0.00165767
11 *740:mem_wdata[13] *724:11 0.00469679
12 *740:mem_wdata[16] *724:11 0.00650912
13 *77:161 *740:mem_wdata[6] 0.000689491
14 *652:37 *724:7 0.000356125
15 *654:11 *740:mem_wdata[6] 0.000360771
16 *672:17 *724:11 0.00140503
17 *682:29 *740:mem_wdata[6] 0.000236551
18 *682:31 *724:11 0.0014785
19 *690:11 *724:11 0.000991536
20 *699:19 *724:11 0.00160806
21 *705:11 *724:11 0.0155153
22 *708:19 *724:11 0.00173962
*RES
1 *739:mem_wdata_o[6] *724:5 0.0767667 
2 *724:5 *724:7 104.976 
3 *724:7 *724:9 3.41 
4 *724:9 *724:11 118.406 
5 *724:11 *740:mem_wdata[6] 5.6989 
*END

*D_NET *725 0.548263
*CONN
*I *740:mem_wdata[7] I *D ntt_engine_256
*I *739:mem_wdata_o[7] O *D ntt_wb_bridge
*CAP
1 *740:mem_wdata[7] 0.00118184
2 *739:mem_wdata_o[7] 0.00100456
3 *725:43 0.0158216
4 *725:41 0.0147349
5 *725:35 0.00980158
6 *725:33 0.0113681
7 *725:23 0.0227872
8 *725:21 0.0213572
9 *725:15 0.00511154
10 *725:13 0.00487994
11 *725:11 0.00708115
12 *725:9 0.00808571
13 *740:mem_wdata[7] *736:27 0.000360771
14 *725:11 *726:11 0.0370113
15 *725:11 *731:11 0.000304421
16 *725:11 *736:11 0.00726295
17 *725:35 *737:46 0
18 *725:43 *734:43 0.000423043
19 *725:43 *737:46 0.000460275
20 *740:mem_wdata[14] *725:43 0.000713086
21 *82:25 *725:35 0
22 *116:137 *725:43 0.00199765
23 *118:153 *725:35 0.00247516
24 *373:17 *725:23 0.00347973
25 *376:15 *725:15 0.0058301
26 *379:13 *725:21 8.56412e-05
27 *656:27 *725:35 5.07756e-05
28 *656:27 *725:43 0.00562136
29 *675:19 *725:33 0.000167611
30 *676:21 *725:33 0.00346629
31 *676:23 *725:23 0.132194
32 *676:23 *725:33 0.000690989
33 *676:31 *725:15 0.0335665
34 *691:27 *725:11 0.000236227
35 *701:22 *725:43 0.00318234
36 *702:11 *725:11 0.00574454
37 *702:23 *725:15 0.000393696
38 *702:31 *725:23 0.0733308
39 *702:31 *725:33 0.00530939
40 *706:19 *725:35 0.0229523
41 *706:19 *725:43 0.00167979
42 *706:27 *725:43 0.00835596
43 *711:15 *725:15 0.000606438
44 *716:15 *725:15 0.0368988
45 *716:23 *725:33 0
46 *717:11 *725:11 0.0250156
47 *718:19 *725:43 0.00501728
48 *718:25 *740:mem_wdata[7] 3.77315e-05
49 *718:27 *725:43 0.000124265
*RES
1 *739:mem_wdata_o[7] *725:9 5.72867 
2 *725:9 *725:11 470.205 
3 *725:11 *725:13 4.5 
4 *725:13 *725:15 347.179 
5 *725:15 *725:21 12.1332 
6 *725:21 *725:23 205.401 
7 *725:23 *725:33 14.0806 
8 *725:33 *725:35 302.482 
9 *725:35 *725:41 6.9751 
10 *725:41 *725:43 48.9458 
11 *725:43 *740:mem_wdata[7] 5.97777 
*END

*D_NET *726 0.728524
*CONN
*I *740:mem_wdata[8] I *D ntt_engine_256
*I *739:mem_wdata_o[8] O *D ntt_wb_bridge
*CAP
1 *740:mem_wdata[8] 0.000547888
2 *739:mem_wdata_o[8] 0.000984342
3 *726:27 0.0213437
4 *726:25 0.0207958
5 *726:23 0.0125108
6 *726:21 0.012795
7 *726:15 0.0118819
8 *726:13 0.0115977
9 *726:11 0.00640209
10 *726:9 0.00738644
11 *726:11 *731:11 0.0170334
12 *726:15 *729:15 0.0963835
13 *726:15 *736:15 0.0951184
14 *726:15 *737:34 0
15 *726:23 *729:23 0.0716944
16 *726:23 *736:23 0.0725121
17 *726:27 *729:35 5.4835e-05
18 *726:27 *733:35 0.0186546
19 *726:27 *736:27 0
20 *739:mem_rdata_i[6] *726:11 0.000170008
21 *94:85 *726:27 4.39428e-05
22 *300:15 *726:15 5.96516e-05
23 *315:25 *726:23 0.000403461
24 *335:15 *726:15 0.00621649
25 *338:29 *726:23 2.58939e-06
26 *340:25 *726:15 0.000460458
27 *347:23 *726:15 0.000424163
28 *351:23 *726:15 0.000603302
29 *357:15 *726:15 0.000278847
30 *362:15 *726:15 0.00337758
31 *387:15 *726:15 0.0002845
32 *390:15 *726:15 0.00591807
33 *676:21 *726:27 0.00934086
34 *689:11 *726:27 0.00409835
35 *689:31 *726:15 7.95355e-05
36 *691:17 *740:mem_wdata[8] 2.63501e-05
37 *691:19 *726:27 0.0168992
38 *691:27 *726:11 0.0175135
39 *702:11 *726:11 0.00139453
40 *702:35 *726:27 0.0151071
41 *704:35 *726:27 0.0167648
42 *709:11 *726:11 0.00127289
43 *709:27 *726:27 0.00743307
44 *716:23 *726:23 0.000142668
45 *716:27 *726:27 0.0350687
46 *717:35 *726:27 0.0704308
47 *725:11 *726:11 0.0370113
*RES
1 *739:mem_wdata_o[8] *726:9 5.6942 
2 *726:9 *726:11 456.848 
3 *726:11 *726:13 4.5 
4 *726:13 *726:15 908.214 
5 *726:15 *726:21 12.7404 
6 *726:21 *726:23 115.894 
7 *726:23 *726:25 3.41 
8 *726:25 *726:27 168.689 
9 *726:27 *740:mem_wdata[8] 4.66803 
*END

*D_NET *727 0.318525
*CONN
*I *740:mem_wdata[9] I *D ntt_engine_256
*I *739:mem_wdata_o[9] O *D ntt_wb_bridge
*CAP
1 *740:mem_wdata[9] 0.000818705
2 *739:mem_wdata_o[9] 0.000864359
3 *727:31 0.0182891
4 *727:29 0.0174919
5 *727:23 0.0103635
6 *727:21 0.010342
7 *727:19 0.0127797
8 *727:17 0.0129489
9 *727:11 0.00284749
10 *727:9 0.00354264
11 *727:11 *729:11 0.00672218
12 *727:19 *729:11 0
13 *727:19 *734:27 0.0015348
14 io_oeb[1] *727:9 0.00027117
15 *76:19 *727:9 0.000118344
16 *79:23 *727:9 0.000237214
17 *361:15 *727:31 0.00149839
18 *367:15 *727:23 0.00255134
19 *367:15 *727:31 0.00595404
20 *650:11 *727:11 0.000326518
21 *664:15 *727:31 0.0154267
22 *668:13 *727:31 0.0019243
23 *668:15 *727:31 0.0765799
24 *695:31 *727:31 0.0202047
25 *702:11 *727:11 0.000386749
26 *704:31 *727:31 0.0305758
27 *712:15 *727:31 0.00010603
28 *717:15 *727:23 0.00018094
29 *719:15 *727:23 0.0331178
30 *722:11 *727:11 0
31 *722:11 *727:19 0.0305199
*RES
1 *739:mem_wdata_o[9] *727:9 5.76 
2 *727:9 *727:11 82.8482 
3 *727:11 *727:17 12 
4 *727:17 *727:19 384.143 
5 *727:19 *727:21 4.5 
6 *727:21 *727:23 317.607 
7 *727:23 *727:29 8.18679 
8 *727:29 *727:31 155.783 
9 *727:31 *740:mem_wdata[9] 17.9814 
*END

*D_NET *728 0.266373
*CONN
*I *740:mem_we I *D ntt_engine_256
*I *739:mem_we_o O *D ntt_wb_bridge
*CAP
1 *740:mem_we 0.00224295
2 *739:mem_we_o 0.000408113
3 *728:15 0.0333793
4 *728:13 0.0311364
5 *728:11 0.0113934
6 *728:9 0.0118015
7 *278:15 *728:15 0.000432936
8 *282:17 *728:15 0.00169348
9 *316:19 *728:15 0.0132559
10 *317:15 *728:15 0.000337508
11 *318:15 *728:15 0.000256231
12 *320:15 *728:15 0.000392671
13 *323:15 *728:15 0
14 *325:15 *728:15 0
15 *327:15 *728:15 0
16 *339:29 *740:mem_we 0
17 *341:29 *728:15 0.00251229
18 *343:19 *728:15 0.00526174
19 *345:23 *728:15 0.0128279
20 *347:25 *728:15 0.000545915
21 *348:25 *728:15 0.000659612
22 *349:27 *728:15 0.000655422
23 *351:13 *728:15 0.00146242
24 *351:15 *728:15 0.000527388
25 *352:7 *728:15 0.000606181
26 *355:13 *740:mem_we 2.8266e-06
27 *356:19 *728:15 0.008164
28 *356:31 *728:11 0.0490272
29 *357:15 *728:15 0.000234806
30 *359:15 *728:15 0.000137249
31 *360:19 *728:15 0
32 *363:15 *728:15 0.00691223
33 *391:15 *728:15 0.0266864
34 *399:25 *728:15 0.000266891
35 *530:15 *728:15 0
36 *650:9 *728:9 0
37 *656:11 *728:11 0.0431517
38 *689:31 *728:15 0
*RES
1 *739:mem_we_o *728:9 4.32493 
2 *728:9 *728:11 614.098 
3 *728:11 *728:13 4.5 
4 *728:13 *728:15 845.375 
5 *728:15 *740:mem_we 42.4018 
*END

*D_NET *729 0.633316
*CONN
*I *740:op[0] I *D ntt_engine_256
*I *739:op_o[0] O *D ntt_wb_bridge
*CAP
1 *740:op[0] 0.000807369
2 *739:op_o[0] 0.00105502
3 *729:35 0.0216649
4 *729:33 0.0209734
5 *729:27 0.00222716
6 *729:25 0.00211129
7 *729:23 0.0122502
8 *729:21 0.0123724
9 *729:15 0.0120128
10 *729:13 0.0118906
11 *729:11 0.0215286
12 *729:9 0.0225836
13 *729:9 *730:7 0
14 *729:11 *731:11 0
15 *729:11 *734:27 0
16 *729:11 *736:11 0.0516523
17 *729:15 *737:34 0
18 *729:23 *737:42 4.65837e-05
19 la_data_out[23] *729:21 0.00025869
20 *740:mem_wdata[14] *729:35 0.00108238
21 *76:19 *729:9 0.000236689
22 *79:19 *729:9 0.000437196
23 *80:179 *729:27 0
24 *94:85 *729:27 0.000607793
25 *94:85 *729:35 0.000436037
26 *116:137 *729:27 0
27 *335:15 *729:15 0.00536854
28 *338:29 *729:23 1.17103e-05
29 *339:29 *729:15 0.0011483
30 *340:25 *729:15 0.000706851
31 *346:37 *729:21 0
32 *347:23 *729:15 0.000435426
33 *352:7 *729:15 0.000352321
34 *357:15 *729:15 0.000286252
35 *360:79 *729:11 0
36 *362:15 *729:15 0.0103733
37 *650:11 *729:11 0.00278558
38 *689:11 *729:35 0.00396929
39 *689:19 *729:27 0.00079797
40 *689:23 *729:23 0.0718062
41 *689:29 *729:21 0.000307818
42 *689:31 *729:15 0.0975894
43 *701:22 *729:35 0.0098506
44 *702:11 *729:11 0.0059008
45 *706:27 *729:35 0.014728
46 *709:25 *740:op[0] 7.59402e-06
47 *716:23 *729:23 3.90011e-05
48 *716:27 *729:35 0.0321138
49 *717:27 *729:27 0.00364708
50 *722:11 *729:11 0
51 *726:15 *729:15 0.0963835
52 *726:23 *729:23 0.0716944
53 *726:27 *729:35 5.4835e-05
54 *727:11 *729:11 0.00672218
55 *727:19 *729:11 0
*RES
1 *739:op_o[0] *729:9 5.83207 
2 *729:9 *729:11 687.259 
3 *729:11 *729:13 4.5 
4 *729:13 *729:15 918.071 
5 *729:15 *729:21 12.4368 
6 *729:21 *729:23 114.273 
7 *729:23 *729:25 3.41 
8 *729:25 *729:27 63.2679 
9 *729:27 *729:33 7.04717 
10 *729:33 *729:35 141.63 
11 *729:35 *740:op[0] 5.2571 
*END

*D_NET *730 0.387732
*CONN
*I *740:op[1] I *D ntt_engine_256
*I *739:op_o[1] O *D ntt_wb_bridge
*CAP
1 *740:op[1] 0.000627892
2 *739:op_o[1] 2.28625e-05
3 *730:19 0.0386323
4 *730:17 0.0381853
5 *730:11 0.011608
6 *730:9 0.0114271
7 *730:7 0.0350572
8 *730:5 0.0350801
9 *730:11 *738:11 0.00957369
10 *730:19 *738:11 0.0055011
11 *730:19 *738:19 0
12 *74:17 *730:11 0.00741162
13 *78:31 *730:7 0
14 *104:23 *730:11 0
15 *674:11 *730:19 0.0980609
16 *682:15 *730:19 0.0538026
17 *682:31 *730:19 0.00753537
18 *685:45 *730:19 0.00549654
19 *686:19 *730:19 0
20 *699:19 *730:19 0.020929
21 *705:7 *730:17 0.000159733
22 *705:11 *730:11 4.71923e-05
23 *724:11 *730:11 0.00751072
24 *724:11 *730:19 0.00106313
25 *729:9 *730:7 0
*RES
1 *739:op_o[1] *730:5 0.0767667 
2 *730:5 *730:7 105.12 
3 *730:7 *730:9 3.41 
4 *730:9 *730:11 52.6745 
5 *730:11 *730:17 7.33543 
6 *730:17 *730:19 1621.2 
7 *730:19 *740:op[1] 4.79493 
*END

*D_NET *731 0.20431
*CONN
*I *740:op[2] I *D ntt_engine_256
*I *739:op_o[2] O *D ntt_wb_bridge
*CAP
1 *740:op[2] 0.00071713
2 *739:op_o[2] 0.00119134
3 *731:55 0.00648868
4 *731:53 0.0175016
5 *731:41 0.0139362
6 *731:19 0.0051456
7 *731:17 0.00434399
8 *731:11 0.0164773
9 *731:9 0.0162641
10 *731:9 *732:7 0
11 *731:11 *733:17 1.53908e-05
12 *731:11 *736:11 0
13 *731:41 *737:20 0.000124274
14 *76:19 *731:9 0.000236689
15 *79:19 *731:9 0.000437196
16 *281:17 *731:53 0.000639996
17 *282:17 *731:53 0.000197989
18 *356:31 *731:41 0
19 *360:53 *731:41 0.000106894
20 *360:53 *731:53 0.00588878
21 *360:77 *731:41 0
22 *360:79 *731:11 0
23 *665:59 *731:41 5.52634e-05
24 *687:15 *731:41 0.000611571
25 *697:15 *731:55 0.0433634
26 *702:11 *731:11 0.000728987
27 *709:11 *731:11 0.00913607
28 *722:15 *731:55 0.0433634
29 *725:11 *731:11 0.000304421
30 *726:11 *731:11 0.0170334
31 *729:11 *731:11 0
*RES
1 *739:op_o[2] *731:9 6.1924 
2 *731:9 *731:11 425.58 
3 *731:11 *731:17 32.125 
4 *731:17 *731:19 58.4107 
5 *731:19 *731:41 38.8852 
6 *731:41 *731:53 45.6022 
7 *731:53 *731:55 67.3933 
8 *731:55 *740:op[2] 16.5707 
*END

*D_NET *732 0.773053
*CONN
*I *740:slot_a[0] I *D ntt_engine_256
*I *739:slot_a_o[0] O *D ntt_wb_bridge
*CAP
1 *740:slot_a[0] 0.000465403
2 *739:slot_a_o[0] 2.28625e-05
3 *732:15 0.00795812
4 *732:13 0.00749272
5 *732:11 0.0374002
6 *732:9 0.0374002
7 *732:7 0.0352118
8 *732:5 0.0352347
9 *104:23 *732:11 0.0100327
10 *113:17 *732:11 4.19175e-05
11 *142:19 *732:11 0
12 *646:17 *740:slot_a[0] 0
13 *646:19 *732:15 0.00196964
14 *648:11 *732:11 0.232401
15 *648:23 *732:15 0.00792563
16 *652:123 *732:11 0.0131701
17 *653:11 *732:11 0.224161
18 *653:21 *732:15 0.000458931
19 *653:23 *732:15 0.00637167
20 *659:111 *732:11 0.0141211
21 *663:11 *732:15 0.0298498
22 *671:15 *732:15 0.0210319
23 *673:11 *732:15 0.0503324
24 *731:9 *732:7 0
*RES
1 *739:slot_a_o[0] *732:5 0.0767667 
2 *732:5 *732:7 105.733 
3 *732:7 *732:9 3.41 
4 *732:9 *732:11 2850.05 
5 *732:11 *732:13 3.41 
6 *732:13 *732:15 79.6807 
7 *732:15 *740:slot_a[0] 12.0529 
*END

*D_NET *733 0.956077
*CONN
*I *740:slot_a[1] I *D ntt_engine_256
*I *739:slot_a_o[1] O *D ntt_wb_bridge
*CAP
1 *740:slot_a[1] 0.00564853
2 *739:slot_a_o[1] 0.001759
3 *733:35 0.0329646
4 *733:33 0.0273161
5 *733:31 0.01927
6 *733:29 0.0194797
7 *733:23 0.0198662
8 *733:21 0.0196565
9 *733:19 0.0092902
10 *733:17 0.0110492
11 *739:mem_rdata_i[30] *733:19 0.000895129
12 *740:mem_wdata[23] *733:29 0
13 *81:23 *733:35 0.177255
14 *102:23 *733:19 0.0115933
15 *274:15 *733:23 0
16 *276:15 *733:23 0
17 *357:27 *733:19 0.000259058
18 *360:29 *733:23 0.00123293
19 *360:79 *733:17 4.38243e-05
20 *361:19 *733:19 0
21 *365:23 *733:19 0.0531547
22 *370:19 *733:19 0.000185551
23 *371:27 *733:19 0.0527965
24 *376:15 *733:23 0.00215835
25 *384:21 *733:23 0.00461704
26 *394:15 *733:23 0.0275537
27 *396:15 *733:23 0
28 *662:13 *740:slot_a[1] 0.00659607
29 *678:11 *733:31 0.0700087
30 *689:19 *733:35 0
31 *691:11 *733:35 0.0228083
32 *695:39 *740:slot_a[1] 9.94185e-05
33 *702:23 *733:23 0
34 *702:31 *733:31 0.120473
35 *702:35 *733:35 0.000412703
36 *704:35 *733:35 0.176299
37 *710:39 *740:slot_a[1] 0.0214676
38 *716:15 *733:23 0.00457246
39 *716:23 *733:23 0.00263041
40 *716:23 *733:31 0.0139946
41 *726:27 *733:35 0.0186546
42 *731:11 *733:17 1.53908e-05
*RES
1 *739:slot_a_o[1] *733:17 26.3664 
2 *733:17 *733:19 665.857 
3 *733:19 *733:21 4.5 
4 *733:21 *733:23 513.518 
5 *733:23 *733:29 11.5261 
6 *733:29 *733:31 187.204 
7 *733:31 *733:33 3.41 
8 *733:33 *733:35 2173.7 
9 *733:35 *740:slot_a[1] 49.0221 
*END

*D_NET *734 0.782781
*CONN
*I *740:slot_b[0] I *D ntt_engine_256
*I *739:slot_b_o[0] O *D ntt_wb_bridge
*CAP
1 *740:slot_b[0] 0.000372668
2 *739:slot_b_o[0] 0.00105152
3 *734:67 0.0208641
4 *734:65 0.0215812
5 *734:51 0.0160742
6 *734:49 0.0153724
7 *734:43 0.0220941
8 *734:41 0.0217061
9 *734:39 0.0847927
10 *734:37 0.0868977
11 *734:27 0.00560835
12 *734:25 0.00420558
13 *734:19 0.00768303
14 *734:17 0.00717465
15 *734:11 0.00625674
16 *734:9 0.00711446
17 *734:19 *735:11 0.0210278
18 *734:43 *737:46 0.106817
19 *739:busy_i *734:25 0
20 *739:mem_rdata_i[10] *734:19 0.00298792
21 *739:mem_rvalid_i *734:25 0
22 *80:179 *734:43 0.121434
23 *80:187 *734:51 0.0117348
24 *80:205 *734:67 0.000117814
25 *116:137 *734:51 0
26 *116:145 *734:51 0.014522
27 *118:177 *734:51 0.00371512
28 *118:201 *734:65 0.000775242
29 *120:23 *734:65 0.000208733
30 *120:23 *734:67 0
31 *284:17 *734:19 0
32 *364:23 *734:11 0.0285667
33 *372:19 *734:11 0.0106746
34 *540:187 *734:39 0.000664228
35 *540:193 *734:65 0.00183246
36 *650:11 *734:27 0.000630425
37 *650:19 *734:43 0.0054641
38 *656:35 *734:43 0.00915698
39 *658:15 *734:11 0.000150368
40 *668:15 *734:37 0
41 *676:35 *734:19 0.00508059
42 *689:9 *734:49 1.86375e-05
43 *691:27 *734:27 0
44 *695:15 *734:11 0.000122162
45 *701:18 *734:37 0.00575059
46 *701:22 *734:43 0.00129364
47 *702:21 *734:27 0
48 *702:43 *734:51 0.00322105
49 *704:17 *734:11 6.57509e-05
50 *704:35 *734:51 0.0191685
51 *704:39 *734:67 0.0495903
52 *706:15 *734:37 0.00680316
53 *706:27 *734:43 0.00334059
54 *709:27 *734:51 0.00342589
55 *710:17 *734:11 4.99468e-05
56 *713:15 *734:37 0
57 *714:13 *734:11 0.000107616
58 *715:13 *734:11 9.14436e-05
59 *717:11 *734:27 0
60 *718:11 *734:27 0
61 *718:15 *734:39 0
62 *718:27 *734:43 0.0133636
63 *722:11 *734:27 0
64 *722:15 *734:37 0
65 *725:43 *734:43 0.000423043
66 *727:19 *734:27 0.0015348
67 *729:11 *734:27 0
*RES
1 *739:slot_b_o[0] *734:9 6.09213 
2 *734:9 *734:11 351.054 
3 *734:11 *734:17 7.2994 
4 *734:17 *734:19 258.768 
5 *734:19 *734:25 8.45247 
6 *734:25 *734:27 71.1607 
7 *734:27 *734:37 23.191 
8 *734:37 *734:39 265 
9 *734:39 *734:41 3.41 
10 *734:41 *734:43 1488.23 
11 *734:43 *734:49 7.7318 
12 *734:49 *734:51 646.125 
13 *734:51 *734:65 20.2773 
14 *734:65 *734:67 92.2203 
15 *734:67 *740:slot_b[0] 10.8386 
*END

*D_NET *735 0.14605
*CONN
*I *740:slot_b[1] I *D ntt_engine_256
*I *739:slot_b_o[1] O *D ntt_wb_bridge
*CAP
1 *740:slot_b[1] 0.00104629
2 *739:slot_b_o[1] 0.00120082
3 *735:17 0.00415683
4 *735:11 0.0191857
5 *735:9 0.017276
6 *739:mem_rdata_i[10] *735:11 0.00322362
7 *740:mem_slot[0] *735:17 0.00255326
8 *284:17 *735:11 0
9 *354:25 *735:17 0.00832271
10 *358:25 *735:17 0.00155728
11 *361:15 *735:17 0.00242331
12 *369:15 *735:11 0.0517143
13 *372:19 *735:11 0.000172794
14 *398:21 *735:17 0.00987764
15 *649:15 *735:11 0.000145146
16 *661:41 *735:11 3.52391e-05
17 *676:35 *735:11 0.0021309
18 *689:35 *735:11 0
19 *709:11 *735:11 0
20 *716:11 *735:11 0
21 *734:19 *735:11 0.0210278
*RES
1 *739:slot_b_o[1] *735:9 6.45247 
2 *735:9 *735:11 662.518 
3 *735:11 *735:17 33.0272 
4 *735:17 *740:slot_b[1] 18 
*END

*D_NET *736 0.570626
*CONN
*I *740:slot_c[0] I *D ntt_engine_256
*I *739:slot_c_o[0] O *D ntt_wb_bridge
*CAP
1 *740:slot_c[0] 0
2 *739:slot_c_o[0] 0.00110588
3 *736:27 0.0427658
4 *736:25 0.0427658
5 *736:23 0.0156132
6 *736:21 0.0159215
7 *736:15 0.0213872
8 *736:13 0.021079
9 *736:11 0.0122814
10 *736:9 0.0133873
11 *736:15 *737:34 0
12 *740:mac_init *736:27 0.000360771
13 *740:mem_wdata[7] *736:27 0.000360771
14 *79:19 *736:9 0.000360771
15 *119:25 *736:27 0.0112137
16 *273:15 *736:15 0.00130325
17 *280:15 *736:15 0.00372254
18 *296:15 *736:15 0.00141202
19 *300:15 *736:15 0.00531249
20 *315:25 *736:23 0.00031283
21 *335:15 *736:15 0.00517241
22 *340:25 *736:15 0.00114275
23 *343:29 *736:23 0.00216908
24 *347:23 *736:15 0.000424163
25 *349:35 *736:23 0.000951783
26 *350:27 *736:23 0.000455536
27 *351:23 *736:15 0.0227917
28 *357:15 *736:15 0.000278847
29 *362:15 *736:15 0.00283955
30 *387:15 *736:15 0.000265496
31 *390:15 *736:15 0.00638997
32 *540:189 *736:27 0.012127
33 *650:11 *736:11 0.00165538
34 *664:9 *736:27 0.000284346
35 *676:21 *736:27 0.00107928
36 *683:13 *736:27 0.000360771
37 *702:11 *736:11 0.00693451
38 *716:23 *736:23 0.0379836
39 *717:11 *736:11 0.0245403
40 *717:35 *736:27 0.00556726
41 *725:11 *736:11 0.00726295
42 *726:15 *736:15 0.0951184
43 *726:23 *736:23 0.0725121
44 *726:27 *736:27 0
45 *729:11 *736:11 0.0516523
46 *731:11 *736:11 0
*RES
1 *739:slot_c_o[0] *736:9 5.7976 
2 *736:9 *736:11 637.473 
3 *736:11 *736:13 4.5 
4 *736:13 *736:15 894.661 
5 *736:15 *736:21 13.0439 
6 *736:21 *736:23 117.336 
7 *736:23 *736:25 3.41 
8 *736:25 *736:27 119.95 
9 *736:27 *740:slot_c[0] 3.41 
*END

*D_NET *737 0.753123
*CONN
*I *740:slot_c[1] I *D ntt_engine_256
*I *739:slot_c_o[1] O *D ntt_wb_bridge
*CAP
1 *740:slot_c[1] 0.000917068
2 *739:slot_c_o[1] 0
3 *737:54 0.0207948
4 *737:52 0.0199728
5 *737:46 0.0190975
6 *737:44 0.0190024
7 *737:42 0.0250169
8 *737:40 0.025069
9 *737:34 0.0360712
10 *737:32 0.0421209
11 *737:20 0.0127007
12 *737:6 0.0215294
13 *737:4 0.0149305
14 *76:19 *737:6 0.00011602
15 *79:19 *737:6 0.00479222
16 *79:23 *737:6 0
17 *80:179 *737:46 0.00160655
18 *80:179 *737:54 0.00708388
19 *116:137 *737:54 0.00331307
20 *273:15 *737:34 0.000707593
21 *275:15 *737:34 0.0202385
22 *315:15 *737:34 0.00442914
23 *335:15 *737:34 0.0024043
24 *338:29 *737:34 0.00116854
25 *342:29 *737:34 0.000473427
26 *347:37 *737:40 0
27 *351:23 *737:34 0.000711043
28 *360:53 *737:20 0.000753655
29 *360:53 *737:32 0
30 *360:77 *737:20 0
31 *363:39 *737:20 0.00113183
32 *363:39 *737:32 0.00303361
33 *363:65 *737:20 0.00128261
34 *363:71 *737:6 0.00011602
35 *374:15 *737:34 0.00864595
36 *382:15 *737:32 4.65519e-05
37 *396:15 *737:34 0.0234908
38 *540:159 *737:42 0.00476302
39 *650:19 *737:46 0.00489132
40 *656:27 *737:46 0.100367
41 *656:35 *737:46 0.00335959
42 *656:35 *737:54 0.0389279
43 *687:15 *737:20 0.000121492
44 *689:11 *737:54 0
45 *689:23 *737:42 0.0711317
46 *689:31 *737:34 0
47 *693:9 *737:6 0.000360771
48 *693:11 *737:6 0.00969219
49 *693:11 *737:20 0.0030318
50 *693:11 *737:32 0.00534352
51 *696:9 *737:6 0.000255549
52 *696:11 *737:6 0.00312673
53 *696:11 *737:20 0.00165465
54 *696:11 *737:32 0.00294256
55 *697:9 *737:6 0.000201414
56 *697:11 *737:6 0.000408347
57 *697:11 *737:20 0.00198803
58 *701:8 *737:6 0.00883803
59 *701:12 *737:6 0.000244863
60 *701:12 *737:20 0.00254386
61 *701:12 *737:32 9.5979e-05
62 *701:16 *737:32 0.0126868
63 *701:22 *737:46 0.0014553
64 *702:43 *737:54 0.00460904
65 *706:27 *737:46 0.00373339
66 *711:11 *737:6 0.000460094
67 *711:11 *737:20 0.000647563
68 *712:11 *737:6 0.000377382
69 *712:11 *737:20 0.00206331
70 *713:11 *737:20 0.000523528
71 *718:27 *737:46 0.0119465
72 *719:11 *737:20 0.000113898
73 *725:35 *737:46 0
74 *725:43 *737:46 0.000460275
75 *726:15 *737:34 0
76 *729:15 *737:34 0
77 *729:23 *737:42 4.65837e-05
78 *731:41 *737:20 0.000124274
79 *734:43 *737:46 0.106817
80 *736:15 *737:34 0
*RES
1 *739:slot_c_o[1] *737:4 3.41 
2 *737:4 *737:6 60.7177 
3 *737:6 *737:20 23.5658 
4 *737:20 *737:32 41.492 
5 *737:32 *737:34 911.911 
6 *737:34 *737:40 8.79393 
7 *737:40 *737:42 113.84 
8 *737:42 *737:44 3.41 
9 *737:44 *737:46 1345.55 
10 *737:46 *737:52 6.9751 
11 *737:52 *737:54 97.4185 
12 *737:54 *740:slot_c[1] 5.6895 
*END

*D_NET *738 0.404529
*CONN
*I *740:start I *D ntt_engine_256
*I *739:start_o O *D ntt_wb_bridge
*CAP
1 *740:start 0.00104652
2 *739:start_o 2.48797e-05
3 *738:19 0.0157368
4 *738:17 0.0147714
5 *738:11 0.0322444
6 *738:9 0.0321633
7 *738:7 0.0374165
8 *738:5 0.0374414
9 *740:mem_wdata[13] *738:19 0.00174839
10 *740:mem_wdata[16] *738:19 0.00144294
11 *74:17 *738:19 0
12 *77:41 *738:7 0.000375897
13 *104:23 *738:11 0
14 *115:21 *738:7 0.00127228
15 *654:11 *740:start 0.000437196
16 *685:45 *738:19 0.0116012
17 *690:11 *738:19 0.075461
18 *699:15 *738:17 1.31781e-06
19 *699:19 *738:19 0.000279147
20 *708:19 *738:19 0.0826091
21 *724:11 *738:11 0.0417231
22 *724:11 *738:19 0.00165767
23 *730:11 *738:11 0.00957369
24 *730:19 *738:11 0.0055011
25 *730:19 *738:19 0
*RES
1 *739:start_o *738:5 0.0767667 
2 *738:5 *738:7 104.832 
3 *738:7 *738:9 3.41 
4 *738:9 *738:11 127.994 
5 *738:11 *738:17 6.9751 
6 *738:17 *738:19 1022.55 
7 *738:19 *740:start 5.61587 
*END
