*SPEF "ieee 1481-1999"
*DESIGN "user_project_wrapper"
*DATE "11:11:11 Fri 11 11, 1111"
*VENDOR "OpenRCX"
*PROGRAM "Parallel Extraction"
*VERSION "1.0"
*DESIGN_FLOW "NAME_SCOPE LOCAL" "PIN_CAP NONE"
*DIVIDER /
*DELIMITER :
*BUS_DELIMITER []
*T_UNIT 1 NS
*C_UNIT 1 PF
*R_UNIT 1 OHM
*L_UNIT 1 HENRY

*NAME_MAP
*1 analog_io[0]
*2 analog_io[10]
*3 analog_io[11]
*4 analog_io[12]
*5 analog_io[13]
*6 analog_io[14]
*7 analog_io[15]
*8 analog_io[16]
*9 analog_io[17]
*10 analog_io[18]
*11 analog_io[19]
*12 analog_io[1]
*13 analog_io[20]
*14 analog_io[21]
*15 analog_io[22]
*16 analog_io[23]
*17 analog_io[24]
*18 analog_io[25]
*19 analog_io[26]
*20 analog_io[27]
*21 analog_io[28]
*22 analog_io[2]
*23 analog_io[3]
*24 analog_io[4]
*25 analog_io[5]
*26 analog_io[6]
*27 analog_io[7]
*28 analog_io[8]
*29 analog_io[9]
*30 io_in[0]
*31 io_in[10]
*32 io_in[11]
*33 io_in[12]
*34 io_in[13]
*35 io_in[14]
*36 io_in[15]
*37 io_in[16]
*38 io_in[17]
*39 io_in[18]
*40 io_in[19]
*41 io_in[1]
*42 io_in[20]
*43 io_in[21]
*44 io_in[22]
*45 io_in[23]
*46 io_in[24]
*47 io_in[25]
*48 io_in[26]
*49 io_in[27]
*50 io_in[28]
*51 io_in[29]
*52 io_in[2]
*53 io_in[30]
*54 io_in[31]
*55 io_in[32]
*56 io_in[33]
*57 io_in[34]
*58 io_in[35]
*59 io_in[36]
*60 io_in[37]
*61 io_in[3]
*62 io_in[4]
*63 io_in[5]
*64 io_in[6]
*65 io_in[7]
*66 io_in[8]
*67 io_in[9]
*68 io_oeb[0]
*69 io_oeb[10]
*70 io_oeb[11]
*71 io_oeb[12]
*72 io_oeb[13]
*73 io_oeb[14]
*74 io_oeb[15]
*75 io_oeb[16]
*76 io_oeb[17]
*77 io_oeb[18]
*78 io_oeb[19]
*79 io_oeb[1]
*80 io_oeb[20]
*81 io_oeb[21]
*82 io_oeb[22]
*83 io_oeb[23]
*84 io_oeb[24]
*85 io_oeb[25]
*86 io_oeb[26]
*87 io_oeb[27]
*88 io_oeb[28]
*89 io_oeb[29]
*90 io_oeb[2]
*91 io_oeb[30]
*92 io_oeb[31]
*93 io_oeb[32]
*94 io_oeb[33]
*95 io_oeb[34]
*96 io_oeb[35]
*97 io_oeb[36]
*98 io_oeb[37]
*99 io_oeb[3]
*100 io_oeb[4]
*101 io_oeb[5]
*102 io_oeb[6]
*103 io_oeb[7]
*104 io_oeb[8]
*105 io_oeb[9]
*106 io_out[0]
*107 io_out[10]
*108 io_out[11]
*109 io_out[12]
*110 io_out[13]
*111 io_out[14]
*112 io_out[15]
*113 io_out[16]
*114 io_out[17]
*115 io_out[18]
*116 io_out[19]
*117 io_out[1]
*118 io_out[20]
*119 io_out[21]
*120 io_out[22]
*121 io_out[23]
*122 io_out[24]
*123 io_out[25]
*124 io_out[26]
*125 io_out[27]
*126 io_out[28]
*127 io_out[29]
*128 io_out[2]
*129 io_out[30]
*130 io_out[31]
*131 io_out[32]
*132 io_out[33]
*133 io_out[34]
*134 io_out[35]
*135 io_out[36]
*136 io_out[37]
*137 io_out[3]
*138 io_out[4]
*139 io_out[5]
*140 io_out[6]
*141 io_out[7]
*142 io_out[8]
*143 io_out[9]
*144 la_data_in[0]
*145 la_data_in[100]
*146 la_data_in[101]
*147 la_data_in[102]
*148 la_data_in[103]
*149 la_data_in[104]
*150 la_data_in[105]
*151 la_data_in[106]
*152 la_data_in[107]
*153 la_data_in[108]
*154 la_data_in[109]
*155 la_data_in[10]
*156 la_data_in[110]
*157 la_data_in[111]
*158 la_data_in[112]
*159 la_data_in[113]
*160 la_data_in[114]
*161 la_data_in[115]
*162 la_data_in[116]
*163 la_data_in[117]
*164 la_data_in[118]
*165 la_data_in[119]
*166 la_data_in[11]
*167 la_data_in[120]
*168 la_data_in[121]
*169 la_data_in[122]
*170 la_data_in[123]
*171 la_data_in[124]
*172 la_data_in[125]
*173 la_data_in[126]
*174 la_data_in[127]
*175 la_data_in[12]
*176 la_data_in[13]
*177 la_data_in[14]
*178 la_data_in[15]
*179 la_data_in[16]
*180 la_data_in[17]
*181 la_data_in[18]
*182 la_data_in[19]
*183 la_data_in[1]
*184 la_data_in[20]
*185 la_data_in[21]
*186 la_data_in[22]
*187 la_data_in[23]
*188 la_data_in[24]
*189 la_data_in[25]
*190 la_data_in[26]
*191 la_data_in[27]
*192 la_data_in[28]
*193 la_data_in[29]
*194 la_data_in[2]
*195 la_data_in[30]
*196 la_data_in[31]
*197 la_data_in[32]
*198 la_data_in[33]
*199 la_data_in[34]
*200 la_data_in[35]
*201 la_data_in[36]
*202 la_data_in[37]
*203 la_data_in[38]
*204 la_data_in[39]
*205 la_data_in[3]
*206 la_data_in[40]
*207 la_data_in[41]
*208 la_data_in[42]
*209 la_data_in[43]
*210 la_data_in[44]
*211 la_data_in[45]
*212 la_data_in[46]
*213 la_data_in[47]
*214 la_data_in[48]
*215 la_data_in[49]
*216 la_data_in[4]
*217 la_data_in[50]
*218 la_data_in[51]
*219 la_data_in[52]
*220 la_data_in[53]
*221 la_data_in[54]
*222 la_data_in[55]
*223 la_data_in[56]
*224 la_data_in[57]
*225 la_data_in[58]
*226 la_data_in[59]
*227 la_data_in[5]
*228 la_data_in[60]
*229 la_data_in[61]
*230 la_data_in[62]
*231 la_data_in[63]
*232 la_data_in[64]
*233 la_data_in[65]
*234 la_data_in[66]
*235 la_data_in[67]
*236 la_data_in[68]
*237 la_data_in[69]
*238 la_data_in[6]
*239 la_data_in[70]
*240 la_data_in[71]
*241 la_data_in[72]
*242 la_data_in[73]
*243 la_data_in[74]
*244 la_data_in[75]
*245 la_data_in[76]
*246 la_data_in[77]
*247 la_data_in[78]
*248 la_data_in[79]
*249 la_data_in[7]
*250 la_data_in[80]
*251 la_data_in[81]
*252 la_data_in[82]
*253 la_data_in[83]
*254 la_data_in[84]
*255 la_data_in[85]
*256 la_data_in[86]
*257 la_data_in[87]
*258 la_data_in[88]
*259 la_data_in[89]
*260 la_data_in[8]
*261 la_data_in[90]
*262 la_data_in[91]
*263 la_data_in[92]
*264 la_data_in[93]
*265 la_data_in[94]
*266 la_data_in[95]
*267 la_data_in[96]
*268 la_data_in[97]
*269 la_data_in[98]
*270 la_data_in[99]
*271 la_data_in[9]
*272 la_data_out[0]
*273 la_data_out[100]
*274 la_data_out[101]
*275 la_data_out[102]
*276 la_data_out[103]
*277 la_data_out[104]
*278 la_data_out[105]
*279 la_data_out[106]
*280 la_data_out[107]
*281 la_data_out[108]
*282 la_data_out[109]
*283 la_data_out[10]
*284 la_data_out[110]
*285 la_data_out[111]
*286 la_data_out[112]
*287 la_data_out[113]
*288 la_data_out[114]
*289 la_data_out[115]
*290 la_data_out[116]
*291 la_data_out[117]
*292 la_data_out[118]
*293 la_data_out[119]
*294 la_data_out[11]
*295 la_data_out[120]
*296 la_data_out[121]
*297 la_data_out[122]
*298 la_data_out[123]
*299 la_data_out[124]
*300 la_data_out[125]
*301 la_data_out[126]
*302 la_data_out[127]
*303 la_data_out[12]
*304 la_data_out[13]
*305 la_data_out[14]
*306 la_data_out[15]
*307 la_data_out[16]
*308 la_data_out[17]
*309 la_data_out[18]
*310 la_data_out[19]
*311 la_data_out[1]
*312 la_data_out[20]
*313 la_data_out[21]
*314 la_data_out[22]
*315 la_data_out[23]
*316 la_data_out[24]
*317 la_data_out[25]
*318 la_data_out[26]
*319 la_data_out[27]
*320 la_data_out[28]
*321 la_data_out[29]
*322 la_data_out[2]
*323 la_data_out[30]
*324 la_data_out[31]
*325 la_data_out[32]
*326 la_data_out[33]
*327 la_data_out[34]
*328 la_data_out[35]
*329 la_data_out[36]
*330 la_data_out[37]
*331 la_data_out[38]
*332 la_data_out[39]
*333 la_data_out[3]
*334 la_data_out[40]
*335 la_data_out[41]
*336 la_data_out[42]
*337 la_data_out[43]
*338 la_data_out[44]
*339 la_data_out[45]
*340 la_data_out[46]
*341 la_data_out[47]
*342 la_data_out[48]
*343 la_data_out[49]
*344 la_data_out[4]
*345 la_data_out[50]
*346 la_data_out[51]
*347 la_data_out[52]
*348 la_data_out[53]
*349 la_data_out[54]
*350 la_data_out[55]
*351 la_data_out[56]
*352 la_data_out[57]
*353 la_data_out[58]
*354 la_data_out[59]
*355 la_data_out[5]
*356 la_data_out[60]
*357 la_data_out[61]
*358 la_data_out[62]
*359 la_data_out[63]
*360 la_data_out[64]
*361 la_data_out[65]
*362 la_data_out[66]
*363 la_data_out[67]
*364 la_data_out[68]
*365 la_data_out[69]
*366 la_data_out[6]
*367 la_data_out[70]
*368 la_data_out[71]
*369 la_data_out[72]
*370 la_data_out[73]
*371 la_data_out[74]
*372 la_data_out[75]
*373 la_data_out[76]
*374 la_data_out[77]
*375 la_data_out[78]
*376 la_data_out[79]
*377 la_data_out[7]
*378 la_data_out[80]
*379 la_data_out[81]
*380 la_data_out[82]
*381 la_data_out[83]
*382 la_data_out[84]
*383 la_data_out[85]
*384 la_data_out[86]
*385 la_data_out[87]
*386 la_data_out[88]
*387 la_data_out[89]
*388 la_data_out[8]
*389 la_data_out[90]
*390 la_data_out[91]
*391 la_data_out[92]
*392 la_data_out[93]
*393 la_data_out[94]
*394 la_data_out[95]
*395 la_data_out[96]
*396 la_data_out[97]
*397 la_data_out[98]
*398 la_data_out[99]
*399 la_data_out[9]
*400 la_oenb[0]
*401 la_oenb[100]
*402 la_oenb[101]
*403 la_oenb[102]
*404 la_oenb[103]
*405 la_oenb[104]
*406 la_oenb[105]
*407 la_oenb[106]
*408 la_oenb[107]
*409 la_oenb[108]
*410 la_oenb[109]
*411 la_oenb[10]
*412 la_oenb[110]
*413 la_oenb[111]
*414 la_oenb[112]
*415 la_oenb[113]
*416 la_oenb[114]
*417 la_oenb[115]
*418 la_oenb[116]
*419 la_oenb[117]
*420 la_oenb[118]
*421 la_oenb[119]
*422 la_oenb[11]
*423 la_oenb[120]
*424 la_oenb[121]
*425 la_oenb[122]
*426 la_oenb[123]
*427 la_oenb[124]
*428 la_oenb[125]
*429 la_oenb[126]
*430 la_oenb[127]
*431 la_oenb[12]
*432 la_oenb[13]
*433 la_oenb[14]
*434 la_oenb[15]
*435 la_oenb[16]
*436 la_oenb[17]
*437 la_oenb[18]
*438 la_oenb[19]
*439 la_oenb[1]
*440 la_oenb[20]
*441 la_oenb[21]
*442 la_oenb[22]
*443 la_oenb[23]
*444 la_oenb[24]
*445 la_oenb[25]
*446 la_oenb[26]
*447 la_oenb[27]
*448 la_oenb[28]
*449 la_oenb[29]
*450 la_oenb[2]
*451 la_oenb[30]
*452 la_oenb[31]
*453 la_oenb[32]
*454 la_oenb[33]
*455 la_oenb[34]
*456 la_oenb[35]
*457 la_oenb[36]
*458 la_oenb[37]
*459 la_oenb[38]
*460 la_oenb[39]
*461 la_oenb[3]
*462 la_oenb[40]
*463 la_oenb[41]
*464 la_oenb[42]
*465 la_oenb[43]
*466 la_oenb[44]
*467 la_oenb[45]
*468 la_oenb[46]
*469 la_oenb[47]
*470 la_oenb[48]
*471 la_oenb[49]
*472 la_oenb[4]
*473 la_oenb[50]
*474 la_oenb[51]
*475 la_oenb[52]
*476 la_oenb[53]
*477 la_oenb[54]
*478 la_oenb[55]
*479 la_oenb[56]
*480 la_oenb[57]
*481 la_oenb[58]
*482 la_oenb[59]
*483 la_oenb[5]
*484 la_oenb[60]
*485 la_oenb[61]
*486 la_oenb[62]
*487 la_oenb[63]
*488 la_oenb[64]
*489 la_oenb[65]
*490 la_oenb[66]
*491 la_oenb[67]
*492 la_oenb[68]
*493 la_oenb[69]
*494 la_oenb[6]
*495 la_oenb[70]
*496 la_oenb[71]
*497 la_oenb[72]
*498 la_oenb[73]
*499 la_oenb[74]
*500 la_oenb[75]
*501 la_oenb[76]
*502 la_oenb[77]
*503 la_oenb[78]
*504 la_oenb[79]
*505 la_oenb[7]
*506 la_oenb[80]
*507 la_oenb[81]
*508 la_oenb[82]
*509 la_oenb[83]
*510 la_oenb[84]
*511 la_oenb[85]
*512 la_oenb[86]
*513 la_oenb[87]
*514 la_oenb[88]
*515 la_oenb[89]
*516 la_oenb[8]
*517 la_oenb[90]
*518 la_oenb[91]
*519 la_oenb[92]
*520 la_oenb[93]
*521 la_oenb[94]
*522 la_oenb[95]
*523 la_oenb[96]
*524 la_oenb[97]
*525 la_oenb[98]
*526 la_oenb[99]
*527 la_oenb[9]
*528 user_clock2
*529 user_irq[0]
*530 user_irq[1]
*531 user_irq[2]
*540 wb_clk_i
*541 wb_rst_i
*542 wbs_ack_o
*543 wbs_adr_i[0]
*544 wbs_adr_i[10]
*545 wbs_adr_i[11]
*546 wbs_adr_i[12]
*547 wbs_adr_i[13]
*548 wbs_adr_i[14]
*549 wbs_adr_i[15]
*550 wbs_adr_i[16]
*551 wbs_adr_i[17]
*552 wbs_adr_i[18]
*553 wbs_adr_i[19]
*554 wbs_adr_i[1]
*555 wbs_adr_i[20]
*556 wbs_adr_i[21]
*557 wbs_adr_i[22]
*558 wbs_adr_i[23]
*559 wbs_adr_i[24]
*560 wbs_adr_i[25]
*561 wbs_adr_i[26]
*562 wbs_adr_i[27]
*563 wbs_adr_i[28]
*564 wbs_adr_i[29]
*565 wbs_adr_i[2]
*566 wbs_adr_i[30]
*567 wbs_adr_i[31]
*568 wbs_adr_i[3]
*569 wbs_adr_i[4]
*570 wbs_adr_i[5]
*571 wbs_adr_i[6]
*572 wbs_adr_i[7]
*573 wbs_adr_i[8]
*574 wbs_adr_i[9]
*575 wbs_cyc_i
*576 wbs_dat_i[0]
*577 wbs_dat_i[10]
*578 wbs_dat_i[11]
*579 wbs_dat_i[12]
*580 wbs_dat_i[13]
*581 wbs_dat_i[14]
*582 wbs_dat_i[15]
*583 wbs_dat_i[16]
*584 wbs_dat_i[17]
*585 wbs_dat_i[18]
*586 wbs_dat_i[19]
*587 wbs_dat_i[1]
*588 wbs_dat_i[20]
*589 wbs_dat_i[21]
*590 wbs_dat_i[22]
*591 wbs_dat_i[23]
*592 wbs_dat_i[24]
*593 wbs_dat_i[25]
*594 wbs_dat_i[26]
*595 wbs_dat_i[27]
*596 wbs_dat_i[28]
*597 wbs_dat_i[29]
*598 wbs_dat_i[2]
*599 wbs_dat_i[30]
*600 wbs_dat_i[31]
*601 wbs_dat_i[3]
*602 wbs_dat_i[4]
*603 wbs_dat_i[5]
*604 wbs_dat_i[6]
*605 wbs_dat_i[7]
*606 wbs_dat_i[8]
*607 wbs_dat_i[9]
*608 wbs_dat_o[0]
*609 wbs_dat_o[10]
*610 wbs_dat_o[11]
*611 wbs_dat_o[12]
*612 wbs_dat_o[13]
*613 wbs_dat_o[14]
*614 wbs_dat_o[15]
*615 wbs_dat_o[16]
*616 wbs_dat_o[17]
*617 wbs_dat_o[18]
*618 wbs_dat_o[19]
*619 wbs_dat_o[1]
*620 wbs_dat_o[20]
*621 wbs_dat_o[21]
*622 wbs_dat_o[22]
*623 wbs_dat_o[23]
*624 wbs_dat_o[24]
*625 wbs_dat_o[25]
*626 wbs_dat_o[26]
*627 wbs_dat_o[27]
*628 wbs_dat_o[28]
*629 wbs_dat_o[29]
*630 wbs_dat_o[2]
*631 wbs_dat_o[30]
*632 wbs_dat_o[31]
*633 wbs_dat_o[3]
*634 wbs_dat_o[4]
*635 wbs_dat_o[5]
*636 wbs_dat_o[6]
*637 wbs_dat_o[7]
*638 wbs_dat_o[8]
*639 wbs_dat_o[9]
*640 wbs_sel_i[0]
*641 wbs_sel_i[1]
*642 wbs_sel_i[2]
*643 wbs_sel_i[3]
*644 wbs_stb_i
*645 wbs_we_i
*646 ntt\.busy
*647 ntt\.done
*648 ntt\.engine_rst_n
*649 ntt\.ext_rvalid_o
*650 ntt\.mac_init
*651 ntt\.mem_addr\[0\]
*652 ntt\.mem_addr\[1\]
*653 ntt\.mem_addr\[2\]
*654 ntt\.mem_addr\[3\]
*655 ntt\.mem_addr\[4\]
*656 ntt\.mem_addr\[5\]
*657 ntt\.mem_addr\[6\]
*658 ntt\.mem_addr\[7\]
*659 ntt\.mem_addr\[8\]
*660 ntt\.mem_rdata\[0\]
*661 ntt\.mem_rdata\[10\]
*662 ntt\.mem_rdata\[11\]
*663 ntt\.mem_rdata\[12\]
*664 ntt\.mem_rdata\[13\]
*665 ntt\.mem_rdata\[14\]
*666 ntt\.mem_rdata\[15\]
*667 ntt\.mem_rdata\[16\]
*668 ntt\.mem_rdata\[17\]
*669 ntt\.mem_rdata\[18\]
*670 ntt\.mem_rdata\[19\]
*671 ntt\.mem_rdata\[1\]
*672 ntt\.mem_rdata\[20\]
*673 ntt\.mem_rdata\[21\]
*674 ntt\.mem_rdata\[22\]
*675 ntt\.mem_rdata\[23\]
*676 ntt\.mem_rdata\[24\]
*677 ntt\.mem_rdata\[25\]
*678 ntt\.mem_rdata\[26\]
*679 ntt\.mem_rdata\[27\]
*680 ntt\.mem_rdata\[28\]
*681 ntt\.mem_rdata\[29\]
*682 ntt\.mem_rdata\[2\]
*683 ntt\.mem_rdata\[30\]
*684 ntt\.mem_rdata\[31\]
*685 ntt\.mem_rdata\[3\]
*686 ntt\.mem_rdata\[4\]
*687 ntt\.mem_rdata\[5\]
*688 ntt\.mem_rdata\[6\]
*689 ntt\.mem_rdata\[7\]
*690 ntt\.mem_rdata\[8\]
*691 ntt\.mem_rdata\[9\]
*692 ntt\.mem_re
*693 ntt\.mem_slot\[0\]
*694 ntt\.mem_slot\[1\]
*695 ntt\.mem_target
*696 ntt\.mem_wdata\[0\]
*697 ntt\.mem_wdata\[10\]
*698 ntt\.mem_wdata\[11\]
*699 ntt\.mem_wdata\[12\]
*700 ntt\.mem_wdata\[13\]
*701 ntt\.mem_wdata\[14\]
*702 ntt\.mem_wdata\[15\]
*703 ntt\.mem_wdata\[16\]
*704 ntt\.mem_wdata\[17\]
*705 ntt\.mem_wdata\[18\]
*706 ntt\.mem_wdata\[19\]
*707 ntt\.mem_wdata\[1\]
*708 ntt\.mem_wdata\[20\]
*709 ntt\.mem_wdata\[21\]
*710 ntt\.mem_wdata\[22\]
*711 ntt\.mem_wdata\[23\]
*712 ntt\.mem_wdata\[24\]
*713 ntt\.mem_wdata\[25\]
*714 ntt\.mem_wdata\[26\]
*715 ntt\.mem_wdata\[27\]
*716 ntt\.mem_wdata\[28\]
*717 ntt\.mem_wdata\[29\]
*718 ntt\.mem_wdata\[2\]
*719 ntt\.mem_wdata\[30\]
*720 ntt\.mem_wdata\[31\]
*721 ntt\.mem_wdata\[3\]
*722 ntt\.mem_wdata\[4\]
*723 ntt\.mem_wdata\[5\]
*724 ntt\.mem_wdata\[6\]
*725 ntt\.mem_wdata\[7\]
*726 ntt\.mem_wdata\[8\]
*727 ntt\.mem_wdata\[9\]
*728 ntt\.mem_we
*729 ntt\.op\[0\]
*730 ntt\.op\[1\]
*731 ntt\.op\[2\]
*732 ntt\.slot_a\[0\]
*733 ntt\.slot_a\[1\]
*734 ntt\.slot_b\[0\]
*735 ntt\.slot_b\[1\]
*736 ntt\.slot_c\[0\]
*737 ntt\.slot_c\[1\]
*738 ntt\.start
*739 ntt\.u_bridge
*740 ntt\.u_engine

*PORTS
analog_io[0] I
analog_io[10] I
analog_io[11] I
analog_io[12] I
analog_io[13] I
analog_io[14] I
analog_io[15] I
analog_io[16] I
analog_io[17] I
analog_io[18] I
analog_io[19] I
analog_io[1] I
analog_io[20] I
analog_io[21] I
analog_io[22] I
analog_io[23] I
analog_io[24] I
analog_io[25] I
analog_io[26] I
analog_io[27] I
analog_io[28] I
analog_io[2] I
analog_io[3] I
analog_io[4] I
analog_io[5] I
analog_io[6] I
analog_io[7] I
analog_io[8] I
analog_io[9] I
io_in[0] I
io_in[10] I
io_in[11] I
io_in[12] I
io_in[13] I
io_in[14] I
io_in[15] I
io_in[16] I
io_in[17] I
io_in[18] I
io_in[19] I
io_in[1] I
io_in[20] I
io_in[21] I
io_in[22] I
io_in[23] I
io_in[24] I
io_in[25] I
io_in[26] I
io_in[27] I
io_in[28] I
io_in[29] I
io_in[2] I
io_in[30] I
io_in[31] I
io_in[32] I
io_in[33] I
io_in[34] I
io_in[35] I
io_in[36] I
io_in[37] I
io_in[3] I
io_in[4] I
io_in[5] I
io_in[6] I
io_in[7] I
io_in[8] I
io_in[9] I
io_oeb[0] O
io_oeb[10] O
io_oeb[11] O
io_oeb[12] O
io_oeb[13] O
io_oeb[14] O
io_oeb[15] O
io_oeb[16] O
io_oeb[17] O
io_oeb[18] O
io_oeb[19] O
io_oeb[1] O
io_oeb[20] O
io_oeb[21] O
io_oeb[22] O
io_oeb[23] O
io_oeb[24] O
io_oeb[25] O
io_oeb[26] O
io_oeb[27] O
io_oeb[28] O
io_oeb[29] O
io_oeb[2] O
io_oeb[30] O
io_oeb[31] O
io_oeb[32] O
io_oeb[33] O
io_oeb[34] O
io_oeb[35] O
io_oeb[36] O
io_oeb[37] O
io_oeb[3] O
io_oeb[4] O
io_oeb[5] O
io_oeb[6] O
io_oeb[7] O
io_oeb[8] O
io_oeb[9] O
io_out[0] O
io_out[10] O
io_out[11] O
io_out[12] O
io_out[13] O
io_out[14] O
io_out[15] O
io_out[16] O
io_out[17] O
io_out[18] O
io_out[19] O
io_out[1] O
io_out[20] O
io_out[21] O
io_out[22] O
io_out[23] O
io_out[24] O
io_out[25] O
io_out[26] O
io_out[27] O
io_out[28] O
io_out[29] O
io_out[2] O
io_out[30] O
io_out[31] O
io_out[32] O
io_out[33] O
io_out[34] O
io_out[35] O
io_out[36] O
io_out[37] O
io_out[3] O
io_out[4] O
io_out[5] O
io_out[6] O
io_out[7] O
io_out[8] O
io_out[9] O
la_data_in[0] I
la_data_in[100] I
la_data_in[101] I
la_data_in[102] I
la_data_in[103] I
la_data_in[104] I
la_data_in[105] I
la_data_in[106] I
la_data_in[107] I
la_data_in[108] I
la_data_in[109] I
la_data_in[10] I
la_data_in[110] I
la_data_in[111] I
la_data_in[112] I
la_data_in[113] I
la_data_in[114] I
la_data_in[115] I
la_data_in[116] I
la_data_in[117] I
la_data_in[118] I
la_data_in[119] I
la_data_in[11] I
la_data_in[120] I
la_data_in[121] I
la_data_in[122] I
la_data_in[123] I
la_data_in[124] I
la_data_in[125] I
la_data_in[126] I
la_data_in[127] I
la_data_in[12] I
la_data_in[13] I
la_data_in[14] I
la_data_in[15] I
la_data_in[16] I
la_data_in[17] I
la_data_in[18] I
la_data_in[19] I
la_data_in[1] I
la_data_in[20] I
la_data_in[21] I
la_data_in[22] I
la_data_in[23] I
la_data_in[24] I
la_data_in[25] I
la_data_in[26] I
la_data_in[27] I
la_data_in[28] I
la_data_in[29] I
la_data_in[2] I
la_data_in[30] I
la_data_in[31] I
la_data_in[32] I
la_data_in[33] I
la_data_in[34] I
la_data_in[35] I
la_data_in[36] I
la_data_in[37] I
la_data_in[38] I
la_data_in[39] I
la_data_in[3] I
la_data_in[40] I
la_data_in[41] I
la_data_in[42] I
la_data_in[43] I
la_data_in[44] I
la_data_in[45] I
la_data_in[46] I
la_data_in[47] I
la_data_in[48] I
la_data_in[49] I
la_data_in[4] I
la_data_in[50] I
la_data_in[51] I
la_data_in[52] I
la_data_in[53] I
la_data_in[54] I
la_data_in[55] I
la_data_in[56] I
la_data_in[57] I
la_data_in[58] I
la_data_in[59] I
la_data_in[5] I
la_data_in[60] I
la_data_in[61] I
la_data_in[62] I
la_data_in[63] I
la_data_in[64] I
la_data_in[65] I
la_data_in[66] I
la_data_in[67] I
la_data_in[68] I
la_data_in[69] I
la_data_in[6] I
la_data_in[70] I
la_data_in[71] I
la_data_in[72] I
la_data_in[73] I
la_data_in[74] I
la_data_in[75] I
la_data_in[76] I
la_data_in[77] I
la_data_in[78] I
la_data_in[79] I
la_data_in[7] I
la_data_in[80] I
la_data_in[81] I
la_data_in[82] I
la_data_in[83] I
la_data_in[84] I
la_data_in[85] I
la_data_in[86] I
la_data_in[87] I
la_data_in[88] I
la_data_in[89] I
la_data_in[8] I
la_data_in[90] I
la_data_in[91] I
la_data_in[92] I
la_data_in[93] I
la_data_in[94] I
la_data_in[95] I
la_data_in[96] I
la_data_in[97] I
la_data_in[98] I
la_data_in[99] I
la_data_in[9] I
la_data_out[0] O
la_data_out[100] O
la_data_out[101] O
la_data_out[102] O
la_data_out[103] O
la_data_out[104] O
la_data_out[105] O
la_data_out[106] O
la_data_out[107] O
la_data_out[108] O
la_data_out[109] O
la_data_out[10] O
la_data_out[110] O
la_data_out[111] O
la_data_out[112] O
la_data_out[113] O
la_data_out[114] O
la_data_out[115] O
la_data_out[116] O
la_data_out[117] O
la_data_out[118] O
la_data_out[119] O
la_data_out[11] O
la_data_out[120] O
la_data_out[121] O
la_data_out[122] O
la_data_out[123] O
la_data_out[124] O
la_data_out[125] O
la_data_out[126] O
la_data_out[127] O
la_data_out[12] O
la_data_out[13] O
la_data_out[14] O
la_data_out[15] O
la_data_out[16] O
la_data_out[17] O
la_data_out[18] O
la_data_out[19] O
la_data_out[1] O
la_data_out[20] O
la_data_out[21] O
la_data_out[22] O
la_data_out[23] O
la_data_out[24] O
la_data_out[25] O
la_data_out[26] O
la_data_out[27] O
la_data_out[28] O
la_data_out[29] O
la_data_out[2] O
la_data_out[30] O
la_data_out[31] O
la_data_out[32] O
la_data_out[33] O
la_data_out[34] O
la_data_out[35] O
la_data_out[36] O
la_data_out[37] O
la_data_out[38] O
la_data_out[39] O
la_data_out[3] O
la_data_out[40] O
la_data_out[41] O
la_data_out[42] O
la_data_out[43] O
la_data_out[44] O
la_data_out[45] O
la_data_out[46] O
la_data_out[47] O
la_data_out[48] O
la_data_out[49] O
la_data_out[4] O
la_data_out[50] O
la_data_out[51] O
la_data_out[52] O
la_data_out[53] O
la_data_out[54] O
la_data_out[55] O
la_data_out[56] O
la_data_out[57] O
la_data_out[58] O
la_data_out[59] O
la_data_out[5] O
la_data_out[60] O
la_data_out[61] O
la_data_out[62] O
la_data_out[63] O
la_data_out[64] O
la_data_out[65] O
la_data_out[66] O
la_data_out[67] O
la_data_out[68] O
la_data_out[69] O
la_data_out[6] O
la_data_out[70] O
la_data_out[71] O
la_data_out[72] O
la_data_out[73] O
la_data_out[74] O
la_data_out[75] O
la_data_out[76] O
la_data_out[77] O
la_data_out[78] O
la_data_out[79] O
la_data_out[7] O
la_data_out[80] O
la_data_out[81] O
la_data_out[82] O
la_data_out[83] O
la_data_out[84] O
la_data_out[85] O
la_data_out[86] O
la_data_out[87] O
la_data_out[88] O
la_data_out[89] O
la_data_out[8] O
la_data_out[90] O
la_data_out[91] O
la_data_out[92] O
la_data_out[93] O
la_data_out[94] O
la_data_out[95] O
la_data_out[96] O
la_data_out[97] O
la_data_out[98] O
la_data_out[99] O
la_data_out[9] O
la_oenb[0] I
la_oenb[100] I
la_oenb[101] I
la_oenb[102] I
la_oenb[103] I
la_oenb[104] I
la_oenb[105] I
la_oenb[106] I
la_oenb[107] I
la_oenb[108] I
la_oenb[109] I
la_oenb[10] I
la_oenb[110] I
la_oenb[111] I
la_oenb[112] I
la_oenb[113] I
la_oenb[114] I
la_oenb[115] I
la_oenb[116] I
la_oenb[117] I
la_oenb[118] I
la_oenb[119] I
la_oenb[11] I
la_oenb[120] I
la_oenb[121] I
la_oenb[122] I
la_oenb[123] I
la_oenb[124] I
la_oenb[125] I
la_oenb[126] I
la_oenb[127] I
la_oenb[12] I
la_oenb[13] I
la_oenb[14] I
la_oenb[15] I
la_oenb[16] I
la_oenb[17] I
la_oenb[18] I
la_oenb[19] I
la_oenb[1] I
la_oenb[20] I
la_oenb[21] I
la_oenb[22] I
la_oenb[23] I
la_oenb[24] I
la_oenb[25] I
la_oenb[26] I
la_oenb[27] I
la_oenb[28] I
la_oenb[29] I
la_oenb[2] I
la_oenb[30] I
la_oenb[31] I
la_oenb[32] I
la_oenb[33] I
la_oenb[34] I
la_oenb[35] I
la_oenb[36] I
la_oenb[37] I
la_oenb[38] I
la_oenb[39] I
la_oenb[3] I
la_oenb[40] I
la_oenb[41] I
la_oenb[42] I
la_oenb[43] I
la_oenb[44] I
la_oenb[45] I
la_oenb[46] I
la_oenb[47] I
la_oenb[48] I
la_oenb[49] I
la_oenb[4] I
la_oenb[50] I
la_oenb[51] I
la_oenb[52] I
la_oenb[53] I
la_oenb[54] I
la_oenb[55] I
la_oenb[56] I
la_oenb[57] I
la_oenb[58] I
la_oenb[59] I
la_oenb[5] I
la_oenb[60] I
la_oenb[61] I
la_oenb[62] I
la_oenb[63] I
la_oenb[64] I
la_oenb[65] I
la_oenb[66] I
la_oenb[67] I
la_oenb[68] I
la_oenb[69] I
la_oenb[6] I
la_oenb[70] I
la_oenb[71] I
la_oenb[72] I
la_oenb[73] I
la_oenb[74] I
la_oenb[75] I
la_oenb[76] I
la_oenb[77] I
la_oenb[78] I
la_oenb[79] I
la_oenb[7] I
la_oenb[80] I
la_oenb[81] I
la_oenb[82] I
la_oenb[83] I
la_oenb[84] I
la_oenb[85] I
la_oenb[86] I
la_oenb[87] I
la_oenb[88] I
la_oenb[89] I
la_oenb[8] I
la_oenb[90] I
la_oenb[91] I
la_oenb[92] I
la_oenb[93] I
la_oenb[94] I
la_oenb[95] I
la_oenb[96] I
la_oenb[97] I
la_oenb[98] I
la_oenb[99] I
la_oenb[9] I
user_clock2 I
user_irq[0] O
user_irq[1] O
user_irq[2] O
wb_clk_i I
wb_rst_i I
wbs_ack_o O
wbs_adr_i[0] I
wbs_adr_i[10] I
wbs_adr_i[11] I
wbs_adr_i[12] I
wbs_adr_i[13] I
wbs_adr_i[14] I
wbs_adr_i[15] I
wbs_adr_i[16] I
wbs_adr_i[17] I
wbs_adr_i[18] I
wbs_adr_i[19] I
wbs_adr_i[1] I
wbs_adr_i[20] I
wbs_adr_i[21] I
wbs_adr_i[22] I
wbs_adr_i[23] I
wbs_adr_i[24] I
wbs_adr_i[25] I
wbs_adr_i[26] I
wbs_adr_i[27] I
wbs_adr_i[28] I
wbs_adr_i[29] I
wbs_adr_i[2] I
wbs_adr_i[30] I
wbs_adr_i[31] I
wbs_adr_i[3] I
wbs_adr_i[4] I
wbs_adr_i[5] I
wbs_adr_i[6] I
wbs_adr_i[7] I
wbs_adr_i[8] I
wbs_adr_i[9] I
wbs_cyc_i I
wbs_dat_i[0] I
wbs_dat_i[10] I
wbs_dat_i[11] I
wbs_dat_i[12] I
wbs_dat_i[13] I
wbs_dat_i[14] I
wbs_dat_i[15] I
wbs_dat_i[16] I
wbs_dat_i[17] I
wbs_dat_i[18] I
wbs_dat_i[19] I
wbs_dat_i[1] I
wbs_dat_i[20] I
wbs_dat_i[21] I
wbs_dat_i[22] I
wbs_dat_i[23] I
wbs_dat_i[24] I
wbs_dat_i[25] I
wbs_dat_i[26] I
wbs_dat_i[27] I
wbs_dat_i[28] I
wbs_dat_i[29] I
wbs_dat_i[2] I
wbs_dat_i[30] I
wbs_dat_i[31] I
wbs_dat_i[3] I
wbs_dat_i[4] I
wbs_dat_i[5] I
wbs_dat_i[6] I
wbs_dat_i[7] I
wbs_dat_i[8] I
wbs_dat_i[9] I
wbs_dat_o[0] O
wbs_dat_o[10] O
wbs_dat_o[11] O
wbs_dat_o[12] O
wbs_dat_o[13] O
wbs_dat_o[14] O
wbs_dat_o[15] O
wbs_dat_o[16] O
wbs_dat_o[17] O
wbs_dat_o[18] O
wbs_dat_o[19] O
wbs_dat_o[1] O
wbs_dat_o[20] O
wbs_dat_o[21] O
wbs_dat_o[22] O
wbs_dat_o[23] O
wbs_dat_o[24] O
wbs_dat_o[25] O
wbs_dat_o[26] O
wbs_dat_o[27] O
wbs_dat_o[28] O
wbs_dat_o[29] O
wbs_dat_o[2] O
wbs_dat_o[30] O
wbs_dat_o[31] O
wbs_dat_o[3] O
wbs_dat_o[4] O
wbs_dat_o[5] O
wbs_dat_o[6] O
wbs_dat_o[7] O
wbs_dat_o[8] O
wbs_dat_o[9] O
wbs_sel_i[0] I
wbs_sel_i[1] I
wbs_sel_i[2] I
wbs_sel_i[3] I
wbs_stb_i I
wbs_we_i I

*D_NET *68 0.256043
*CONN
*P io_oeb[0] O
*I *739:io_oeb_o[0] O *D ntt_wb_bridge
*CAP
1 io_oeb[0] 0.005011
2 *739:io_oeb_o[0] 0.000725379
3 *68:27 0.0214143
4 *68:25 0.0168507
5 *68:19 0.00766138
6 *68:17 0.00793942
7 io_oeb[0] *90:27 0.00454999
8 io_oeb[0] *100:31 0.00196983
9 io_oeb[0] *101:31 0.00195803
10 *68:17 *108:19 3.30352e-05
11 *68:17 *117:18 0.000125903
12 *68:17 *141:25 0.000121388
13 *68:19 *74:13 0.00500519
14 *68:19 *75:13 0.0043968
15 *68:19 *81:15 0.000552743
16 *68:19 *90:21 0.000987078
17 *68:19 *100:21 0.00364017
18 *68:19 *101:17 0.00108906
19 *68:19 *101:21 3.22423e-05
20 *68:19 *102:17 0.00180672
21 *68:19 *102:19 0.0181604
22 *68:19 *104:17 1.17533e-05
23 *68:19 *104:19 0.0313824
24 *68:19 *105:15 0.00479691
25 *68:19 *108:19 0.00303404
26 *68:19 *108:27 0.00764277
27 *68:19 *109:23 0.000606879
28 *68:19 *117:18 0.00117338
29 *68:19 *142:15 0.000559464
30 *68:25 *101:25 0.000776275
31 *68:27 *100:29 0
32 *68:27 *101:27 0.0711607
33 *68:27 *141:33 0.0308675
*RES
1 *739:io_oeb_o[0] *68:17 8.4152 
2 *68:17 *68:19 58.6543 
3 *68:19 *68:25 2.50227 
4 *68:25 *68:27 109.113 
5 *68:27 io_oeb[0] 17.2754 
*END

*D_NET *69 0.491157
*CONN
*P io_oeb[10] O
*I *739:io_oeb_o[10] O *D ntt_wb_bridge
*CAP
1 io_oeb[10] 0.00797227
2 *739:io_oeb_o[10] 0.00156449
3 *69:21 0.119319
4 *69:19 0.111347
5 *69:17 0.0215063
6 *69:15 0.0230708
7 *69:15 *141:25 6.92707e-05
8 *69:17 *70:20 0.000165077
9 *69:17 *138:13 0.0519224
10 *69:17 *281:23 0.0161406
11 *69:17 *352:27 0.000337667
12 *69:17 *357:33 0.0315315
13 *69:17 *358:33 0.000936265
14 *69:21 *103:17 0.0247043
15 *69:21 *114:145 0.0164643
16 *69:21 *655:131 0.0229504
17 *69:21 *679:39 0.024691
18 *69:21 *723:133 0.0164643
*RES
1 *739:io_oeb_o[10] *69:15 4.173 
2 *69:15 *69:17 132.886 
3 *69:17 *69:19 0.5 
4 *69:19 *69:21 303.313 
5 *69:21 io_oeb[10] 21.8446 
*END

*D_NET *70 0.409592
*CONN
*P io_oeb[11] O
*I *739:io_oeb_o[11] O *D ntt_wb_bridge
*CAP
1 io_oeb[11] 0.00100013
2 *739:io_oeb_o[11] 0.00168419
3 *70:30 0.00731922
4 *70:28 0.00631909
5 *70:26 0.109333
6 *70:24 0.109333
7 *70:22 0.0249111
8 *70:20 0.0265953
9 io_oeb[11] *111:35 0.000340191
10 *70:20 *83:13 0.00103854
11 *70:20 *352:27 0.00219858
12 *70:20 *357:33 0.000912862
13 *70:20 *358:33 0.000342812
14 *70:22 io_oeb[37] 0.00800793
15 *70:22 *71:22 0.08292
16 *70:22 *85:13 0.0120116
17 *70:22 *281:23 0.0133579
18 *70:22 *353:27 0.00180085
19 *69:17 *70:20 0.000165077
*RES
1 *739:io_oeb_o[11] *70:20 10.7096 
2 *70:20 *70:22 763.59 
3 *70:22 *70:24 2 
4 *70:24 *70:26 1988.85 
5 *70:26 *70:28 2 
6 *70:28 *70:30 108.435 
7 *70:30 io_oeb[11] 8.44823 
*END

*D_NET *71 0.458732
*CONN
*P io_oeb[12] O
*I *739:io_oeb_o[12] O *D ntt_wb_bridge
*CAP
1 io_oeb[12] 0.000913206
2 *739:io_oeb_o[12] 0.0010959
3 *71:30 0.00645466
4 *71:28 0.00554145
5 *71:26 0.120394
6 *71:24 0.120394
7 *71:22 0.0116187
8 *71:20 0.0127146
9 io_oeb[12] *111:35 0.000106229
10 *71:20 *79:13 4.20745e-05
11 *71:20 *95:19 3.99991e-05
12 *71:22 io_oeb[37] 0.00583556
13 *71:22 *72:25 0.0840431
14 *71:22 *85:13 0.000662198
15 *71:22 *107:18 0.000461739
16 *71:22 *281:23 0.00466915
17 *71:22 *353:27 0.000825323
18 *70:22 *71:22 0.08292
*RES
1 *739:io_oeb_o[12] *71:20 7.0211 
2 *71:20 *71:22 784.29 
3 *71:22 *71:24 2 
4 *71:24 *71:26 2190.55 
5 *71:26 *71:28 2 
6 *71:28 *71:30 98.085 
7 *71:30 io_oeb[12] 5.89823 
*END

*D_NET *72 0.480025
*CONN
*P io_oeb[13] O
*I *739:io_oeb_o[13] O *D ntt_wb_bridge
*CAP
1 io_oeb[13] 0.000991411
2 *739:io_oeb_o[13] 0.00140541
3 *72:33 0.00578327
4 *72:31 0.00479186
5 *72:29 0.131167
6 *72:27 0.131167
7 *72:25 0.0117573
8 *72:23 0.0131627
9 io_oeb[13] *111:35 0.000317112
10 *72:23 *79:13 0.000119103
11 *72:23 *95:19 0.000116507
12 *72:23 *141:25 7.33588e-05
13 *72:25 *73:20 0.0846023
14 *72:25 *107:18 0.000661307
15 *72:25 *281:23 0.00394619
16 *72:25 *353:27 0.00592064
17 *71:22 *72:25 0.0840431
*RES
1 *739:io_oeb_o[13] *72:23 7.17523 
2 *72:23 *72:25 789.465 
3 *72:25 *72:27 2 
4 *72:27 *72:29 2386.91 
5 *72:29 *72:31 2 
6 *72:31 *72:33 82.56 
7 *72:33 io_oeb[13] 8.19323 
*END

*D_NET *73 0.501418
*CONN
*P io_oeb[14] O
*I *739:io_oeb_o[14] O *D ntt_wb_bridge
*CAP
1 io_oeb[14] 0.000916117
2 *739:io_oeb_o[14] 0.0011032
3 *73:28 0.00510254
4 *73:26 0.00418642
5 *73:24 0.142236
6 *73:22 0.142236
7 *73:20 0.0116332
8 *73:18 0.0127364
9 *73:18 *79:13 0.000273161
10 *73:18 *95:19 0.000270564
11 *73:20 *107:18 0.0857232
12 *73:20 *281:23 0.00394619
13 *73:20 *353:27 0.0064534
14 *72:25 *73:20 0.0846023
*RES
1 *739:io_oeb_o[14] *73:18 6.82777 
2 *73:18 *73:20 789.465 
3 *73:20 *73:22 2 
4 *73:22 *73:24 2588.61 
5 *73:24 *73:26 2 
6 *73:26 *73:28 72.21 
7 *73:28 io_oeb[14] 5.64323 
*END

*D_NET *74 0.673598
*CONN
*P io_oeb[15] O
*I *739:io_oeb_o[15] O *D ntt_wb_bridge
*CAP
1 io_oeb[15] 0.000659232
2 *739:io_oeb_o[15] 0.000954838
3 *74:21 0.00326048
4 *74:19 0.00260125
5 *74:17 0.0896461
6 *74:15 0.0896461
7 *74:13 0.0101117
8 *74:11 0.0110666
9 *74:11 *141:25 0.000247169
10 *74:13 *75:13 0.0789069
11 *74:13 *104:19 0.0125992
12 *74:13 *105:15 0.000680601
13 *74:13 *108:27 0.0800423
14 *74:17 *77:163 0
15 *74:17 *113:17 0.231529
16 *74:17 *142:19 0
17 *74:17 *659:111 0.0237669
18 *74:17 *679:23 0
19 *74:17 *685:29 0
20 *74:17 *690:11 0
21 *74:17 *705:11 0.0176703
22 *74:17 *705:19 0
23 *74:17 *708:19 0
24 *74:17 *730:17 0.00718783
25 *74:17 *738:19 0
26 *74:21 *113:21 0.00801647
27 *68:19 *74:13 0.00500519
*RES
1 *739:io_oeb_o[15] *74:11 11.2582 
2 *74:11 *74:13 724.95 
3 *74:13 *74:15 2 
4 *74:15 *74:17 2596.77 
5 *74:17 *74:19 2 
6 *74:19 *74:21 72.555 
7 *74:21 io_oeb[15] 13.91 
*END

*D_NET *75 0.646081
*CONN
*P io_oeb[16] O
*I *739:io_oeb_o[16] O *D ntt_wb_bridge
*CAP
1 io_oeb[16] 0.000699086
2 *739:io_oeb_o[16] 0.000808927
3 *75:21 0.0136168
4 *75:19 0.0129177
5 *75:17 0.10005
6 *75:15 0.10005
7 *75:13 0.0208379
8 *75:11 0.0216468
9 *75:11 *82:13 0.000111673
10 *75:11 *86:13 0.000111673
11 *75:11 *87:13 0.000119416
12 *75:11 *91:13 0.000121835
13 *75:11 *94:13 0.000129471
14 *75:11 *141:31 0.000241782
15 *75:13 *102:19 0.000467748
16 *75:13 *104:19 0.0111189
17 *75:13 *105:15 0.0260089
18 *75:13 *108:27 0.000342915
19 *75:13 *110:13 0
20 *75:17 *78:129 0
21 *75:17 *115:145 0
22 *75:17 *142:19 0
23 *75:17 *665:57 0.00217394
24 *75:17 *671:17 0
25 *75:17 *680:11 0.0269744
26 *75:17 *720:11 0.185835
27 *75:21 *78:189 0.0101348
28 *75:21 *113:21 0.0282573
29 *68:19 *75:13 0.0043968
30 *74:13 *75:13 0.0789069
*RES
1 *739:io_oeb_o[16] *75:11 11.7108 
2 *75:11 *75:13 719.775 
3 *75:13 *75:15 2 
4 *75:15 *75:17 2596.51 
5 *75:17 *75:19 2 
6 *75:19 *75:21 320.955 
7 *75:21 io_oeb[16] 14.42 
*END

*D_NET *76 0.598508
*CONN
*P io_oeb[17] O
*I *739:io_oeb_o[17] O *D ntt_wb_bridge
*CAP
1 io_oeb[17] 0.00129712
2 *739:io_oeb_o[17] 0.000360868
3 *76:165 0.00366757
4 *76:151 0.00593041
5 *76:149 0.00483583
6 *76:145 0.00323402
7 *76:139 0.0046925
8 *76:137 0.0053109
9 *76:133 0.00493134
10 *76:121 0.00476743
11 *76:117 0.00446611
12 *76:105 0.00435836
13 *76:95 0.0192
14 *76:93 0.0168951
15 *76:91 0.0661925
16 *76:89 0.0684511
17 *76:85 0.00284947
18 *76:79 0.00420763
19 *76:77 0.00361671
20 *76:75 0.00465035
21 *76:73 0.00465035
22 *76:71 0.00426799
23 *76:69 0.00543411
24 *76:63 0.00496329
25 *76:61 0.00601816
26 *76:47 0.00516265
27 *76:45 0.00468213
28 *76:39 0.00532547
29 *76:37 0.003585
30 *76:35 0.00269892
31 *76:33 0.00269892
32 *76:31 0.00267668
33 *76:27 0.00537657
34 *76:25 0.00269989
35 *76:23 0.00514094
36 *76:21 0.00514094
37 *76:19 0.0106686
38 *76:17 0.0106686
39 *76:15 0.00362696
40 *76:13 0.00398783
41 io_oeb[17] *78:189 0.000490083
42 *76:13 *141:31 0.000185322
43 *76:15 *80:23 0.00164607
44 *76:15 *92:13 0.00719981
45 *76:15 *100:23 0.00477973
46 *76:15 *112:29 0.00300396
47 *76:15 *114:13 0.000157655
48 *76:15 *115:13 0.0222664
49 *76:19 *78:29 0
50 *76:19 *79:23 0.0056297
51 *76:19 *115:19 0
52 *76:19 *363:71 0.0270082
53 *76:19 *693:11 0
54 *76:19 *696:11 0
55 *76:19 *697:11 0
56 *76:19 *701:12 0.000126813
57 *76:19 *702:9 0.000101735
58 *76:19 *727:9 0.000101735
59 *76:19 *729:9 0.00020347
60 *76:19 *731:9 0.00020347
61 *76:19 *737:8 0.000112517
62 *76:23 *708:9 0.00103545
63 *76:27 *651:11 0.00697324
64 *76:31 *671:21 0.00202786
65 *76:35 la_data_out[90] 0.00374984
66 *76:47 *669:65 0.00223087
67 *76:69 la_data_out[104] 0
68 *76:75 *78:127 0.00234567
69 *76:79 *296:15 0.00284674
70 *76:79 *300:15 3.04176e-05
71 *76:89 *102:27 0.000709755
72 *76:91 *103:17 0
73 *76:91 *114:145 0.152975
74 *76:91 *115:137 0
75 *76:91 *665:11 0
76 *76:95 *115:149 0.0149906
77 *76:95 *646:33 0.000903598
78 *76:105 *646:19 0
79 *76:105 *648:23 0.000225914
80 *76:105 *715:95 0.000857376
81 *76:151 *114:183 0
*RES
1 *739:io_oeb_o[17] *76:13 4.98617 
2 *76:13 *76:15 204 
3 *76:15 *76:17 2 
4 *76:17 *76:19 303.81 
5 *76:19 *76:21 2 
6 *76:21 *76:23 83.25 
7 *76:23 *76:25 2 
8 *76:25 *76:27 77.88 
9 *76:27 *76:31 48.335 
10 *76:31 *76:33 2 
11 *76:33 *76:35 72.525 
12 *76:35 *76:37 2 
13 *76:37 *76:39 62.205 
14 *76:39 *76:45 35.215 
15 *76:45 *76:47 49.44 
16 *76:47 *76:61 46.835 
17 *76:61 *76:63 64.965 
18 *76:63 *76:69 24.76 
19 *76:69 *76:71 74.97 
20 *76:71 *76:73 2 
21 *76:73 *76:75 82.98 
22 *76:75 *76:77 2 
23 *76:77 *76:79 85.32 
24 *76:79 *76:85 14.56 
25 *76:85 *76:89 38.675 
26 *76:89 *76:91 1813.16 
27 *76:91 *76:93 2 
28 *76:93 *76:95 300.255 
29 *76:95 *76:105 47.055 
30 *76:105 *76:117 41.115 
31 *76:117 *76:121 43.505 
32 *76:121 *76:133 47.775 
33 *76:133 *76:137 46.265 
34 *76:137 *76:139 49.575 
35 *76:139 *76:145 37.57 
36 *76:145 *76:149 25.055 
37 *76:149 *76:151 62.55 
38 *76:151 *76:165 49.58 
39 *76:165 io_oeb[17] 24.62 
*END

*D_NET *77 0.72735
*CONN
*P io_oeb[18] O
*I *739:io_oeb_o[18] O *D ntt_wb_bridge
*CAP
1 io_oeb[18] 0.000675775
2 *739:io_oeb_o[18] 0.000830811
3 *77:241 0.027904
4 *77:239 0.0300005
5 *77:227 0.00683255
6 *77:211 0.00951619
7 *77:193 0.00824788
8 *77:171 0.0225123
9 *77:169 0.0202785
10 *77:163 0.00880402
11 *77:161 0.00871102
12 *77:155 0.00704183
13 *77:153 0.00682292
14 *77:147 0.00361947
15 *77:145 0.00592031
16 *77:137 0.00562172
17 *77:123 0.00938889
18 *77:121 0.00955013
19 *77:107 0.00706672
20 *77:105 0.00451807
21 *77:99 0.00542883
22 *77:97 0.0146008
23 *77:77 0.0124493
24 *77:73 0.00773142
25 *77:65 0.0097012
26 *77:49 0.0101256
27 *77:41 0.00749317
28 *77:33 0.00703133
29 *77:15 0.00702933
30 *77:13 0.00275641
31 *77:13 *141:31 0.000203008
32 *77:15 *81:15 0.00279352
33 *77:15 *101:21 0.00245224
34 *77:15 *105:15 0.0043191
35 *77:15 *110:13 0.00451054
36 *77:33 *96:13 0
37 *77:33 *99:27 0.00941752
38 *77:33 *104:19 0.0072004
39 *77:33 *113:13 0.00286546
40 *77:33 *117:18 0.0072004
41 *77:33 *141:33 0.0164239
42 *77:41 *648:7 0
43 *77:41 *738:7 0.000377523
44 *77:65 la_data_out[93] 0.000404341
45 *77:73 la_data_out[96] 0.000488679
46 *77:97 *652:57 6.35749e-05
47 *77:97 *655:7 0
48 *77:121 la_data_out[113] 0.00303152
49 *77:121 *720:7 0
50 *77:137 *665:57 0
51 *77:137 *686:73 0.000731781
52 *77:145 *665:57 5.56205e-06
53 *77:145 *686:73 0.00223618
54 *77:147 *112:33 0
55 *77:147 *672:25 0.00139416
56 *77:147 *721:133 0.000334041
57 *77:153 *298:31 0.000585375
58 *77:153 *655:121 0.000173489
59 *77:153 *669:63 0
60 *77:155 *667:19 0
61 *77:155 *673:23 0.012394
62 *77:155 *674:11 0
63 *77:155 *686:19 0.00304718
64 *77:155 *714:123 0.000177831
65 *77:155 *721:141 0
66 *77:155 *723:131 0
67 *77:161 *740:mem_wdata[6] 0.000582273
68 *77:163 *740:mem_wdata[13] 0.00328614
69 *77:163 *705:19 0.0213999
70 *77:171 *646:35 0.119117
71 *77:171 *658:123 0.00429716
72 *77:171 *714:139 0.12656
73 *77:193 *78:151 0.00084519
74 *77:193 *115:149 0.000819489
75 *77:193 *646:33 0.000274449
76 *77:211 *78:151 0
77 *77:239 *78:189 0.000361581
78 *77:241 *78:189 0.0787645
79 *74:17 *77:163 0
*RES
1 *739:io_oeb_o[18] *77:13 11.384 
2 *77:13 *77:15 93.6 
3 *77:15 *77:33 47.0818 
4 *77:33 *77:41 24.2089 
5 *77:41 *77:49 47.6669 
6 *77:49 *77:65 43.448 
7 *77:65 *77:73 26.0851 
8 *77:73 *77:77 47.015 
9 *77:77 *77:97 48.134 
10 *77:97 *77:99 85.785 
11 *77:99 *77:105 2.786 
12 *77:105 *77:107 69.465 
13 *77:107 *77:121 41.085 
14 *77:121 *77:123 114.345 
15 *77:123 *77:137 30.011 
16 *77:137 *77:145 38.591 
17 *77:145 *77:147 62.835 
18 *77:147 *77:153 1.912 
19 *77:153 *77:155 182.175 
20 *77:155 *77:161 2.0868 
21 *77:161 *77:163 239.805 
22 *77:163 *77:169 2.02853 
23 *77:169 *77:171 1415.35 
24 *77:171 *77:193 43.8051 
25 *77:193 *77:211 44.9695 
26 *77:211 *77:227 49.3939 
27 *77:227 *77:239 42.6639 
28 *77:239 *77:241 116.338 
29 *77:241 io_oeb[18] 12.2825 
*END

*D_NET *78 0.771449
*CONN
*P io_oeb[19] O
*I *739:io_oeb_o[19] O *D ntt_wb_bridge
*CAP
1 io_oeb[19] 0.000680981
2 *739:io_oeb_o[19] 0.00038158
3 *78:189 0.0453761
4 *78:187 0.0480597
5 *78:179 0.00602871
6 *78:169 0.00659565
7 *78:151 0.00745434
8 *78:129 0.0305403
9 *78:127 0.0394722
10 *78:113 0.0156278
11 *78:111 0.00611839
12 *78:107 0.00627487
13 *78:95 0.00970108
14 *78:79 0.00913036
15 *78:71 0.00703562
16 *78:57 0.0127518
17 *78:55 0.0116389
18 *78:47 0.00538016
19 *78:39 0.00490103
20 *78:29 0.00913688
21 *78:13 0.0133117
22 *78:11 0.00724105
23 *78:11 *141:31 0.000160832
24 *78:13 *91:13 0.0103349
25 *78:13 *94:13 0.00118708
26 *78:13 *113:13 0.00258078
27 *78:13 *141:31 0.000883538
28 *78:13 *141:33 0.00359052
29 *78:13 *143:43 0
30 *78:29 *101:27 0.000527207
31 *78:29 *115:19 0.000326344
32 *78:29 *282:23 0.000841176
33 *78:29 *354:27 0.0025464
34 *78:29 *730:7 0
35 *78:39 *279:19 0.00391575
36 *78:47 *114:39 0.000258101
37 *78:47 *115:35 0
38 *78:47 *692:9 0
39 *78:55 *654:7 0.00229383
40 *78:57 la_data_out[90] 0.0118323
41 *78:57 *114:51 0
42 *78:71 *658:49 0.000456263
43 *78:71 *671:21 0
44 *78:71 *715:25 0.000236573
45 *78:71 *720:7 0.00155754
46 *78:95 la_data_out[100] 0.000425499
47 *78:95 *274:19 0.00204762
48 *78:107 *114:91 0
49 *78:107 *669:65 0
50 *78:111 *672:27 0.00139644
51 *78:113 la_data_out[107] 0
52 *78:113 *115:107 0
53 *78:127 *658:121 0.0012038
54 *78:127 *673:27 0.0118929
55 *78:127 *680:37 0
56 *78:127 *681:25 0.00472655
57 *78:129 *104:23 0.004825
58 *78:129 *115:145 0.0497882
59 *78:129 *142:19 0.0613426
60 *78:129 *659:111 0.00799337
61 *78:129 *671:17 0.160395
62 *78:129 *679:31 0.0120019
63 *78:129 *681:13 0.0104887
64 *78:129 *723:151 0.00140651
65 *78:151 *115:149 0.000614298
66 *78:151 *646:33 0.000328733
67 *78:151 *648:21 0
68 *78:151 *679:21 5.15446e-05
69 *78:151 *715:93 0.000516051
70 *78:189 io_out[18] 0.000694804
71 io_oeb[17] *78:189 0.000490083
72 *75:17 *78:129 0
73 *75:21 *78:189 0.0101348
74 *76:19 *78:29 0
75 *76:75 *78:127 0.00234567
76 *77:193 *78:151 0.00084519
77 *77:211 *78:151 0
78 *77:239 *78:189 0.000361581
79 *77:241 *78:189 0.0787645
*RES
1 *739:io_oeb_o[19] *78:11 3.77957 
2 *78:11 *78:13 181.92 
3 *78:13 *78:29 49.5614 
4 *78:29 *78:39 48.7077 
5 *78:39 *78:47 29.1341 
6 *78:47 *78:55 43.399 
7 *78:55 *78:57 228.075 
8 *78:57 *78:71 25.929 
9 *78:71 *78:79 39.1593 
10 *78:79 *78:95 47.3217 
11 *78:95 *78:107 47.2539 
12 *78:107 *78:111 9.74413 
13 *78:111 *78:113 57.225 
14 *78:113 *78:127 44.0381 
15 *78:127 *78:129 1793.78 
16 *78:129 *78:151 41.6597 
17 *78:151 *78:169 49.6387 
18 *78:169 *78:179 32.825 
19 *78:179 *78:187 47.1567 
20 *78:187 *78:189 163.505 
21 *78:189 io_oeb[19] 12.7925 
*END

*D_NET *79 0.237346
*CONN
*P io_oeb[1] O
*I *739:io_oeb_o[1] O *D ntt_wb_bridge
*CAP
1 io_oeb[1] 0.0413658
2 *739:io_oeb_o[1] 0.00113526
3 *79:23 0.0525337
4 *79:13 0.0212762
5 *79:11 0.0112435
6 io_oeb[1] *652:57 0
7 io_oeb[1] *721:17 0.00134001
8 io_oeb[1] *727:9 0.00026524
9 *79:11 *141:25 5.70064e-05
10 *79:13 io_oeb[37] 0.00328182
11 *79:13 *95:17 0.000110327
12 *79:13 *95:19 0.0175485
13 *79:13 *101:21 0
14 *79:13 *102:19 0
15 *79:13 *107:18 0.00854867
16 *79:13 *140:21 0.0093266
17 *79:13 *353:27 0.0329181
18 *79:23 *117:24 0.0176054
19 *79:23 *363:71 0.00455965
20 *79:23 *650:9 0.000206859
21 *79:23 *658:17 0.000262458
22 *79:23 *693:11 0.000967696
23 *79:23 *695:17 0.000206859
24 *79:23 *696:11 0.000383938
25 *79:23 *722:9 0.000262458
26 *79:23 *727:9 0.000215324
27 *79:23 *729:9 0.000318057
28 *79:23 *731:9 0.000318057
29 *79:23 *736:9 0.000262458
30 *79:23 *737:8 0.00476196
31 *71:20 *79:13 4.20745e-05
32 *72:23 *79:13 0.000119103
33 *73:18 *79:13 0.000273161
34 *76:19 *79:23 0.0056297
*RES
1 *739:io_oeb_o[1] *79:11 3.34713 
2 *79:11 *79:13 59.3535 
3 *79:13 *79:23 43.294 
4 *79:23 io_oeb[1] 108.512 
*END

*D_NET *80 0.807038
*CONN
*P io_oeb[20] O
*I *739:io_oeb_o[20] O *D ntt_wb_bridge
*CAP
1 io_oeb[20] 0.00065289
2 *739:io_oeb_o[20] 0.000553497
3 *80:267 0.0115022
4 *80:265 0.0139627
5 *80:245 0.00597386
6 *80:237 0.00563801
7 *80:229 0.00443399
8 *80:217 0.00599049
9 *80:187 0.0175542
10 *80:185 0.0134717
11 *80:179 0.0260902
12 *80:177 0.0290522
13 *80:169 0.00965646
14 *80:149 0.0109549
15 *80:133 0.00665868
16 *80:129 0.00440259
17 *80:115 0.009933
18 *80:113 0.00945843
19 *80:105 0.00590961
20 *80:89 0.00791059
21 *80:75 0.00716019
22 *80:73 0.00570926
23 *80:67 0.00731633
24 *80:65 0.00752518
25 *80:57 0.00537894
26 *80:49 0.00712189
27 *80:41 0.00891593
28 *80:23 0.0132696
29 *80:21 0.00919041
30 *80:21 *100:23 0.000719945
31 *80:21 *103:13 0.000260491
32 *80:21 *113:13 0.000132248
33 *80:21 *114:13 0.000284195
34 *80:21 *141:31 0.00129548
35 *80:23 *89:13 0.00279408
36 *80:23 *90:23 0.00325428
37 *80:23 *92:13 0.0565645
38 *80:23 *106:21 0.00466407
39 *80:23 *115:13 0.0215276
40 *80:23 *118:13 0.0235054
41 *80:23 *120:13 1.03423e-05
42 *80:23 *133:27 0.00558953
43 *80:41 *86:29 0.00109791
44 *80:41 *91:49 0.000514793
45 *80:41 *118:31 0.000730453
46 *80:41 *135:20 0.000151632
47 *80:41 *317:29 9.24781e-05
48 *80:49 *575:17 0.00515144
49 *80:49 *644:9 0
50 *80:57 *118:47 0
51 *80:57 *554:9 0
52 *80:57 *565:9 0.00040155
53 *80:65 *305:25 0
54 *80:65 *568:9 0.00327677
55 *80:65 *569:9 0
56 *80:73 io_out[36] 0.010639
57 *80:73 *556:9 0.00335737
58 *80:75 la_data_out[5] 0
59 *80:89 la_data_out[4] 0
60 *80:89 *576:9 0.000843131
61 *80:89 *587:9 0
62 *80:89 *604:9 0.00107901
63 *80:89 *605:9 0
64 *80:105 la_data_out[2] 0.000343955
65 *80:105 *118:97 0
66 *80:105 *579:9 0
67 *80:105 *580:9 0.0024811
68 *80:105 *606:9 0.00103901
69 *80:105 *607:9 0
70 *80:105 *610:11 0
71 *80:113 *581:9 0
72 *80:113 *582:9 0.00139848
73 *80:115 *596:5 0
74 *80:129 *609:7 0
75 *80:129 *637:7 0
76 *80:129 *638:7 0.000536657
77 *80:129 *639:7 0.00149715
78 *80:133 wbs_dat_o[25] 0
79 *80:133 *540:107 0.00205913
80 *80:149 *118:129 0
81 *80:149 *617:7 0.00206219
82 *80:149 *618:7 0
83 *80:149 *621:7 0.000834925
84 *80:177 *118:151 0
85 *80:179 *740:mem_wdata[14] 0.000473292
86 *80:179 *116:137 0.128133
87 *80:179 *118:169 0
88 *80:179 *701:22 0.00590722
89 *80:179 *706:27 0.01623
90 *80:179 *729:27 0
91 *80:179 *734:43 0.111775
92 *80:179 *737:46 0.00154268
93 *80:179 *737:54 0.00677307
94 *80:187 *116:137 0
95 *80:187 *116:145 0.0133708
96 *80:187 *118:185 6.01756e-05
97 *80:187 *691:11 0.00110947
98 *80:187 *704:35 0
99 *80:187 *734:51 0.0111974
100 *80:217 *118:203 0.000673812
101 *80:217 *118:205 0.000690404
102 *80:217 *120:23 0.00261147
103 *80:217 *662:13 0.000486657
104 *80:217 *675:13 0.000313519
105 *80:217 *704:39 0
106 *80:217 *734:67 0.000118966
107 *80:265 io_out[22] 0.00104248
108 *80:267 *118:249 0.0461049
109 *80:267 *119:29 0.0252402
110 *76:15 *80:23 0.00164607
*RES
1 *739:io_oeb_o[20] *80:21 8.47497 
2 *80:21 *80:23 554.175 
3 *80:23 *80:41 19.1916 
4 *80:41 *80:49 45.729 
5 *80:49 *80:57 46.3431 
6 *80:57 *80:65 17.0669 
7 *80:65 *80:67 88.335 
8 *80:67 *80:73 16.77 
9 *80:73 *80:75 59.775 
10 *80:75 *80:89 39.8169 
11 *80:89 *80:105 45.1083 
12 *80:105 *80:113 15.2469 
13 *80:113 *80:115 132.195 
14 *80:115 *80:129 15.8907 
15 *80:129 *80:133 47.015 
16 *80:133 *80:149 47.0612 
17 *80:149 *80:169 48.4869 
18 *80:169 *80:177 24.8635 
19 *80:177 *80:179 1480.12 
20 *80:179 *80:185 1.5624 
21 *80:185 *80:187 367.815 
22 *80:187 *80:217 42.113 
23 *80:217 *80:229 14.025 
24 *80:229 *80:237 41.651 
25 *80:237 *80:245 42.161 
26 *80:245 *80:265 39.519 
27 *80:265 *80:267 68.1517 
28 *80:267 io_oeb[20] 12.2825 
*END

*D_NET *81 0.739209
*CONN
*P io_oeb[21] O
*I *739:io_oeb_o[21] O *D ntt_wb_bridge
*CAP
1 io_oeb[21] 0.000617558
2 *739:io_oeb_o[21] 0.00080248
3 *81:29 0.011598
4 *81:23 0.081298
5 *81:21 0.0704921
6 *81:15 0.0368547
7 *81:13 0.0374826
8 *81:13 *141:31 6.67896e-05
9 *81:15 *93:19 0.000223887
10 *81:15 *99:19 0.000439585
11 *81:15 *101:21 0.00328386
12 *81:15 *105:15 0.00317968
13 *81:15 *106:19 0.00480527
14 *81:15 *108:19 0.0048585
15 *81:15 *108:27 0
16 *81:15 *109:23 0
17 *81:15 *110:13 0.0462693
18 *81:15 *122:13 0.089619
19 *81:15 *123:15 0.000843861
20 *81:15 *124:15 0.00041318
21 *81:15 *124:23 0.0238615
22 *81:15 *125:13 0.000350599
23 *81:15 *125:21 0.0021388
24 *81:15 *126:13 0
25 *81:15 *130:15 0
26 *81:15 *141:23 0.000465095
27 *81:21 *119:25 0.000108575
28 *81:21 *581:5 0
29 *81:23 *119:25 0
30 *81:23 *581:5 0.0163975
31 *81:23 *676:21 0.00144759
32 *81:23 *689:19 0
33 *81:23 *691:11 0.010148
34 *81:23 *710:35 0.0701388
35 *81:23 *717:35 0.0226302
36 *81:23 *733:35 0.163154
37 *81:29 io_oeb[22] 6.58583e-05
38 *81:29 *119:29 0.0318075
39 *68:19 *81:15 0.000552743
40 *77:15 *81:15 0.00279352
*RES
1 *739:io_oeb_o[21] *81:13 11.9362 
2 *81:13 *81:15 1136.88 
3 *81:15 *81:21 5.3225 
4 *81:21 *81:23 2597.02 
5 *81:23 *81:29 48.1757 
6 *81:29 io_oeb[21] 10.7625 
*END

*D_NET *82 0.690021
*CONN
*P io_oeb[22] O
*I *739:io_oeb_o[22] O *D ntt_wb_bridge
*CAP
1 io_oeb[22] 0.00308486
2 *739:io_oeb_o[22] 0.000452474
3 *82:25 0.094423
4 *82:23 0.0913381
5 *82:21 0.0168025
6 *82:19 0.0168602
7 *82:13 0.0100197
8 *82:11 0.0104145
9 io_oeb[22] *119:29 0.00224814
10 *82:11 *141:31 0.000133749
11 *82:13 *86:13 0.0640868
12 *82:13 *87:51 0.000567275
13 *82:13 *90:21 0.000100611
14 *82:13 *91:13 0.0513713
15 *82:13 *91:47 0.000498684
16 *82:13 *94:79 0.00173559
17 *82:13 *95:49 0.000243605
18 *82:13 *95:67 0.00137792
19 *82:13 *95:77 0.000219491
20 *82:13 *103:11 0.000132615
21 *82:13 *116:29 0.000215469
22 *82:13 *120:13 0
23 *82:13 *126:11 0.000109487
24 *82:13 *132:17 0.000100591
25 *82:13 *136:25 0.000118628
26 *82:13 *141:23 0.000135083
27 *82:13 *141:25 0.00567743
28 *82:13 *141:31 0.00035842
29 *82:13 *143:29 0.000996382
30 *82:19 *325:19 0.000190119
31 *82:19 *327:35 0.000188459
32 *82:21 *86:29 0.03428
33 *82:21 *87:53 0.0188523
34 *82:21 *610:17 0.0282635
35 *82:25 wbs_dat_o[13] 0.0232028
36 *82:25 *118:153 0
37 *82:25 *118:169 0
38 *82:25 *120:17 0.210925
39 *82:25 *662:15 0
40 *82:25 *675:15 0.000118505
41 *82:25 *695:35 0
42 *82:25 *718:19 0
43 *82:25 *725:35 0
44 *75:11 *82:13 0.000111673
45 *81:29 io_oeb[22] 6.58583e-05
*RES
1 *739:io_oeb_o[22] *82:11 3.33037 
2 *82:11 *82:13 584.88 
3 *82:13 *82:19 4.7725 
4 *82:19 *82:21 96.2363 
5 *82:21 *82:23 0.5 
6 *82:23 *82:25 2586.31 
7 *82:25 io_oeb[22] 21.1382 
*END

*D_NET *83 0.597254
*CONN
*P io_oeb[23] O
*I *739:io_oeb_o[23] O *D ntt_wb_bridge
*CAP
1 io_oeb[23] 0.0109998
2 *739:io_oeb_o[23] 0.00126982
3 *83:25 0.154178
4 *83:23 0.143179
5 *83:21 0.015711
6 *83:19 0.0157749
7 *83:13 0.0131431
8 *83:11 0.014349
9 *83:11 *141:31 0.000116615
10 *83:13 io_oeb[37] 0.0035587
11 *83:13 *84:13 0.0647489
12 *83:13 *85:13 0.000200251
13 *83:13 *343:35 0.00881202
14 *83:13 *347:41 0.000461121
15 *83:13 *348:43 0.0429598
16 *83:13 *349:43 0.00110604
17 *83:13 *352:27 0.00672088
18 *83:19 *332:11 0.000185015
19 *83:19 *336:23 0.000186436
20 *83:21 io_oeb[37] 0.000401549
21 *83:21 *85:21 0.0637842
22 *83:21 *93:19 0.0338302
23 *83:21 *124:23 0.000538849
24 *83:25 *545:5 0
25 *70:20 *83:13 0.00103854
*RES
1 *739:io_oeb_o[23] *83:11 17.4128 
2 *83:11 *83:13 610.755 
3 *83:13 *83:19 4.7725 
4 *83:19 *83:21 99.2661 
5 *83:21 *83:23 0.5 
6 *83:23 *83:25 2600.59 
7 *83:25 io_oeb[23] 40.9489 
*END

*D_NET *84 0.754471
*CONN
*P io_oeb[24] O
*I *739:io_oeb_o[24] O *D ntt_wb_bridge
*CAP
1 io_oeb[24] 0.0138293
2 *739:io_oeb_o[24] 0.00114438
3 *84:37 0.0822971
4 *84:35 0.0688104
5 *84:29 0.041784
6 *84:27 0.0415453
7 *84:21 0.0123469
8 *84:19 0.012284
9 *84:13 0.00877365
10 *84:11 0.00987711
11 *84:11 *141:33 7.85429e-05
12 *84:13 io_oeb[37] 0.0031529
13 *84:13 *85:13 0.0658715
14 *84:13 *342:51 0.00775737
15 *84:13 *352:27 0.00432648
16 *84:19 *320:31 7.68851e-05
17 *84:19 *325:29 7.56599e-05
18 *84:21 io_oeb[37] 0.0634043
19 *84:21 *85:21 0.0630454
20 *84:21 *93:19 3.37278e-05
21 *84:21 *135:14 0.000184606
22 *84:27 *547:5 0
23 *84:29 *86:33 0.0771489
24 *84:29 *92:25 0.00892271
25 *84:29 *93:23 0.0119439
26 *84:29 *121:31 0.000151725
27 *84:29 *547:5 0
28 *84:29 *580:5 0
29 *84:29 *662:15 0
30 *84:35 io_oeb[31] 0.000102215
31 *84:37 *86:41 0.0907538
32 *83:13 *84:13 0.0647489
*RES
1 *739:io_oeb_o[24] *84:11 16.9602 
2 *84:11 *84:13 605.925 
3 *84:13 *84:19 3.4975 
4 *84:19 *84:21 97.1103 
5 *84:21 *84:27 2.195 
6 *84:27 *84:29 1071.49 
7 *84:29 *84:35 1.8246 
8 *84:35 *84:37 231.564 
9 *84:37 io_oeb[24] 37.1105 
*END

*D_NET *85 0.637614
*CONN
*P io_oeb[25] O
*I *739:io_oeb_o[25] O *D ntt_wb_bridge
*CAP
1 io_oeb[25] 0.0129583
2 *739:io_oeb_o[25] 0.00115776
3 *85:25 0.160451
4 *85:23 0.147493
5 *85:21 0.0126611
6 *85:19 0.0127383
7 *85:13 0.0110895
8 *85:11 0.01217
9 *85:11 *141:33 0.000100835
10 *85:13 io_oeb[37] 0.00289288
11 *85:13 *107:18 0.00159373
12 *85:13 *342:51 0.00847092
13 *85:13 *347:41 0.0407301
14 *85:13 *352:27 0.0050689
15 *85:19 *342:47 9.53201e-05
16 *85:21 io_oeb[37] 0.00108913
17 *85:21 *93:19 0.000424353
18 *85:25 *546:5 0.00085428
19 *70:22 *85:13 0.0120116
20 *71:22 *85:13 0.000662198
21 *83:13 *85:13 0.000200251
22 *83:21 *85:21 0.0637842
23 *84:13 *85:13 0.0658715
24 *84:21 *85:21 0.0630454
*RES
1 *739:io_oeb_o[25] *85:11 16.7685 
2 *85:11 *85:13 621.105 
3 *85:13 *85:19 3.7525 
4 *85:19 *85:21 99.5866 
5 *85:21 *85:23 0.5 
6 *85:23 *85:25 379.628 
7 *85:25 io_oeb[25] 34.7798 
*END

*D_NET *86 0.653225
*CONN
*P io_oeb[26] O
*I *739:io_oeb_o[26] O *D ntt_wb_bridge
*CAP
1 io_oeb[26] 0.0148728
2 *739:io_oeb_o[26] 0.000226191
3 *86:41 0.0480969
4 *86:39 0.0334838
5 *86:33 0.0302649
6 *86:31 0.0300051
7 *86:29 0.028664
8 *86:27 0.0291331
9 *86:13 0.00940431
10 *86:11 0.00916142
11 *86:11 *91:13 0.000103417
12 *86:11 *94:13 0.000107826
13 *86:11 *141:33 0.000274926
14 *86:13 *87:51 0.00123571
15 *86:13 *91:13 0.00237771
16 *86:13 *91:47 0.00034664
17 *86:13 *94:13 0.0576668
18 *86:13 *95:49 0.000196871
19 *86:13 *95:77 0.00020266
20 *86:13 *103:11 0.000132615
21 *86:13 *116:29 0.000688605
22 *86:13 *126:11 0.000109487
23 *86:13 *136:25 0.000109416
24 *86:13 *141:23 0.000124592
25 *86:13 *141:25 0.00514548
26 *86:13 *141:31 0.000559751
27 *86:13 *141:33 0.00019259
28 *86:13 *143:29 0.00091986
29 *86:13 *351:39 0.00334798
30 *86:27 *325:19 6.33291e-05
31 *86:27 *327:35 6.1908e-05
32 *86:27 *351:39 0
33 *86:29 *610:17 0.000222569
34 *86:33 *93:23 0.0257713
35 *86:33 *547:5 0
36 *86:39 io_oeb[32] 0.000140858
37 *86:41 *87:57 0.0523304
38 *86:41 *661:11 0
39 *75:11 *86:13 0.000111673
40 *80:41 *86:29 0.00109791
41 *82:13 *86:13 0.0640868
42 *82:21 *86:29 0.03428
43 *84:29 *86:33 0.0771489
44 *84:37 *86:41 0.0907538
*RES
1 *739:io_oeb_o[26] *86:11 3.41397 
2 *86:11 *86:13 616.275 
3 *86:13 *86:27 14.5775 
4 *86:27 *86:29 97.1685 
5 *86:29 *86:31 0.5 
6 *86:31 *86:33 864.555 
7 *86:33 *86:39 1.6498 
8 *86:39 *86:41 197.886 
9 *86:41 io_oeb[26] 37.227 
*END

*D_NET *87 0.640346
*CONN
*P io_oeb[27] O
*I *739:io_oeb_o[27] O *D ntt_wb_bridge
*CAP
1 io_oeb[27] 0.0140708
2 *739:io_oeb_o[27] 0.000213596
3 *87:57 0.0834988
4 *87:55 0.069428
5 *87:53 0.0149279
6 *87:51 0.0176693
7 *87:13 0.0107333
8 *87:11 0.00820548
9 *87:11 *141:33 0.000144901
10 *87:13 *91:47 0.000276346
11 *87:13 *94:13 0.0576737
12 *87:13 *95:49 0.000167572
13 *87:13 *103:11 0.00014049
14 *87:13 *122:11 0.000104998
15 *87:13 *126:11 0.000117198
16 *87:13 *141:23 0.00010605
17 *87:13 *141:25 0.00289259
18 *87:13 *141:33 0.000136405
19 *87:13 *143:29 0.000498703
20 *87:13 *143:43 0.0132733
21 *87:13 *351:39 0.0351253
22 *87:51 *91:47 0.00449026
23 *87:51 *94:79 0.00642017
24 *87:51 *95:67 0.00184612
25 *87:51 *95:77 0.000149792
26 *87:51 *106:19 0.000382746
27 *87:51 *128:19 1.82074e-05
28 *87:51 *137:11 2.73991e-05
29 *87:51 *138:11 3.77479e-05
30 *87:51 *139:15 2.86168e-05
31 *87:51 *140:19 3.3211e-05
32 *87:51 *141:23 0
33 *87:51 *351:39 0.00071033
34 *87:53 *91:47 0.000553207
35 *87:53 *91:49 0.0644189
36 *87:53 *95:79 1.93372e-05
37 *87:53 *116:29 0.00797915
38 *87:53 *610:17 0.0291076
39 *87:57 *91:53 0.115995
40 *87:57 *547:5 0.00561869
41 *87:57 *661:11 0
42 *75:11 *87:13 0.000119416
43 *82:13 *87:51 0.000567275
44 *82:21 *87:53 0.0188523
45 *86:13 *87:51 0.00123571
46 *86:41 *87:57 0.0523304
*RES
1 *739:io_oeb_o[27] *87:11 3.21637 
2 *87:11 *87:13 530.37 
3 *87:13 *87:51 36.1807 
4 *87:51 *87:53 100.577 
5 *87:53 *87:55 0.5 
6 *87:55 *87:57 311.238 
7 *87:57 io_oeb[27] 37.4601 
*END

*D_NET *88 0.659812
*CONN
*P io_oeb[28] O
*I *739:io_oeb_o[28] O *D ntt_wb_bridge
*CAP
1 io_oeb[28] 0.00125273
2 *739:io_oeb_o[28] 0.000493671
3 *88:29 0.0355362
4 *88:27 0.0395618
5 *88:23 0.00543803
6 *88:17 0.0429112
7 *88:15 0.0432451
8 *88:15 *141:33 0.00011227
9 *88:17 *89:13 0.0159137
10 *88:17 *111:31 0.0496572
11 *88:17 *112:29 0.0463016
12 *88:17 *120:13 0
13 *88:17 *121:21 0
14 *88:17 *128:21 0.0136807
15 *88:17 *130:23 0
16 *88:17 *130:31 0.0133816
17 *88:27 *95:79 0.031953
18 *88:27 *131:25 0.0319599
19 *88:29 *89:25 0.134733
20 *88:29 *123:27 0.152806
21 *88:29 *575:13 0.000874301
*RES
1 *739:io_oeb_o[28] *88:15 7.65377 
2 *88:15 *88:17 1138.26 
3 *88:17 *88:23 4.7725 
4 *88:23 *88:27 48.171 
5 *88:27 *88:29 278.679 
6 *88:29 io_oeb[28] 3.43233 
*END

*D_NET *89 0.611596
*CONN
*P io_oeb[29] O
*I *739:io_oeb_o[29] O *D ntt_wb_bridge
*CAP
1 io_oeb[29] 0.00125412
2 *739:io_oeb_o[29] 0.000336371
3 *89:25 0.0661151
4 *89:23 0.0648609
5 *89:21 0.0162922
6 *89:19 0.0163655
7 *89:13 0.0109643
8 *89:11 0.0112273
9 *89:11 *141:33 4.68515e-05
10 *89:13 *92:13 0.0670029
11 *89:13 *106:21 0.0133857
12 *89:13 *112:29 0.0476015
13 *89:13 *120:13 0
14 *89:13 *130:31 0.00183298
15 *89:13 *133:27 0.00157024
16 *89:21 *92:21 0.0364019
17 *89:21 *121:31 0.0148625
18 *89:21 *122:23 0.0017979
19 *89:21 *130:31 0.086115
20 *89:25 *123:27 0.000121655
21 *80:23 *89:13 0.00279408
22 *88:17 *89:13 0.0159137
23 *88:29 *89:25 0.134733
*RES
1 *739:io_oeb_o[29] *89:11 6.42663 
2 *89:11 *89:13 673.89 
3 *89:13 *89:19 3.4975 
4 *89:19 *89:21 127.962 
5 *89:21 *89:23 0.5 
6 *89:23 *89:25 246.121 
7 *89:25 io_oeb[29] 3.54887 
*END

*D_NET *90 0.357786
*CONN
*P io_oeb[2] O
*I *739:io_oeb_o[2] O *D ntt_wb_bridge
*CAP
1 io_oeb[2] 0.000846948
2 *739:io_oeb_o[2] 0.0017345
3 *90:27 0.0148653
4 *90:25 0.0140183
5 *90:23 0.0166072
6 *90:21 0.0183417
7 *90:21 *100:21 0.00116103
8 *90:21 *109:23 0.000394787
9 *90:21 *117:18 0.00287394
10 *90:21 *141:25 0.000449698
11 *90:21 *142:15 0.000361858
12 *90:21 *143:41 9.29394e-05
13 *90:23 *92:13 0.00560234
14 *90:23 *100:23 0.10527
15 *90:23 *106:21 0.107603
16 *90:23 *113:13 0.000157245
17 *90:23 *114:13 0.000431896
18 *90:23 *115:13 0.000467765
19 *90:23 *128:21 9.40268e-05
20 *90:23 *141:25 0.000531573
21 *90:27 io_out[0] 4.6186e-05
22 *90:27 *99:31 0.0359631
23 *90:27 *101:31 0.00640193
24 *90:27 *128:25 0.00769172
25 *90:27 *141:37 0.0068851
26 io_oeb[0] *90:27 0.00454999
27 *68:19 *90:21 0.000987078
28 *80:23 *90:23 0.00325428
29 *82:13 *90:21 0.000100611
*RES
1 *739:io_oeb_o[2] *90:21 14.4363 
2 *90:21 *90:23 159.805 
3 *90:23 *90:25 0.5 
4 *90:25 *90:27 65.6716 
5 *90:27 io_oeb[2] 2.50007 
*END

*D_NET *91 0.571928
*CONN
*P io_oeb[30] O
*I *739:io_oeb_o[30] O *D ntt_wb_bridge
*CAP
1 io_oeb[30] 0.0142313
2 *739:io_oeb_o[30] 0.00025978
3 *91:53 0.0418267
4 *91:51 0.0275953
5 *91:49 0.0149863
6 *91:47 0.0180144
7 *91:13 0.0200405
8 *91:11 0.0172721
9 *91:11 *94:13 0.000121054
10 *91:11 *141:33 0.000308653
11 *91:13 *94:13 0.00168055
12 *91:13 *95:49 0.000188663
13 *91:13 *103:11 0.000144683
14 *91:13 *113:13 0
15 *91:13 *120:13 0
16 *91:13 *122:11 0.000106223
17 *91:13 *126:11 0.00011945
18 *91:13 *136:25 0.000101753
19 *91:13 *141:23 0.000113694
20 *91:13 *141:25 0.00634733
21 *91:13 *141:31 0.00101214
22 *91:13 *141:33 0.000861776
23 *91:13 *143:29 0.00438308
24 *91:47 *94:13 0.000294717
25 *91:47 *94:79 0.00123628
26 *91:47 *94:81 5.84448e-05
27 *91:47 *95:49 0.0018116
28 *91:47 *95:67 0.00468528
29 *91:47 *95:77 0.00104082
30 *91:47 *116:27 0
31 *91:47 *131:25 0.00749113
32 *91:47 *141:23 8.26226e-05
33 *91:47 *142:13 0.000106151
34 *91:49 *94:81 0.0233988
35 *91:49 *95:79 0.000480395
36 *91:49 *116:29 0.00724161
37 *91:49 *118:31 0.00496968
38 *91:53 *92:25 0.0979124
39 *91:53 *661:11 0
40 *75:11 *91:13 0.000121835
41 *78:13 *91:13 0.0103349
42 *80:41 *91:49 0.000514793
43 *82:13 *91:13 0.0513713
44 *82:13 *91:47 0.000498684
45 *86:11 *91:13 0.000103417
46 *86:13 *91:13 0.00237771
47 *86:13 *91:47 0.00034664
48 *87:13 *91:47 0.000276346
49 *87:51 *91:47 0.00449026
50 *87:53 *91:47 0.000553207
51 *87:53 *91:49 0.0644189
52 *87:57 *91:53 0.115995
*RES
1 *739:io_oeb_o[30] *91:11 3.75257 
2 *91:11 *91:13 537.96 
3 *91:13 *91:47 25.0654 
4 *91:47 *91:49 98.7417 
5 *91:49 *91:51 0.5 
6 *91:51 *91:53 212.271 
7 *91:53 io_oeb[30] 37.5766 
*END

*D_NET *92 0.567463
*CONN
*P io_oeb[31] O
*I *739:io_oeb_o[31] O *D ntt_wb_bridge
*CAP
1 io_oeb[31] 0.0142668
2 *739:io_oeb_o[31] 0.000467943
3 *92:25 0.0381126
4 *92:23 0.0238457
5 *92:21 0.013621
6 *92:19 0.0137801
7 *92:13 0.00903582
8 *92:11 0.00934464
9 *92:11 *141:33 0.000225715
10 *92:13 *106:21 0.00316601
11 *92:13 *112:29 0.000967227
12 *92:13 *133:27 0.00606705
13 *92:21 *96:23 0.0615851
14 *92:21 *97:15 0.00735639
15 *92:21 *121:31 0.0001131
16 *92:21 *122:23 0.000541416
17 *92:21 *130:31 0.000102037
18 *92:21 *132:19 0.00247888
19 *92:25 *93:23 0.0803314
20 *92:25 *661:11 0.00234545
21 *76:15 *92:13 0.00719981
22 *80:23 *92:13 0.0565645
23 *84:29 *92:25 0.00892271
24 *84:35 io_oeb[31] 0.000102215
25 *89:13 *92:13 0.0670029
26 *89:21 *92:21 0.0364019
27 *90:23 *92:13 0.00560234
28 *91:53 *92:25 0.0979124
*RES
1 *739:io_oeb_o[31] *92:11 6.61497 
2 *92:11 *92:13 621.105 
3 *92:13 *92:19 4.7725 
4 *92:19 *92:21 105.18 
5 *92:21 *92:23 0.5 
6 *92:23 *92:25 180.229 
7 *92:25 io_oeb[31] 37.6931 
*END

*D_NET *93 0.488293
*CONN
*P io_oeb[32] O
*I *739:io_oeb_o[32] O *D ntt_wb_bridge
*CAP
1 io_oeb[32] 0.0151989
2 *739:io_oeb_o[32] 0.000942813
3 *93:23 0.0535953
4 *93:21 0.0383964
5 *93:19 0.0361434
6 *93:17 0.0370862
7 *93:17 *95:19 5.18298e-05
8 *93:17 *101:21 0.000159918
9 *93:17 *141:33 0.000143972
10 *93:19 *95:19 0.0475462
11 *93:19 *99:19 0.0139336
12 *93:19 *101:21 0.00132311
13 *93:19 *107:16 0.000166441
14 *93:19 *108:19 0.0012197
15 *93:19 *119:21 0.0322846
16 *93:19 *124:23 0.000709853
17 *93:19 *129:15 0.0369587
18 *93:19 *135:14 0.0102319
19 *93:19 *136:25 0.0027302
20 *93:19 *140:19 0.000214666
21 *93:23 *580:5 0.0019295
22 *93:23 *661:11 0.00256276
23 *93:23 *664:11 0.00206374
24 *93:23 *688:11 0
25 *81:15 *93:19 0.000223887
26 *83:21 *93:19 0.0338302
27 *84:21 *93:19 3.37278e-05
28 *84:29 *93:23 0.0119439
29 *85:21 *93:19 0.000424353
30 *86:33 *93:23 0.0257713
31 *86:39 io_oeb[32] 0.000140858
32 *92:25 *93:23 0.0803314
*RES
1 *739:io_oeb_o[32] *93:17 11.5664 
2 *93:17 *93:19 211.663 
3 *93:19 *93:21 0.5 
4 *93:21 *93:23 148.187 
5 *93:23 io_oeb[32] 37.8097 
*END

*D_NET *94 0.419312
*CONN
*P io_oeb[33] O
*I *739:io_oeb_o[33] O *D ntt_wb_bridge
*CAP
1 io_oeb[33] 0.0155347
2 *739:io_oeb_o[33] 7.88674e-05
3 *94:85 0.0590316
4 *94:83 0.0434969
5 *94:81 0.0130661
6 *94:79 0.016351
7 *94:13 0.0120905
8 *94:11 0.00888451
9 *94:11 *141:33 5.15876e-05
10 *94:13 *95:49 0.000181489
11 *94:13 *103:11 0.000152319
12 *94:13 *118:11 0.000100611
13 *94:13 *122:11 0.000113838
14 *94:13 *126:11 0.000127066
15 *94:13 *136:25 0.000106508
16 *94:13 *141:23 0.000114858
17 *94:13 *141:25 0.00322391
18 *94:13 *141:31 0.000562002
19 *94:13 *141:33 0.000649049
20 *94:13 *143:29 0.000625068
21 *94:13 *143:43 0.00254971
22 *94:13 *351:39 0.000129707
23 *94:79 *95:67 0.00183289
24 *94:79 *95:77 0.00221335
25 *94:79 *106:19 2.96389e-05
26 *94:79 *120:13 0
27 *94:79 *128:19 5.03348e-05
28 *94:79 *131:25 0.000669941
29 *94:79 *137:11 4.21127e-05
30 *94:79 *138:11 5.56205e-06
31 *94:79 *139:15 8.14646e-05
32 *94:79 *140:19 0.000304757
33 *94:81 *95:79 0.0648215
34 *94:81 *118:31 0.00930587
35 *94:81 *131:25 1.47935e-05
36 *94:85 *581:5 0.003859
37 *94:85 *701:22 0.000400591
38 *94:85 *716:27 0.00508274
39 *94:85 *717:27 0.000634728
40 *94:85 *726:27 4.48154e-05
41 *94:85 *729:27 0.000581125
42 *94:85 *729:35 0.000404558
43 *75:11 *94:13 0.000129471
44 *78:13 *94:13 0.00118708
45 *82:13 *94:79 0.00173559
46 *86:11 *94:13 0.000107826
47 *86:13 *94:13 0.0576668
48 *87:13 *94:13 0.0576737
49 *87:51 *94:79 0.00642017
50 *91:11 *94:13 0.000121054
51 *91:13 *94:13 0.00168055
52 *91:47 *94:13 0.000294717
53 *91:47 *94:79 0.00123628
54 *91:47 *94:81 5.84448e-05
55 *91:49 *94:81 0.0233988
*RES
1 *739:io_oeb_o[33] *94:11 2.90477 
2 *94:11 *94:13 589.365 
3 *94:13 *94:79 42.9671 
4 *94:79 *94:81 96.4111 
5 *94:81 *94:83 0.5 
6 *94:83 *94:85 113.389 
7 *94:85 io_oeb[33] 40.0238 
*END

*D_NET *95 0.437573
*CONN
*P io_oeb[34] O
*I *739:io_oeb_o[34] O *D ntt_wb_bridge
*CAP
1 io_oeb[34] 0.000987939
2 *739:io_oeb_o[34] 0.00133866
3 *95:83 0.0202479
4 *95:81 0.0192599
5 *95:79 0.0212096
6 *95:77 0.0218312
7 *95:67 0.00233774
8 *95:49 0.00639554
9 *95:19 0.0158757
10 *95:17 0.012535
11 *95:17 *101:21 0.00062209
12 *95:17 *110:13 0.000141276
13 *95:17 *141:33 0.00055811
14 *95:19 io_oeb[37] 0.000823112
15 *95:19 *101:21 0.000272735
16 *95:19 *107:18 0.000637684
17 *95:19 *135:14 0.00729159
18 *95:19 *140:21 0.000691727
19 *95:49 *113:13 0.000553072
20 *95:49 *116:19 0.00138656
21 *95:49 *120:11 0
22 *95:49 *120:13 0.00202068
23 *95:49 *131:25 0.00252438
24 *95:49 *133:27 5.74526e-05
25 *95:49 *136:27 0.00245214
26 *95:49 *141:23 4.34363e-05
27 *95:49 *141:25 0.00843807
28 *95:49 *143:29 0.0061072
29 *95:49 *143:41 0.00330125
30 *95:67 *120:13 0.00137453
31 *95:79 *131:25 0.0333047
32 *95:79 *610:17 0
33 *95:83 *122:25 0.0181083
34 *95:83 *123:27 0
35 *95:83 *130:41 0.00140729
36 *95:83 *131:29 0.0441203
37 *71:20 *95:19 3.99991e-05
38 *72:23 *95:19 0.000116507
39 *73:18 *95:19 0.000270564
40 *79:13 *95:17 0.000110327
41 *79:13 *95:19 0.0175485
42 *82:13 *95:49 0.000243605
43 *82:13 *95:67 0.00137792
44 *82:13 *95:77 0.000219491
45 *86:13 *95:49 0.000196871
46 *86:13 *95:77 0.00020266
47 *87:13 *95:49 0.000167572
48 *87:51 *95:67 0.00184612
49 *87:51 *95:77 0.000149792
50 *87:53 *95:79 1.93372e-05
51 *88:27 *95:79 0.031953
52 *91:13 *95:49 0.000188663
53 *91:47 *95:49 0.0018116
54 *91:47 *95:67 0.00468528
55 *91:47 *95:77 0.00104082
56 *91:49 *95:79 0.000480395
57 *93:17 *95:19 5.18298e-05
58 *93:19 *95:19 0.0475462
59 *94:13 *95:49 0.000181489
60 *94:79 *95:67 0.00183289
61 *94:79 *95:77 0.00221335
62 *94:81 *95:79 0.0648215
*RES
1 *739:io_oeb_o[34] *95:17 13.0053 
2 *95:17 *95:19 74.2697 
3 *95:19 *95:49 35.6755 
4 *95:49 *95:67 48.1051 
5 *95:67 *95:77 5.99767 
6 *95:77 *95:79 133.614 
7 *95:79 *95:81 0.5 
8 *95:81 *95:83 80.4865 
9 *95:83 io_oeb[34] 2.73313 
*END

*D_NET *96 0.351499
*CONN
*P io_oeb[35] O
*I *739:io_oeb_o[35] O *D ntt_wb_bridge
*CAP
1 io_oeb[35] 0.0175986
2 *739:io_oeb_o[35] 0.000360064
3 *96:29 0.0391101
4 *96:23 0.0468434
5 *96:21 0.0254695
6 *96:15 0.000945863
7 *96:13 0.00116835
8 io_oeb[35] *605:9 0
9 io_oeb[35] *606:9 0.0051016
10 *96:13 *141:33 9.70834e-05
11 *96:15 *111:31 0.00669938
12 *96:15 *112:29 0.0066977
13 *96:15 *128:21 0.00158566
14 *96:23 *97:15 0.0393509
15 *96:23 *117:18 0.0683142
16 *96:23 *132:19 0.02591
17 *96:29 *586:5 0.0046616
18 *77:33 *96:13 0
19 *92:21 *96:23 0.0615851
*RES
1 *739:io_oeb_o[35] *96:13 6.5533 
2 *96:13 *96:15 60.48 
3 *96:15 *96:21 4.5175 
4 *96:21 *96:23 192.755 
5 *96:23 *96:29 49.2727 
6 *96:29 io_oeb[35] 50.9441 
*END

*D_NET *97 0.313929
*CONN
*P io_oeb[36] O
*I *739:io_oeb_o[36] O *D ntt_wb_bridge
*CAP
1 io_oeb[36] 0.0389021
2 *739:io_oeb_o[36] 0.000512631
3 *97:21 0.0544817
4 *97:15 0.0314621
5 *97:13 0.0163951
6 io_oeb[36] *544:9 0
7 io_oeb[36] *545:9 0.0383871
8 *97:13 *141:33 0.000219531
9 *97:15 *117:18 0.00336046
10 *97:15 *128:21 0.068255
11 *97:15 *130:31 0.0087151
12 *97:21 *129:19 0
13 *97:21 *134:21 0
14 *97:21 *304:25 0.00126792
15 *97:21 *336:23 0.000368223
16 *97:21 *337:41 0.00251634
17 *97:21 *338:39 0.000368223
18 *97:21 *339:39 0.000659651
19 *97:21 *345:35 0.000368223
20 *97:21 *347:37 0.000613871
21 *97:21 *349:39 0.000368223
22 *92:21 *97:15 0.00735639
23 *96:23 *97:15 0.0393509
*RES
1 *739:io_oeb_o[36] *97:13 2.24513 
2 *97:13 *97:15 123.913 
3 *97:15 *97:21 24.294 
4 *97:21 io_oeb[36] 131.352 
*END

*D_NET *98 0.358367
*CONN
*P io_oeb[37] O
*I *739:io_oeb_o[37] O *D ntt_wb_bridge
*CAP
1 io_oeb[37] 0.0597062
2 *739:io_oeb_o[37] 0.00118253
3 *98:12 0.0608887
4 io_oeb[37] *123:23 0
5 io_oeb[37] *124:23 0
6 io_oeb[37] *134:17 0.000776569
7 io_oeb[37] *135:14 0.0224375
8 io_oeb[37] *138:13 0
9 io_oeb[37] *339:43 0.000141635
10 io_oeb[37] *340:39 8.156e-05
11 io_oeb[37] *342:51 0.0355744
12 io_oeb[37] *343:35 0.00126027
13 io_oeb[37] *346:41 0.00952349
14 io_oeb[37] *347:41 0.00904179
15 io_oeb[37] *348:43 0.00118362
16 io_oeb[37] *349:43 0.00157304
17 io_oeb[37] *352:27 0.0320002
18 io_oeb[37] *353:27 0.0305472
19 *70:22 io_oeb[37] 0.00800793
20 *71:22 io_oeb[37] 0.00583556
21 *79:13 io_oeb[37] 0.00328182
22 *83:13 io_oeb[37] 0.0035587
23 *83:21 io_oeb[37] 0.000401549
24 *84:13 io_oeb[37] 0.0031529
25 *84:21 io_oeb[37] 0.0634043
26 *85:13 io_oeb[37] 0.00289288
27 *85:21 io_oeb[37] 0.00108913
28 *95:19 io_oeb[37] 0.000823112
*RES
1 *739:io_oeb_o[37] *98:12 3.46493 
2 *98:12 io_oeb[37] 257.092 
*END

*D_NET *99 0.368056
*CONN
*P io_oeb[3] O
*I *739:io_oeb_o[3] O *D ntt_wb_bridge
*CAP
1 io_oeb[3] 0.000902767
2 *739:io_oeb_o[3] 0.00684823
3 *99:31 0.0247969
4 *99:29 0.0238941
5 *99:27 0.0171684
6 *99:25 0.0178147
7 *99:19 0.00749448
8 *99:19 *101:17 5.69806e-05
9 *99:19 *101:21 0.0224681
10 *99:19 *108:19 0.00223235
11 *99:19 *110:13 0.0061326
12 *99:19 *141:25 8.83932e-05
13 *99:27 *100:23 0.0834076
14 *99:27 *103:13 0.0148638
15 *99:27 *113:13 0.0109645
16 *99:27 *114:13 0.00231804
17 *99:27 *141:33 0.0283029
18 *99:31 io_out[0] 0.00353431
19 *99:31 *101:31 0.000714362
20 *99:31 *111:35 0.0219993
21 *99:31 *143:47 0.0122997
22 *77:33 *99:27 0.00941752
23 *81:15 *99:19 0.000439585
24 *90:27 *99:31 0.0359631
25 *93:19 *99:19 0.0139336
*RES
1 *739:io_oeb_o[3] *99:19 49.9659 
2 *99:19 *99:25 2.33 
3 *99:25 *99:27 123.68 
4 *99:27 *99:29 0.5 
5 *99:29 *99:31 90.7364 
6 *99:31 io_oeb[3] 2.6166 
*END

*D_NET *100 0.349162
*CONN
*P io_oeb[4] O
*I *739:io_oeb_o[4] O *D ntt_wb_bridge
*CAP
1 io_oeb[4] 0.000691856
2 *739:io_oeb_o[4] 0.00155821
3 *100:31 0.0271003
4 *100:29 0.0265744
5 *100:23 0.0175132
6 *100:21 0.0189055
7 *100:21 la_data_out[56] 0.000600451
8 *100:21 *109:23 0.000754799
9 *100:21 *117:18 0.00139915
10 *100:21 *141:25 0.000104023
11 *100:21 *142:15 0.000823485
12 *100:23 *103:13 0.00390243
13 *100:23 *113:13 0.00213037
14 *100:23 *114:13 0.00423316
15 *100:23 *115:13 0.0075256
16 *100:23 *141:25 0.00281884
17 *100:23 *141:31 0.0029177
18 *100:23 *141:33 0.00150587
19 *100:29 *128:21 1.69185e-05
20 *100:29 *141:33 1.45731e-05
21 *100:31 user_irq[0] 0.000760324
22 *100:31 *101:31 0.0263626
23 *100:31 *128:25 0
24 io_oeb[0] *100:31 0.00196983
25 *68:19 *100:21 0.00364017
26 *68:27 *100:29 0
27 *76:15 *100:23 0.00477973
28 *80:21 *100:23 0.000719945
29 *90:21 *100:21 0.00116103
30 *90:23 *100:23 0.10527
31 *99:27 *100:23 0.0834076
*RES
1 *739:io_oeb_o[4] *100:21 15.7468 
2 *100:21 *100:23 156.076 
3 *100:23 *100:29 0.9826 
4 *100:29 *100:31 686.565 
5 *100:31 io_oeb[4] 2.1796 
*END

*D_NET *101 0.405798
*CONN
*P io_oeb[5] O
*I *739:io_oeb_o[5] O *D ntt_wb_bridge
*CAP
1 io_oeb[5] 0.00075268
2 *739:io_oeb_o[5] 0.00116992
3 *101:31 0.0189235
4 *101:29 0.0181708
5 *101:27 0.021073
6 *101:25 0.0218417
7 *101:21 0.00747849
8 *101:17 0.00787969
9 *101:17 *108:19 0.000912007
10 *101:17 *141:25 0.000273891
11 *101:21 *102:17 0.00102546
12 *101:21 *102:19 0.0314782
13 *101:21 *110:13 0.000971973
14 *101:27 *143:43 0.0276252
15 *101:27 *282:23 0.040205
16 *101:31 *102:31 0.00303952
17 *101:31 *105:27 0.0180029
18 *101:31 *128:25 0.0298684
19 *101:31 *141:37 0.0154441
20 io_oeb[0] *101:31 0.00195803
21 *68:19 *101:17 0.00108906
22 *68:19 *101:21 3.22423e-05
23 *68:25 *101:25 0.000776275
24 *68:27 *101:27 0.0711607
25 *77:15 *101:21 0.00245224
26 *78:29 *101:27 0.000527207
27 *79:13 *101:21 0
28 *81:15 *101:21 0.00328386
29 *90:27 *101:31 0.00640193
30 *93:17 *101:21 0.000159918
31 *93:19 *101:21 0.00132311
32 *95:17 *101:21 0.00062209
33 *95:19 *101:21 0.000272735
34 *99:19 *101:17 5.69806e-05
35 *99:19 *101:21 0.0224681
36 *99:31 *101:31 0.000714362
37 *100:31 *101:31 0.0263626
*RES
1 *739:io_oeb_o[5] *101:17 11.6324 
2 *101:17 *101:21 49.8316 
3 *101:21 *101:25 2.3468 
4 *101:25 *101:27 108.909 
5 *101:27 *101:29 0.5 
6 *101:29 *101:31 832.425 
7 *101:31 io_oeb[5] 2.3544 
*END

*D_NET *102 0.420914
*CONN
*P io_oeb[6] O
*I *739:io_oeb_o[6] O *D ntt_wb_bridge
*CAP
1 io_oeb[6] 0.000884811
2 *739:io_oeb_o[6] 0.00136576
3 *102:31 0.0233331
4 *102:29 0.0224483
5 *102:27 0.0279004
6 *102:25 0.0279004
7 *102:23 0.0435895
8 *102:21 0.0435895
9 *102:19 0.00755047
10 *102:17 0.00891623
11 *102:17 *141:25 0.000414873
12 *102:19 *104:19 0.00146828
13 *102:19 *105:15 0.00050739
14 *102:19 *110:13 0.000195558
15 *102:19 *353:27 0
16 *102:23 la_data_out[82] 0.00636285
17 *102:23 *739:mem_rdata_i[30] 0.00589906
18 *102:23 *365:23 0.0109386
19 *102:23 *371:27 0.0113788
20 *102:23 *381:29 0.0118021
21 *102:23 *699:11 0
22 *102:23 *733:19 0.0110804
23 *102:27 *352:21 0.00138514
24 *102:27 *353:21 9.70043e-06
25 *102:27 *358:25 0.000563938
26 *102:27 *663:45 0.000608406
27 *102:27 *673:45 0
28 *102:27 *674:15 0.0539256
29 *102:27 *679:61 0.000416612
30 *102:27 *685:75 0.00211251
31 *102:31 *105:27 0.00694262
32 *102:31 *111:35 0.0148986
33 *102:31 *141:37 0.00749837
34 *102:31 *143:47 0.00833829
35 *68:19 *102:17 0.00180672
36 *68:19 *102:19 0.0181604
37 *75:13 *102:19 0.000467748
38 *76:89 *102:27 0.000709755
39 *79:13 *102:19 0
40 *101:21 *102:17 0.00102546
41 *101:21 *102:19 0.0314782
42 *101:31 *102:31 0.00303952
*RES
1 *739:io_oeb_o[6] *102:17 12.7927 
2 *102:17 *102:19 52.0119 
3 *102:19 *102:21 0.5 
4 *102:21 *102:23 106.585 
5 *102:23 *102:25 0.5 
6 *102:25 *102:27 103.17 
7 *102:27 *102:29 0.5 
8 *102:29 *102:31 61.0204 
9 *102:31 io_oeb[6] 2.6166 
*END

*D_NET *103 0.360747
*CONN
*P io_oeb[7] O
*I *739:io_oeb_o[7] O *D ntt_wb_bridge
*CAP
1 io_oeb[7] 0.00100941
2 *739:io_oeb_o[7] 0.000398398
3 *103:21 0.00764891
4 *103:19 0.0066395
5 *103:17 0.0559623
6 *103:15 0.0559623
7 *103:13 0.0231358
8 *103:11 0.0235342
9 io_oeb[7] *111:35 0.000317112
10 *103:11 *141:25 0.000377675
11 *103:13 *111:31 0
12 *103:13 *112:29 0
13 *103:13 *113:13 0.0879635
14 *103:13 *114:13 0.0322969
15 *103:17 la_data_out[119] 0
16 *103:17 *114:145 0
17 *103:17 *679:39 0.021067
18 *69:21 *103:17 0.0247043
19 *76:91 *103:17 0
20 *80:21 *103:13 0.000260491
21 *82:13 *103:11 0.000132615
22 *86:13 *103:11 0.000132615
23 *87:13 *103:11 0.00014049
24 *91:13 *103:11 0.000144683
25 *94:13 *103:11 0.000152319
26 *99:27 *103:13 0.0148638
27 *100:23 *103:13 0.00390243
*RES
1 *739:io_oeb_o[7] *103:11 5.73517 
2 *103:11 *103:13 809.13 
3 *103:13 *103:15 2 
4 *103:15 *103:17 1180.5 
5 *103:17 *103:19 2 
6 *103:19 *103:21 113.61 
7 *103:21 io_oeb[7] 8.19323 
*END

*D_NET *104 0.49622
*CONN
*P io_oeb[8] O
*I *739:io_oeb_o[8] O *D ntt_wb_bridge
*CAP
1 io_oeb[8] 0.0121511
2 *739:io_oeb_o[8] 0.000635358
3 *104:23 0.0679014
4 *104:21 0.0557503
5 *104:19 0.0394148
6 *104:17 0.0400502
7 io_oeb[8] io_out[8] 3.92756e-05
8 io_oeb[8] *105:27 0.000992459
9 io_oeb[8] *111:35 0.00204987
10 io_oeb[8] *143:47 0.00114607
11 *104:17 *117:18 4.60198e-05
12 *104:17 *141:25 8.66566e-05
13 *104:19 *105:15 0.00154701
14 *104:19 *108:27 0.0115483
15 *104:19 *109:23 0.0181788
16 *104:19 *117:18 0.0147771
17 *104:19 *128:21 0
18 *104:19 *142:15 0.0198331
19 *104:23 *113:17 0.00376536
20 *104:23 *115:145 0.00190642
21 *104:23 *142:19 0.0270749
22 *104:23 *648:11 0.00341923
23 *104:23 *652:123 0.0084189
24 *104:23 *653:11 0.0052114
25 *104:23 *659:111 0.00305236
26 *104:23 *665:57 0
27 *104:23 *669:21 0.0270406
28 *104:23 *671:17 0.00543176
29 *104:23 *681:13 0.0422722
30 *104:23 *705:11 0.00415323
31 *104:23 *730:17 0
32 *104:23 *732:11 0.00971995
33 *104:23 *738:11 0
34 *68:19 *104:17 1.17533e-05
35 *68:19 *104:19 0.0313824
36 *74:13 *104:19 0.0125992
37 *75:13 *104:19 0.0111189
38 *77:33 *104:19 0.0072004
39 *78:129 *104:23 0.004825
40 *102:19 *104:19 0.00146828
*RES
1 *739:io_oeb_o[8] *104:17 8.16187 
2 *104:17 *104:19 134.168 
3 *104:19 *104:21 0.5 
4 *104:21 *104:23 226.052 
5 *104:23 io_oeb[8] 33.1958 
*END

*D_NET *105 0.392276
*CONN
*P io_oeb[9] O
*I *739:io_oeb_o[9] O *D ntt_wb_bridge
*CAP
1 io_oeb[9] 0.000772955
2 *739:io_oeb_o[9] 0.000693512
3 *105:27 0.030351
4 *105:25 0.0295781
5 *105:23 0.0355001
6 *105:21 0.0355001
7 *105:19 0.0334663
8 *105:17 0.0334663
9 *105:15 0.00751678
10 *105:13 0.00821029
11 *105:13 *141:25 0.000102286
12 *105:15 *108:27 0.00270657
13 *105:15 *110:13 0.00177946
14 *105:19 *373:21 0
15 *105:19 *379:27 0
16 *105:19 *531:21 0.00259639
17 *105:19 *668:19 0
18 *105:19 *675:31 0.000387021
19 *105:19 *677:29 0.00490569
20 *105:19 *699:11 0.00810629
21 *105:23 *699:15 0.0221085
22 *105:23 *715:61 0
23 *105:27 io_out[6] 0.000151747
24 *105:27 *111:35 0.00195106
25 *105:27 *141:37 0.0447134
26 *105:27 *143:47 0.0207351
27 io_oeb[8] *105:27 0.000992459
28 *68:19 *105:15 0.00479691
29 *74:13 *105:15 0.000680601
30 *75:13 *105:15 0.0260089
31 *77:15 *105:15 0.0043191
32 *81:15 *105:15 0.00317968
33 *101:31 *105:27 0.0180029
34 *102:19 *105:15 0.00050739
35 *102:31 *105:27 0.00694262
36 *104:19 *105:15 0.00154701
*RES
1 *739:io_oeb_o[9] *105:13 10.8959 
2 *105:13 *105:15 304.05 
3 *105:15 *105:17 2 
4 *105:17 *105:19 640.665 
5 *105:19 *105:21 2 
6 *105:21 *105:23 606.615 
7 *105:23 *105:25 2 
8 *105:25 *105:27 948.578 
9 *105:27 io_oeb[9] 2.41267 
*END

*D_NET *106 0.406288
*CONN
*P io_out[0] O
*I *739:io_out_o[0] O *D ntt_wb_bridge
*CAP
1 io_out[0] 0.00281346
2 *739:io_out_o[0] 0.00375554
3 *106:21 0.0262125
4 *106:19 0.0271545
5 *106:19 *108:17 4.4742e-05
6 *106:19 *122:13 0.00262127
7 *106:19 *123:15 0.000559926
8 *106:19 *124:15 0.000751332
9 *106:19 *125:21 0.00123712
10 *106:19 *126:23 0.000313763
11 *106:19 *127:15 0.00104339
12 *106:19 *128:19 0.00679738
13 *106:19 *129:15 0.00374541
14 *106:19 *141:23 0.00406803
15 *106:21 *112:29 0.0233611
16 *106:21 *115:13 0.00182067
17 *106:21 *128:21 0.141122
18 *106:21 *133:27 0.0184091
19 *106:21 *141:25 0
20 *106:21 *143:41 0.00283973
21 *80:23 *106:21 0.00466407
22 *81:15 *106:19 0.00480527
23 *87:51 *106:19 0.000382746
24 *89:13 *106:21 0.0133857
25 *90:23 *106:21 0.107603
26 *90:27 io_out[0] 4.6186e-05
27 *92:13 *106:21 0.00316601
28 *94:79 *106:19 2.96389e-05
29 *99:31 io_out[0] 0.00353431
*RES
1 *739:io_out_o[0] *106:19 30.0895 
2 *106:19 *106:21 209.215 
3 *106:21 io_out[0] 10.0757 
*END

*D_NET *107 0.551891
*CONN
*P io_out[10] O
*I *739:io_out_o[10] O *D ntt_wb_bridge
*CAP
1 io_out[10] 0.00160409
2 *739:io_out_o[10] 0.00107521
3 *107:22 0.0822347
4 *107:20 0.0806306
5 *107:18 0.0213086
6 *107:16 0.0223838
7 io_out[10] *111:35 0
8 *107:16 *135:14 0.000312357
9 *107:18 *135:14 0.00578279
10 *107:18 *140:21 0.13437
11 *107:18 *341:59 0.0187698
12 *107:18 *345:39 0.00256152
13 *107:18 *346:41 0.000599731
14 *107:18 *347:41 0.000446554
15 *107:18 *353:27 0.00029758
16 *107:22 *140:25 0.0817209
17 *71:22 *107:18 0.000461739
18 *72:25 *107:18 0.000661307
19 *73:20 *107:18 0.0857232
20 *79:13 *107:18 0.00854867
21 *85:13 *107:18 0.00159373
22 *93:19 *107:16 0.000166441
23 *95:19 *107:18 0.000637684
*RES
1 *739:io_out_o[10] *107:16 6.5677 
2 *107:16 *107:18 1236.93 
3 *107:18 *107:20 2 
4 *107:20 *107:22 1740.99 
5 *107:22 io_out[10] 17.658 
*END

*D_NET *108 0.525781
*CONN
*P io_out[11] O
*I *739:io_out_o[11] O *D ntt_wb_bridge
*CAP
1 io_out[11] 0.000876927
2 *739:io_out_o[11] 0.000917218
3 *108:35 0.00477849
4 *108:33 0.00390156
5 *108:31 0.106424
6 *108:29 0.106424
7 *108:27 0.0141681
8 *108:25 0.0142733
9 *108:19 0.00780957
10 *108:17 0.00862161
11 io_out[11] *111:35 1.79536e-05
12 *108:17 *119:13 0.000270366
13 *108:17 *123:15 0.000269344
14 *108:17 *124:15 0.000246878
15 *108:17 *125:13 0.000239898
16 *108:17 *127:15 0.00119478
17 *108:17 *131:23 0.000332361
18 *108:17 *141:23 0.000404981
19 *108:17 *143:29 9.88127e-05
20 *108:19 *109:21 0.0118628
21 *108:19 *117:18 0.00103221
22 *108:19 *122:13 0.00253764
23 *108:19 *123:15 0.00284183
24 *108:19 *124:15 0.0033309
25 *108:19 *127:15 0.00306303
26 *108:19 *129:15 0.00081962
27 *108:19 *132:19 3.22423e-05
28 *108:19 *133:25 0.00283273
29 *108:19 *136:25 0.0142778
30 *108:19 *141:23 0.00124936
31 *108:27 *109:23 0.0960129
32 *108:27 *110:13 0
33 *108:31 la_data_out[123] 0
34 *68:17 *108:19 3.30352e-05
35 *68:19 *108:19 0.00303404
36 *68:19 *108:27 0.00764277
37 *74:13 *108:27 0.0800423
38 *75:13 *108:27 0.000342915
39 *81:15 *108:19 0.0048585
40 *81:15 *108:27 0
41 *93:19 *108:19 0.0012197
42 *99:19 *108:19 0.00223235
43 *101:17 *108:19 0.000912007
44 *104:19 *108:27 0.0115483
45 *105:15 *108:27 0.00270657
46 *106:19 *108:17 4.4742e-05
*RES
1 *739:io_out_o[11] *108:17 11.3993 
2 *108:17 *108:19 49.5355 
3 *108:19 *108:25 4.0075 
4 *108:25 *108:27 869.505 
5 *108:27 *108:29 2 
6 *108:29 *108:31 1936.57 
7 *108:31 *108:33 2 
8 *108:33 *108:35 67.035 
9 *108:35 io_out[11] 4.87823 
*END

*D_NET *109 0.55235
*CONN
*P io_out[12] O
*I *739:io_out_o[12] O *D ntt_wb_bridge
*CAP
1 io_out[12] 0.000973976
2 *739:io_out_o[12] 0.00259122
3 *109:31 0.00427011
4 *109:29 0.00329613
5 *109:27 0.117197
6 *109:25 0.117197
7 *109:23 0.0192954
8 *109:21 0.0218866
9 io_out[12] *111:35 0.000270952
10 *109:21 *119:13 0.00206509
11 *109:21 *122:11 9.84109e-05
12 *109:21 *125:13 0.00251816
13 *109:21 *127:15 0.0118573
14 *109:21 *143:29 0.000274209
15 *109:23 *110:13 0
16 *109:23 *117:18 0.000904192
17 *109:23 *126:13 0.000699301
18 *109:23 *130:15 0.00632867
19 *109:23 *132:17 0.000545523
20 *109:23 *132:19 0.00139712
21 *109:23 *133:25 0.000260145
22 *109:23 *142:15 0.110613
23 *68:19 *109:23 0.000606879
24 *81:15 *109:23 0
25 *90:21 *109:23 0.000394787
26 *100:21 *109:23 0.000754799
27 *104:19 *109:23 0.0181788
28 *108:19 *109:21 0.0118628
29 *108:27 *109:23 0.0960129
*RES
1 *739:io_out_o[12] *109:21 31.0447 
2 *109:21 *109:23 1068.92 
3 *109:23 *109:25 2 
4 *109:25 *109:27 2132.93 
5 *109:27 *109:29 2 
6 *109:29 *109:31 56.685 
7 *109:31 io_out[12] 7.68323 
*END

*D_NET *110 0.443905
*CONN
*P io_out[13] O
*I *739:io_out_o[13] O *D ntt_wb_bridge
*CAP
1 io_out[13] 0.000943189
2 *739:io_out_o[13] 0.00107515
3 *110:21 0.00355915
4 *110:17 0.131008
5 *110:15 0.128392
6 *110:13 0.0560532
7 *110:11 0.0571284
8 io_out[13] *111:35 6.1908e-05
9 *110:11 *143:29 0.000231839
10 *110:13 *129:15 0.00043387
11 *110:13 *136:25 0.00477622
12 *110:13 *140:21 0
13 *110:13 *141:23 0.000242708
14 *75:13 *110:13 0
15 *77:15 *110:13 0.00451054
16 *81:15 *110:13 0.0462693
17 *95:17 *110:13 0.000141276
18 *99:19 *110:13 0.0061326
19 *101:21 *110:13 0.000971973
20 *102:19 *110:13 0.000195558
21 *105:15 *110:13 0.00177946
22 *108:27 *110:13 0
23 *109:23 *110:13 0
*RES
1 *739:io_out_o[13] *110:11 13.0052 
2 *110:11 *110:13 1172.42 
3 *110:13 *110:15 2 
4 *110:15 *110:17 2336.93 
5 *110:17 *110:21 48.335 
6 *110:21 io_out[13] 5.38823 
*END

*D_NET *111 0.640759
*CONN
*P io_out[14] O
*I *739:io_out_o[14] O *D ntt_wb_bridge
*CAP
1 io_out[14] 0.000833779
2 *739:io_out_o[14] 0.00131207
3 *111:35 0.107151
4 *111:33 0.106318
5 *111:31 0.0477623
6 *111:29 0.0490743
7 *111:29 *112:23 0.000351063
8 *111:29 *117:18 0.00085805
9 *111:29 *121:19 2.82846e-05
10 *111:29 *121:21 0.00195559
11 *111:29 *131:17 1.91597e-05
12 *111:29 *132:19 0.00085805
13 *111:29 *142:15 0.00180524
14 *111:29 *143:29 0.000305468
15 *111:31 *112:29 0.0352176
16 *111:31 *128:21 0.0510065
17 *111:31 *130:23 0
18 *111:31 *131:15 0
19 *111:31 *131:17 0
20 *111:35 io_out[8] 0.000244044
21 *111:35 *128:25 0.000114015
22 *111:35 *141:37 0.00010285
23 *111:35 *143:47 0.136755
24 io_oeb[11] *111:35 0.000340191
25 io_oeb[12] *111:35 0.000106229
26 io_oeb[13] *111:35 0.000317112
27 io_oeb[7] *111:35 0.000317112
28 io_oeb[8] *111:35 0.00204987
29 io_out[10] *111:35 0
30 io_out[11] *111:35 1.79536e-05
31 io_out[12] *111:35 0.000270952
32 io_out[13] *111:35 6.1908e-05
33 *88:17 *111:31 0.0496572
34 *96:15 *111:31 0.00669938
35 *99:31 *111:35 0.0219993
36 *102:31 *111:35 0.0148986
37 *103:13 *111:31 0
38 *105:27 *111:35 0.00195106
*RES
1 *739:io_out_o[14] *111:29 35.2589 
2 *111:29 *111:31 1187.25 
3 *111:31 *111:33 2 
4 *111:33 *111:35 2531.11 
5 *111:35 io_out[14] 2.58747 
*END

*D_NET *112 0.590275
*CONN
*P io_out[15] O
*I *739:io_out_o[15] O *D ntt_wb_bridge
*CAP
1 io_out[15] 0.000848608
2 *739:io_out_o[15] 0.00137326
3 *112:69 0.101295
4 *112:67 0.104664
5 *112:33 0.0392516
6 *112:31 0.0350337
7 *112:29 0.0271369
8 *112:27 0.0274224
9 *112:23 0.00165875
10 *112:23 *117:18 0.00169405
11 *112:23 *121:13 0.00340481
12 *112:23 *121:19 3.82018e-05
13 *112:23 *121:21 0.000385608
14 *112:23 *126:13 0.00344479
15 *112:23 *127:15 0.000817292
16 *112:23 *132:19 0.00169405
17 *112:23 *141:25 0.000109195
18 *112:23 *142:15 2.0514e-05
19 *112:29 *114:13 0
20 *112:33 la_data_out[117] 0
21 *112:33 *291:19 0
22 *112:33 *659:109 0.000206189
23 *112:33 *672:25 0.00128141
24 *112:33 *694:161 0.00105449
25 *112:33 *721:133 0
26 *112:67 *658:121 0.000494078
27 *112:67 *659:109 0.000454409
28 *112:67 *672:21 0.0020606
29 *112:67 *672:25 0.00134898
30 *112:67 *680:37 0.000364015
31 *112:67 *690:17 0.000252086
32 *112:67 *700:11 0.00110245
33 *112:69 *654:11 0.0448923
34 *112:69 *663:31 0.0203484
35 *112:69 *669:19 0.000215324
36 *112:69 *674:9 0.000215324
37 *112:69 *686:9 0.000215324
38 *112:69 *700:11 0.00197452
39 *76:15 *112:29 0.00300396
40 *77:147 *112:33 0
41 *88:17 *112:29 0.0463016
42 *89:13 *112:29 0.0476015
43 *92:13 *112:29 0.000967227
44 *96:15 *112:29 0.0066977
45 *103:13 *112:29 0
46 *106:21 *112:29 0.0233611
47 *111:29 *112:23 0.000351063
48 *111:31 *112:29 0.0352176
*RES
1 *739:io_out_o[15] *112:23 47.4064 
2 *112:23 *112:27 5.93 
3 *112:27 *112:29 1014.75 
4 *112:29 *112:31 2 
5 *112:31 *112:33 639.008 
6 *112:33 *112:67 17.8726 
7 *112:67 *112:69 316.507 
8 *112:69 io_out[15] 15.3996 
*END

*D_NET *113 0.822775
*CONN
*P io_out[16] O
*I *739:io_out_o[16] O *D ntt_wb_bridge
*CAP
1 io_out[16] 0.000681802
2 *739:io_out_o[16] 0.000324681
3 *113:21 0.00818409
4 *113:19 0.00750229
5 *113:17 0.0393729
6 *113:15 0.0393729
7 *113:13 0.0380582
8 *113:11 0.0383828
9 *113:11 *141:25 0.000118394
10 *113:13 *114:13 0.0143562
11 *113:13 *120:13 0.00575972
12 *113:13 *133:27 0.000873861
13 *113:13 *141:31 0.000709847
14 *113:13 *141:33 0.00091457
15 *113:13 *143:29 0.000245504
16 *113:17 *142:19 0
17 *113:17 *648:11 0.216104
18 *113:17 *653:11 3.48887e-05
19 *113:17 *659:111 0.0256448
20 *113:17 *705:11 0.00717635
21 *113:17 *732:11 4.18862e-05
22 *74:17 *113:17 0.231529
23 *74:21 *113:21 0.00801647
24 *75:21 *113:21 0.0282573
25 *77:33 *113:13 0.00286546
26 *78:13 *113:13 0.00258078
27 *80:21 *113:13 0.000132248
28 *90:23 *113:13 0.000157245
29 *91:13 *113:13 0
30 *95:49 *113:13 0.000553072
31 *99:27 *113:13 0.0109645
32 *100:23 *113:13 0.00213037
33 *103:13 *113:13 0.0879635
34 *104:23 *113:17 0.00376536
*RES
1 *739:io_out_o[16] *113:11 4.81897 
2 *113:11 *113:13 1066.84 
3 *113:13 *113:15 2 
4 *113:15 *113:17 2590.4 
5 *113:17 *113:19 2 
6 *113:19 *113:21 255.405 
7 *113:21 io_out[16] 14.165 
*END

*D_NET *114 0.740893
*CONN
*P io_out[17] O
*I *739:io_out_o[17] O *D ntt_wb_bridge
*CAP
1 io_out[17] 0.000826678
2 *739:io_out_o[17] 0.000483436
3 *114:191 0.00265634
4 *114:183 0.00355062
5 *114:179 0.00428156
6 *114:171 0.00479004
7 *114:161 0.0064192
8 *114:159 0.00418976
9 *114:157 0.0253735
10 *114:155 0.0253735
11 *114:153 0.00557986
12 *114:151 0.00578141
13 *114:145 0.0239498
14 *114:143 0.0264881
15 *114:137 0.00530478
16 *114:135 0.00374379
17 *114:125 0.00382781
18 *114:119 0.00478685
19 *114:111 0.00462172
20 *114:105 0.00606753
21 *114:103 0.0035837
22 *114:101 0.00297755
23 *114:99 0.00441601
24 *114:95 0.00276016
25 *114:91 0.0034134
26 *114:83 0.00409989
27 *114:79 0.00383988
28 *114:73 0.00433792
29 *114:65 0.0119379
30 *114:63 0.00943171
31 *114:61 0.00351362
32 *114:59 0.00575741
33 *114:51 0.0038824
34 *114:41 0.00565535
35 *114:39 0.00501213
36 *114:35 0.00307873
37 *114:21 0.00699764
38 *114:19 0.00491429
39 *114:17 0.00307119
40 *114:15 0.00307119
41 *114:13 0.00829212
42 *114:11 0.00877555
43 *114:11 *141:25 0.000198112
44 *114:13 *115:13 0.0597234
45 *114:13 *116:19 0.000304175
46 *114:13 *118:13 0.000544481
47 *114:13 *120:13 0.00461317
48 *114:13 *141:25 0.000281779
49 *114:13 *143:41 0.00430544
50 *114:17 *117:24 0.00142309
51 *114:17 *356:31 0
52 *114:17 *356:35 0
53 *114:17 *363:71 0.00762869
54 *114:35 la_data_out[88] 0.000946467
55 *114:35 *279:19 0
56 *114:35 *692:11 0.000191085
57 *114:51 *529:19 0
58 *114:59 la_data_out[92] 0
59 *114:59 *276:19 0
60 *114:73 la_data_out[98] 0
61 *114:83 la_data_out[100] 0
62 *114:101 *115:107 0
63 *114:135 la_data_out[115] 0
64 *114:135 *721:117 0.000194374
65 *114:137 la_data_out[116] 0
66 *114:137 *694:141 0.00134257
67 *114:143 *651:15 0.000625288
68 *114:145 *655:131 0.000198892
69 *114:145 *679:39 6.17319e-05
70 *114:145 *723:133 0.151447
71 *114:153 *694:167 0
72 *114:153 *721:143 0
73 *114:153 *723:151 0.000190169
74 *114:157 *685:27 0
75 *114:157 *714:145 0
76 *114:157 *715:93 0.00198209
77 *69:21 *114:145 0.0164643
78 *76:15 *114:13 0.000157655
79 *76:91 *114:145 0.152975
80 *76:151 *114:183 0
81 *78:47 *114:39 0.000258101
82 *78:57 *114:51 0
83 *78:107 *114:91 0
84 *80:21 *114:13 0.000284195
85 *90:23 *114:13 0.000431896
86 *99:27 *114:13 0.00231804
87 *100:23 *114:13 0.00423316
88 *103:13 *114:13 0.0322969
89 *103:17 *114:145 0
90 *112:29 *114:13 0
91 *113:13 *114:13 0.0143562
*RES
1 *739:io_out_o[17] *114:11 5.52657 
2 *114:11 *114:13 552.105 
3 *114:13 *114:15 2 
4 *114:15 *114:17 86.04 
5 *114:17 *114:19 2 
6 *114:19 *114:21 79.455 
7 *114:21 *114:35 49.1 
8 *114:35 *114:39 18.665 
9 *114:39 *114:41 72.27 
10 *114:41 *114:51 34.53 
11 *114:51 *114:59 43.09 
12 *114:59 *114:61 59.79 
13 *114:61 *114:63 2 
14 *114:63 *114:65 170.955 
15 *114:65 *114:73 48.04 
16 *114:73 *114:79 35.155 
17 *114:79 *114:83 38.57 
18 *114:83 *114:91 40.42 
19 *114:91 *114:95 25.22 
20 *114:95 *114:99 27.86 
21 *114:99 *114:101 51.855 
22 *114:101 *114:103 2 
23 *114:103 *114:105 62.325 
24 *114:105 *114:111 47.92 
25 *114:111 *114:119 41.185 
26 *114:119 *114:125 48.785 
27 *114:125 *114:135 26.79 
28 *114:135 *114:137 48.81 
29 *114:137 *114:143 48.61 
30 *114:143 *114:145 1710.65 
31 *114:145 *114:151 7.21 
32 *114:151 *114:153 100.83 
33 *114:153 *114:155 2 
34 *114:155 *114:157 434.805 
35 *114:157 *114:159 2 
36 *114:159 *114:161 75.075 
37 *114:161 *114:171 45.15 
38 *114:171 *114:179 48.34 
39 *114:179 *114:183 31.43 
40 *114:183 *114:191 35.56 
41 *114:191 io_out[17] 14.715 
*END

*D_NET *115 0.685853
*CONN
*P io_out[18] O
*I *739:io_out_o[18] O *D ntt_wb_bridge
*CAP
1 io_out[18] 0.00174905
2 *739:io_out_o[18] 0.000379502
3 *115:195 0.00391993
4 *115:181 0.00467998
5 *115:169 0.00579752
6 *115:167 0.00328841
7 *115:165 0.00406971
8 *115:163 0.00578821
9 *115:159 0.00426665
10 *115:155 0.00418884
11 *115:149 0.0331745
12 *115:147 0.0315339
13 *115:145 0.0431207
14 *115:143 0.0434386
15 *115:137 0.0172917
16 *115:135 0.0185696
17 *115:131 0.00347661
18 *115:125 0.00561347
19 *115:123 0.00459758
20 *115:117 0.00387337
21 *115:115 0.00457613
22 *115:111 0.00280219
23 *115:107 0.00321579
24 *115:97 0.00682305
25 *115:95 0.00546394
26 *115:89 0.0077376
27 *115:87 0.00875527
28 *115:83 0.00356827
29 *115:73 0.00553068
30 *115:71 0.00633848
31 *115:67 0.0036081
32 *115:63 0.00317911
33 *115:59 0.00393518
34 *115:49 0.0043384
35 *115:43 0.00535233
36 *115:39 0.00538901
37 *115:35 0.00445478
38 *115:31 0.00320961
39 *115:27 0.00382705
40 *115:21 0.00685548
41 *115:19 0.00555272
42 *115:13 0.00938685
43 *115:11 0.00874407
44 *115:11 *141:25 3.06609e-05
45 *115:11 *143:29 0.000180267
46 *115:13 *116:19 0.000116835
47 *115:13 *118:13 0.00141932
48 *115:13 *133:27 0.00189826
49 *115:21 *738:7 0.00167906
50 *115:27 la_data_out[86] 0
51 *115:43 la_data_out[91] 0
52 *115:49 *653:7 0.000533094
53 *115:87 *700:7 0.000866609
54 *115:89 la_data_out[105] 0
55 *115:111 *672:27 0.000774342
56 *115:131 la_data_out[117] 0
57 *115:131 *291:19 0.000186188
58 *115:137 la_data_out[119] 0
59 *115:137 *646:43 0.0403494
60 *115:137 *665:11 0.0531256
61 *115:137 *686:11 9.80351e-05
62 *115:137 *720:11 0
63 *115:145 *142:19 0.00721362
64 *115:145 *679:31 0.0119996
65 *115:145 *723:151 0.00140485
66 *115:149 *740:mem_wdata[3] 0.00170074
67 *115:149 *646:33 0.000152088
68 *115:149 *715:93 0.00133099
69 *115:149 *721:147 0.0128597
70 *75:17 *115:145 0
71 *76:15 *115:13 0.0222664
72 *76:19 *115:19 0
73 *76:91 *115:137 0
74 *76:95 *115:149 0.0149906
75 *77:193 *115:149 0.000819489
76 *78:29 *115:19 0.000326344
77 *78:47 *115:35 0
78 *78:113 *115:107 0
79 *78:129 *115:145 0.0497882
80 *78:151 *115:149 0.000614298
81 *78:189 io_out[18] 0.000694804
82 *80:23 *115:13 0.0215276
83 *90:23 *115:13 0.000467765
84 *100:23 *115:13 0.0075256
85 *104:23 *115:145 0.00190642
86 *106:21 *115:13 0.00182067
87 *114:13 *115:13 0.0597234
88 *114:101 *115:107 0
*RES
1 *739:io_out_o[18] *115:11 5.62957 
2 *115:11 *115:13 540.72 
3 *115:13 *115:19 22.975 
4 *115:19 *115:21 74.97 
5 *115:21 *115:27 45.67 
6 *115:27 *115:31 27.98 
7 *115:31 *115:35 32.96 
8 *115:35 *115:39 48.68 
9 *115:39 *115:43 48.77 
10 *115:43 *115:49 48.95 
11 *115:49 *115:59 34.395 
12 *115:59 *115:63 41.09 
13 *115:63 *115:67 17.66 
14 *115:67 *115:71 48.68 
15 *115:71 *115:73 64.875 
16 *115:73 *115:83 40.035 
17 *115:83 *115:87 30.74 
18 *115:87 *115:89 129.135 
19 *115:89 *115:95 14.455 
20 *115:95 *115:97 87.825 
21 *115:97 *115:107 39.885 
22 *115:107 *115:111 22.805 
23 *115:111 *115:115 30.41 
24 *115:115 *115:117 51.855 
25 *115:117 *115:123 19.66 
26 *115:123 *115:125 64.965 
27 *115:125 *115:131 38.02 
28 *115:131 *115:135 27.635 
29 *115:135 *115:137 675.345 
30 *115:137 *115:143 8.59 
31 *115:143 *115:145 1187.26 
32 *115:145 *115:147 0.5 
33 *115:147 *115:149 95.3623 
34 *115:149 *115:155 31.2925 
35 *115:155 *115:159 45.92 
36 *115:159 *115:163 33.215 
37 *115:163 *115:165 70.14 
38 *115:165 *115:167 2 
39 *115:167 *115:169 59.775 
40 *115:169 *115:181 49.995 
41 *115:181 *115:195 46.01 
42 *115:195 io_out[18] 32.45 
*END

*D_NET *116 0.674005
*CONN
*P io_out[19] O
*I *739:io_out_o[19] O *D ntt_wb_bridge
*CAP
1 io_out[19] 0.00296007
2 *739:io_out_o[19] 0.000905428
3 *116:167 0.00296007
4 *116:165 0.00367085
5 *116:163 0.00367085
6 *116:161 0.00470293
7 *116:159 0.0066541
8 *116:155 0.00344485
9 *116:149 0.0427221
10 *116:147 0.0412284
11 *116:145 0.00206421
12 *116:143 0.00226657
13 *116:137 0.0614802
14 *116:135 0.0635083
15 *116:131 0.00458771
16 *116:121 0.00538147
17 *116:119 0.00536318
18 *116:113 0.00536283
19 *116:111 0.0036375
20 *116:105 0.00247203
21 *116:97 0.00439014
22 *116:89 0.00859133
23 *116:87 0.0069951
24 *116:83 0.00243343
25 *116:79 0.00306079
26 *116:73 0.00530303
27 *116:71 0.00526962
28 *116:65 0.0053101
29 *116:63 0.00519611
30 *116:59 0.00262611
31 *116:51 0.00250584
32 *116:47 0.0026634
33 *116:39 0.00285399
34 *116:29 0.0198842
35 *116:27 0.0186141
36 *116:21 0.00307119
37 *116:19 0.00376092
38 *116:19 *118:13 0.00013348
39 *116:19 *120:13 0.000533057
40 *116:19 *133:27 0.00138392
41 *116:19 *136:27 5.56205e-06
42 *116:19 *141:25 3.81661e-05
43 *116:19 *143:29 0.000220209
44 *116:21 *118:13 0.0114723
45 *116:21 *120:13 0.0191895
46 *116:21 *131:25 0.00299133
47 *116:21 *136:27 0.00117337
48 *116:29 *351:39 0.00197884
49 *116:39 *578:13 0
50 *116:39 *610:11 0
51 *116:47 *540:23 0
52 *116:47 *548:13 0.00183003
53 *116:51 *600:5 0.00321797
54 *116:59 *599:5 0.000558525
55 *116:65 wbs_dat_o[28] 0.00502185
56 *116:71 *556:9 0.00106924
57 *116:73 wbs_dat_o[26] 0.00946161
58 *116:79 *577:9 0.000694772
59 *116:83 wbs_dat_o[24] 0.00197918
60 *116:87 io_out[35] 0.000267463
61 *116:89 wbs_dat_o[23] 0
62 *116:89 *591:5 0
63 *116:105 wbs_dat_o[21] 0.00187087
64 *116:111 *617:7 0.000493156
65 *116:113 wbs_dat_o[20] 0
66 *116:131 *540:185 0.000651132
67 *116:135 *691:23 0.00136892
68 *116:137 *740:mac_init 0.00304284
69 *116:137 *740:mem_wdata[14] 0.000423265
70 *116:137 *740:mem_wdata[7] 0.00193733
71 *116:137 *656:35 0.00812104
72 *116:137 *689:19 0
73 *116:137 *701:22 0.00162114
74 *116:137 *709:19 0
75 *116:137 *717:27 0
76 *116:137 *718:27 0.00480483
77 *116:137 *729:27 0
78 *116:137 *734:51 0
79 *116:137 *737:54 0.00316648
80 *116:145 *734:51 0.0133694
81 *116:149 *540:193 0.0389055
82 *80:179 *116:137 0.128133
83 *80:187 *116:137 0
84 *80:187 *116:145 0.0133708
85 *82:13 *116:29 0.000215469
86 *86:13 *116:29 0.000688605
87 *87:53 *116:29 0.00797915
88 *91:47 *116:27 0
89 *91:49 *116:29 0.00724161
90 *95:49 *116:19 0.00138656
91 *114:13 *116:19 0.000304175
92 *115:13 *116:19 0.000116835
*RES
1 *739:io_out_o[19] *116:19 10.3471 
2 *116:19 *116:21 173.64 
3 *116:21 *116:27 7.165 
4 *116:27 *116:29 330.96 
5 *116:29 *116:39 31.815 
6 *116:39 *116:47 35.305 
7 *116:47 *116:51 38.315 
8 *116:51 *116:59 28.03 
9 *116:59 *116:63 25.565 
10 *116:63 *116:65 98.28 
11 *116:65 *116:71 29.635 
12 *116:71 *116:73 106.185 
13 *116:73 *116:79 30.325 
14 *116:79 *116:83 40.865 
15 *116:83 *116:87 17.63 
16 *116:87 *116:89 108.735 
17 *116:89 *116:97 48.16 
18 *116:97 *116:105 48.355 
19 *116:105 *116:111 14.455 
20 *116:111 *116:113 54.42 
21 *116:113 *116:119 45.505 
22 *116:119 *116:121 54.675 
23 *116:121 *116:131 46.935 
24 *116:131 *116:135 39.02 
25 *116:135 *116:137 1648.17 
26 *116:137 *116:143 7.21 
27 *116:143 *116:145 149.535 
28 *116:145 *116:147 2 
29 *116:147 *116:149 732.195 
30 *116:149 *116:155 30.625 
31 *116:155 *116:159 35.57 
32 *116:159 *116:161 85.53 
33 *116:161 *116:163 2 
34 *116:163 *116:165 63.24 
35 *116:165 *116:167 2 
36 *116:167 io_out[19] 53.73 
*END

*D_NET *117 0.288292
*CONN
*P io_out[1] O
*I *739:io_out_o[1] O *D ntt_wb_bridge
*CAP
1 io_out[1] 0.0418206
2 *739:io_out_o[1] 0.000755794
3 *117:24 0.0503398
4 *117:18 0.0237635
5 *117:16 0.0160001
6 io_out[1] *707:9 0
7 io_out[1] *718:9 0
8 *117:18 *121:21 0.00293196
9 *117:18 *128:21 0.00115311
10 *117:18 *130:23 0.00383501
11 *117:18 *131:15 0.000657718
12 *117:18 *131:17 0.00351218
13 *117:18 *132:17 0.00243917
14 *117:18 *132:19 0.0161354
15 *117:18 *133:25 0.00117918
16 *117:18 *142:15 0.000980822
17 *68:17 *117:18 0.000125903
18 *68:19 *117:18 0.00117338
19 *77:33 *117:18 0.0072004
20 *79:23 *117:24 0.0176054
21 *90:21 *117:18 0.00287394
22 *96:23 *117:18 0.0683142
23 *97:15 *117:18 0.00336046
24 *100:21 *117:18 0.00139915
25 *104:17 *117:18 4.60198e-05
26 *104:19 *117:18 0.0147771
27 *108:19 *117:18 0.00103221
28 *109:23 *117:18 0.000904192
29 *111:29 *117:18 0.00085805
30 *112:23 *117:18 0.00169405
31 *114:17 *117:24 0.00142309
*RES
1 *739:io_out_o[1] *117:16 2.5732 
2 *117:16 *117:18 118.552 
3 *117:18 *117:24 33.5103 
4 *117:24 io_out[1] 108.628 
*END

*D_NET *118 0.657198
*CONN
*P io_out[20] O
*I *739:io_out_o[20] O *D ntt_wb_bridge
*CAP
1 io_out[20] 0.000680981
2 *739:io_out_o[20] 0.00055231
3 *118:249 0.0219771
4 *118:247 0.0220616
5 *118:239 0.004162
6 *118:223 0.0059742
7 *118:205 0.00570587
8 *118:203 0.00579575
9 *118:185 0.0043766
10 *118:169 0.0305137
11 *118:167 0.0292276
12 *118:161 0.020233
13 *118:159 0.020239
14 *118:153 0.00330491
15 *118:151 0.00555879
16 *118:147 0.00766877
17 *118:129 0.00779113
18 *118:127 0.0093822
19 *118:113 0.0120995
20 *118:111 0.00860276
21 *118:97 0.00604408
22 *118:95 0.00469371
23 *118:87 0.00484824
24 *118:79 0.0043081
25 *118:71 0.00705611
26 *118:57 0.0107067
27 *118:55 0.00663195
28 *118:47 0.00534646
29 *118:31 0.00772168
30 *118:13 0.00764849
31 *118:11 0.0040341
32 *118:11 *141:25 0.00025331
33 *118:13 *120:13 0.000833547
34 *118:13 *133:27 0.00502122
35 *118:47 *540:215 0
36 *118:47 *541:9 0.00146385
37 *118:47 *644:9 0.00335736
38 *118:47 *645:9 0
39 *118:55 *642:9 0
40 *118:55 *643:9 0.00029742
41 *118:71 la_data_out[7] 0.00137316
42 *118:71 *549:9 0.00313004
43 *118:71 *550:9 0
44 *118:71 *552:9 0.000936767
45 *118:71 *553:9 0
46 *118:79 la_data_out[5] 0.00154096
47 *118:79 *556:9 0
48 *118:79 *557:9 0.00147599
49 *118:87 la_data_out[4] 0.00166894
50 *118:87 *563:13 0.00108186
51 *118:87 *564:9 0.00107941
52 *118:95 la_data_out[1] 0.0017296
53 *118:95 *601:9 0.00113689
54 *118:97 *578:13 0.00358734
55 *118:111 *583:9 0.000789378
56 *118:111 *584:9 0
57 *118:111 *592:9 0.000801249
58 *118:111 *593:9 0
59 *118:111 *600:5 0.00368046
60 *118:113 wbs_dat_o[29] 0
61 *118:127 *609:7 0
62 *118:127 *615:7 0.00420745
63 *118:127 *616:7 0
64 *118:129 wbs_dat_o[22] 0
65 *118:129 *540:135 0.00121557
66 *118:147 *129:23 0.000516279
67 *118:147 *540:135 0.000874867
68 *118:151 *126:29 0.0066159
69 *118:153 *725:35 0.00224683
70 *118:161 *661:19 0.013455
71 *118:161 *662:15 0.0571366
72 *118:161 *677:11 0.019767
73 *118:161 *695:35 0.111611
74 *118:185 *120:23 0.000744496
75 *118:185 *675:13 0.000366517
76 *118:185 *704:35 0.00205749
77 *118:185 *734:51 0.00341156
78 *118:185 *734:65 0.000684685
79 *118:203 *662:13 0
80 *118:249 *119:29 0.00238986
81 *80:23 *118:13 0.0235054
82 *80:41 *118:31 0.000730453
83 *80:57 *118:47 0
84 *80:105 *118:97 0
85 *80:149 *118:129 0
86 *80:177 *118:151 0
87 *80:179 *118:169 0
88 *80:187 *118:185 6.01756e-05
89 *80:217 *118:203 0.000673812
90 *80:217 *118:205 0.000690404
91 *80:267 *118:249 0.0461049
92 *82:25 *118:153 0
93 *82:25 *118:169 0
94 *91:49 *118:31 0.00496968
95 *94:13 *118:11 0.000100611
96 *94:81 *118:31 0.00930587
97 *114:13 *118:13 0.000544481
98 *115:13 *118:13 0.00141932
99 *116:19 *118:13 0.00013348
100 *116:21 *118:13 0.0114723
*RES
1 *739:io_out_o[20] *118:11 6.17337 
2 *118:11 *118:13 212.625 
3 *118:13 *118:31 40.1884 
4 *118:31 *118:47 39.9945 
5 *118:47 *118:55 25.7245 
6 *118:55 *118:57 85.785 
7 *118:57 *118:71 36.3011 
8 *118:71 *118:79 20.6389 
9 *118:79 *118:87 42.305 
10 *118:87 *118:95 36.4927 
11 *118:95 *118:97 67.425 
12 *118:97 *118:111 49.6673 
13 *118:111 *118:113 98.535 
14 *118:113 *118:127 47.2305 
15 *118:127 *118:129 57.735 
16 *118:129 *118:147 48.3187 
17 *118:147 *118:151 10.6181 
18 *118:151 *118:153 58.755 
19 *118:153 *118:159 1.7372 
20 *118:159 *118:161 1248.07 
21 *118:161 *118:167 1.79547 
22 *118:167 *118:169 504.495 
23 *118:169 *118:185 49.6859 
24 *118:185 *118:203 22.3039 
25 *118:203 *118:205 59.775 
26 *118:205 *118:223 25.1845 
27 *118:223 *118:239 46.6259 
28 *118:239 *118:247 14.42 
29 *118:247 *118:249 84.5247 
30 *118:249 io_out[20] 12.7925 
*END

*D_NET *119 0.743456
*CONN
*P io_out[21] O
*I *739:io_out_o[21] O *D ntt_wb_bridge
*CAP
1 io_out[21] 0.000624798
2 *739:io_out_o[21] 0.000960551
3 *119:29 0.00889946
4 *119:27 0.00827466
5 *119:25 0.0691899
6 *119:23 0.0691899
7 *119:21 0.015449
8 *119:19 0.0156007
9 *119:13 0.00429579
10 *119:11 0.00510458
11 *119:11 *141:25 0.00014082
12 *119:13 *121:21 0
13 *119:13 *124:15 0.00101832
14 *119:13 *125:13 0.0194613
15 *119:13 *126:13 0.0137825
16 *119:13 *127:15 0.00247588
17 *119:21 *124:23 0.0605963
18 *119:21 *125:21 0.00269828
19 *119:21 *129:15 0.00660839
20 *119:25 wbs_dat_o[14] 0
21 *119:25 *740:mem_wdata[24] 0
22 *119:25 *540:189 0.160177
23 *119:25 *581:5 0
24 *119:25 *710:35 0.162624
25 *119:25 *717:35 0.00900528
26 *119:25 *736:27 0.0108642
27 io_oeb[22] *119:29 0.00224814
28 *80:267 *119:29 0.0252402
29 *81:21 *119:25 0.000108575
30 *81:23 *119:25 0
31 *81:29 *119:29 0.0318075
32 *93:19 *119:21 0.0322846
33 *108:17 *119:13 0.000270366
34 *109:21 *119:13 0.00206509
35 *118:249 *119:29 0.00238986
*RES
1 *739:io_out_o[21] *119:11 11.3308 
2 *119:11 *119:13 191.58 
3 *119:13 *119:19 4.5175 
4 *119:19 *119:21 100.373 
5 *119:21 *119:23 0.5 
6 *119:23 *119:25 2599.57 
7 *119:25 *119:27 0.5 
8 *119:27 *119:29 57.2559 
9 *119:29 io_out[21] 11.7725 
*END

*D_NET *120 0.575843
*CONN
*P io_out[22] O
*I *739:io_out_o[22] O *D ntt_wb_bridge
*CAP
1 io_out[22] 0.00863301
2 *739:io_out_o[22] 0.00030703
3 *120:23 0.0139639
4 *120:17 0.0609903
5 *120:15 0.0556594
6 *120:13 0.040782
7 *120:11 0.041089
8 *120:11 *141:25 9.38734e-05
9 *120:13 *131:25 0.00164998
10 *120:13 *133:27 0.00584973
11 *120:13 *143:29 0
12 *120:13 *143:41 0.000640701
13 *120:17 wbs_dat_o[13] 0.000128451
14 *120:17 *580:5 0
15 *120:17 *675:15 0.0945313
16 *120:23 *540:193 0.00166319
17 *120:23 *675:13 0
18 *120:23 *734:65 0.000203049
19 *120:23 *734:67 0
20 *80:23 *120:13 1.03423e-05
21 *80:217 *120:23 0.00261147
22 *80:265 io_out[22] 0.00104248
23 *82:13 *120:13 0
24 *82:25 *120:17 0.210925
25 *88:17 *120:13 0
26 *89:13 *120:13 0
27 *91:13 *120:13 0
28 *94:79 *120:13 0
29 *95:49 *120:11 0
30 *95:49 *120:13 0.00202068
31 *95:67 *120:13 0.00137453
32 *113:13 *120:13 0.00575972
33 *114:13 *120:13 0.00461317
34 *116:19 *120:13 0.000533057
35 *116:21 *120:13 0.0191895
36 *118:13 *120:13 0.000833547
37 *118:185 *120:23 0.000744496
*RES
1 *739:io_out_o[22] *120:11 5.01317 
2 *120:11 *120:13 808.095 
3 *120:13 *120:15 2 
4 *120:15 *120:17 2440.07 
5 *120:17 *120:23 19.1589 
6 *120:23 io_out[22] 162.742 
*END

*D_NET *121 0.469928
*CONN
*P io_out[23] O
*I *739:io_out_o[23] O *D ntt_wb_bridge
*CAP
1 io_out[23] 0.140371
2 *739:io_out_o[23] 0.000614116
3 *121:31 0.143863
4 *121:21 0.0454759
5 *121:19 0.0420343
6 *121:13 0.000917328
7 *121:11 0.00148131
8 io_out[23] wbs_dat_o[3] 0.0371583
9 *121:11 *141:25 3.69571e-05
10 *121:13 *126:13 0.0017729
11 *121:13 *132:19 0.0013858
12 *121:13 *142:15 0.0063707
13 *121:21 *122:13 0
14 *121:21 *122:23 0.000233669
15 *121:21 *123:15 0
16 *121:21 *124:15 0
17 *121:21 *126:13 0.000114253
18 *121:21 *130:23 0.00151547
19 *121:21 *131:17 0.00577918
20 *121:21 *132:19 0.00806343
21 *121:21 *142:15 0.00424057
22 *121:31 *122:23 0.00462745
23 *121:31 *547:5 0
24 *84:29 *121:31 0.000151725
25 *88:17 *121:21 0
26 *89:21 *121:31 0.0148625
27 *92:21 *121:31 0.0001131
28 *111:29 *121:19 2.82846e-05
29 *111:29 *121:21 0.00195559
30 *112:23 *121:13 0.00340481
31 *112:23 *121:19 3.82018e-05
32 *112:23 *121:21 0.000385608
33 *117:18 *121:21 0.00293196
34 *119:13 *121:21 0
*RES
1 *739:io_out_o[23] *121:11 10.239 
2 *121:11 *121:13 57.72 
3 *121:13 *121:19 4.87 
4 *121:19 *121:21 766.695 
5 *121:21 *121:31 26.8836 
6 *121:31 io_out[23] 2605.64 
*END

*D_NET *122 0.593719
*CONN
*P io_out[24] O
*I *739:io_out_o[24] O *D ntt_wb_bridge
*CAP
1 io_out[24] 0.00068756
2 *739:io_out_o[24] 0.00100436
3 *122:33 0.0919701
4 *122:31 0.0915947
5 *122:25 0.0501118
6 *122:23 0.056533
7 *122:13 0.030453
8 *122:11 0.024724
9 *122:11 *141:25 0.000253864
10 *122:13 *123:15 0.030827
11 *122:13 *123:23 0.0117845
12 *122:13 *124:23 0.000230443
13 *122:13 *125:21 0.000980202
14 *122:13 *141:23 0.000212147
15 *122:23 *123:23 0.00192015
16 *122:23 *130:31 0
17 *122:23 *132:19 0.0197421
18 *122:25 *129:27 0.0131169
19 *122:25 *130:41 0.00385219
20 *122:25 *131:29 0.00303834
21 *122:25 *542:11 0
22 *122:31 io_out[32] 0.000323032
23 *122:33 *123:27 0
24 *122:33 *126:33 0.0217957
25 *122:33 *130:43 0.0180532
26 *81:15 *122:13 0.089619
27 *87:13 *122:11 0.000104998
28 *89:21 *122:23 0.0017979
29 *91:13 *122:11 0.000106223
30 *92:21 *122:23 0.000541416
31 *94:13 *122:11 0.000113838
32 *95:83 *122:25 0.0181083
33 *106:19 *122:13 0.00262127
34 *108:19 *122:13 0.00253764
35 *109:21 *122:11 9.84109e-05
36 *121:21 *122:13 0
37 *121:21 *122:23 0.000233669
38 *121:31 *122:23 0.00462745
*RES
1 *739:io_out_o[24] *122:11 12.632 
2 *122:11 *122:13 817.755 
3 *122:13 *122:23 42.0768 
4 *122:23 *122:25 921.675 
5 *122:25 *122:31 1.8246 
6 *122:31 *122:33 264.295 
7 *122:33 io_out[24] 2.15047 
*END

*D_NET *123 0.650669
*CONN
*P io_out[25] O
*I *739:io_out_o[25] O *D ntt_wb_bridge
*CAP
1 io_out[25] 0.00117578
2 *739:io_out_o[25] 0.000734433
3 *123:27 0.107214
4 *123:25 0.106038
5 *123:23 0.0184526
6 *123:21 0.0184872
7 *123:15 0.00462579
8 *123:13 0.00532568
9 *123:13 *130:21 0
10 *123:13 *141:25 8.84005e-05
11 *123:15 *124:15 0.0304046
12 *123:15 *125:21 0.00123369
13 *123:15 *126:23 0.000119831
14 *123:15 *127:15 0.000109729
15 *123:15 *128:19 0.00144774
16 *123:23 *125:21 0.0674646
17 *123:23 *127:15 0.0704411
18 *123:23 *132:19 0.00611637
19 *123:27 *126:33 0
20 *123:27 *129:27 0
21 *123:27 *131:29 0
22 *123:27 *133:31 0
23 *123:27 *542:11 0.00921587
24 io_oeb[37] *123:23 0
25 *81:15 *123:15 0.000843861
26 *88:29 *123:27 0.152806
27 *89:25 *123:27 0.000121655
28 *95:83 *123:27 0
29 *106:19 *123:15 0.000559926
30 *108:17 *123:15 0.000269344
31 *108:19 *123:15 0.00284183
32 *121:21 *123:15 0
33 *122:13 *123:15 0.030827
34 *122:13 *123:23 0.0117845
35 *122:23 *123:23 0.00192015
36 *122:33 *123:27 0
*RES
1 *739:io_out_o[25] *123:13 11.3856 
2 *123:13 *123:15 292.32 
3 *123:15 *123:21 2.9875 
4 *123:21 *123:23 127.322 
5 *123:23 *123:25 0.5 
6 *123:25 *123:27 387.207 
7 *123:27 io_out[25] 3.3158 
*END

*D_NET *124 0.558542
*CONN
*P io_out[26] O
*I *739:io_out_o[26] O *D ntt_wb_bridge
*CAP
1 io_out[26] 0.0115728
2 *739:io_out_o[26] 0.000735565
3 *124:27 0.144616
4 *124:25 0.133044
5 *124:23 0.0134183
6 *124:21 0.0134771
7 *124:15 0.00513433
8 *124:13 0.00581109
9 *124:13 *141:25 0.000112713
10 *124:15 *125:13 0.0247218
11 *124:15 *126:23 0.000109836
12 *124:15 *127:15 0.000986349
13 *124:15 *128:19 0.00157949
14 *124:21 *341:55 7.6956e-05
15 *124:21 *350:31 0
16 *124:23 *125:21 0.0688038
17 *124:27 *125:25 0
18 *124:27 *577:5 0.0122397
19 io_oeb[37] *124:23 0
20 *81:15 *124:15 0.00041318
21 *81:15 *124:23 0.0238615
22 *83:21 *124:23 0.000538849
23 *93:19 *124:23 0.000709853
24 *106:19 *124:15 0.000751332
25 *108:17 *124:15 0.000246878
26 *108:19 *124:15 0.0033309
27 *119:13 *124:15 0.00101832
28 *119:21 *124:23 0.0605963
29 *121:21 *124:15 0
30 *122:13 *124:23 0.000230443
31 *123:15 *124:15 0.0304046
*RES
1 *739:io_out_o[26] *124:13 11.1661 
2 *124:13 *124:15 284.385 
3 *124:15 *124:21 3.4975 
4 *124:21 *124:23 102.209 
5 *124:23 *124:25 0.5 
6 *124:25 *124:27 354.304 
7 *124:27 io_out[26] 31.2838 
*END

*D_NET *125 0.505927
*CONN
*P io_out[27] O
*I *739:io_out_o[27] O *D ntt_wb_bridge
*CAP
1 io_out[27] 0.0120582
2 *739:io_out_o[27] 0.00072191
3 *125:25 0.132125
4 *125:23 0.120066
5 *125:21 0.0125509
6 *125:19 0.0126138
7 *125:13 0.00345314
8 *125:11 0.00411214
9 *125:11 *141:25 3.86957e-05
10 *125:13 *126:13 0.00374244
11 *125:13 *126:23 0.00123371
12 *125:13 *127:15 0.00175159
13 *125:21 *126:23 0.00681039
14 *125:21 *127:15 0.00109408
15 *125:21 *129:15 0.000192976
16 *125:25 *544:5 0.00151423
17 *81:15 *125:13 0.000350599
18 *81:15 *125:21 0.0021388
19 *106:19 *125:21 0.00123712
20 *108:17 *125:13 0.000239898
21 *109:21 *125:13 0.00251816
22 *119:13 *125:13 0.0194613
23 *119:21 *125:21 0.00269828
24 *122:13 *125:21 0.000980202
25 *123:15 *125:21 0.00123369
26 *123:23 *125:21 0.0674646
27 *124:15 *125:13 0.0247218
28 *124:23 *125:21 0.0688038
29 *124:27 *125:25 0
*RES
1 *739:io_out_o[27] *125:11 11.2742 
2 *125:11 *125:13 232.98 
3 *125:13 *125:19 3.2425 
4 *125:19 *125:21 113.279 
5 *125:21 *125:23 0.5 
6 *125:23 *125:25 321.229 
7 *125:25 io_out[27] 30.4681 
*END

*D_NET *126 0.534173
*CONN
*P io_out[28] O
*I *739:io_out_o[28] O *D ntt_wb_bridge
*CAP
1 io_out[28] 0.00082919
2 *739:io_out_o[28] 0.000795669
3 *126:33 0.0363976
4 *126:31 0.0355684
5 *126:29 0.044434
6 *126:27 0.044434
7 *126:25 0.0504429
8 *126:23 0.0524967
9 *126:13 0.00552398
10 *126:11 0.00426586
11 *126:11 *141:25 0.000320764
12 *126:13 *127:15 0.00433489
13 *126:13 *130:15 0.00286165
14 *126:13 *142:15 0.00388515
15 *126:23 *127:15 0.0126602
16 *126:23 *128:19 0.00532392
17 *126:23 *141:23 5.75488e-05
18 *126:25 *134:21 0
19 *126:25 *272:25 0
20 *126:25 *283:17 0.00408749
21 *126:25 *283:25 0.0356852
22 *126:25 *306:17 0.00116224
23 *126:25 *317:19 0.000102302
24 *126:25 *318:19 0.000109931
25 *126:25 *326:19 0.0115014
26 *126:25 *329:17 0.00115011
27 *126:25 *335:23 0.000368223
28 *126:25 *341:55 0.00741891
29 *126:25 *388:25 0.00146405
30 *126:25 *399:25 0.00013922
31 *126:29 *129:23 0
32 *126:29 *366:29 0.0257152
33 *126:29 *399:29 0
34 *126:33 *129:27 0.0209063
35 *126:33 *130:43 0.0280404
36 *126:33 *131:29 0.0305512
37 *81:15 *126:13 0
38 *82:13 *126:11 0.000109487
39 *86:13 *126:11 0.000109487
40 *87:13 *126:11 0.000117198
41 *91:13 *126:11 0.00011945
42 *94:13 *126:11 0.000127066
43 *106:19 *126:23 0.000313763
44 *109:23 *126:13 0.000699301
45 *112:23 *126:13 0.00344479
46 *118:151 *126:29 0.0066159
47 *119:13 *126:13 0.0137825
48 *121:13 *126:13 0.0017729
49 *121:21 *126:13 0.000114253
50 *122:33 *126:33 0.0217957
51 *123:15 *126:23 0.000119831
52 *123:27 *126:33 0
53 *124:15 *126:23 0.000109836
54 *125:13 *126:13 0.00374244
55 *125:13 *126:23 0.00123371
56 *125:21 *126:23 0.00681039
*RES
1 *739:io_out_o[28] *126:11 11.4406 
2 *126:11 *126:13 186.75 
3 *126:13 *126:23 22.5715 
4 *126:23 *126:25 100.383 
5 *126:25 *126:27 0.5 
6 *126:27 *126:29 131.138 
7 *126:29 *126:31 0.5 
8 *126:31 *126:33 187.723 
9 *126:33 io_out[28] 2.50007 
*END

*D_NET *127 0.475498
*CONN
*P io_out[29] O
*I *739:io_out_o[29] O *D ntt_wb_bridge
*CAP
1 io_out[29] 0.0103318
2 *739:io_out_o[29] 0.000961549
3 *127:19 0.104471
4 *127:17 0.094139
5 *127:15 0.0174196
6 *127:13 0.0183811
7 *127:13 *141:25 0.0004253
8 *127:15 *128:19 0.000840379
9 *127:15 *130:15 0.000866535
10 *127:15 *132:19 0.107453
11 *127:15 *142:15 0.0034415
12 *127:19 *573:5 0.00493823
13 *106:19 *127:15 0.00104339
14 *108:17 *127:15 0.00119478
15 *108:19 *127:15 0.00306303
16 *109:21 *127:15 0.0118573
17 *112:23 *127:15 0.000817292
18 *119:13 *127:15 0.00247588
19 *123:15 *127:15 0.000109729
20 *123:23 *127:15 0.0704411
21 *124:15 *127:15 0.000986349
22 *125:13 *127:15 0.00175159
23 *125:21 *127:15 0.00109408
24 *126:13 *127:15 0.00433489
25 *126:23 *127:15 0.0126602
*RES
1 *739:io_out_o[29] *127:13 9.4846 
2 *127:13 *127:15 159.66 
3 *127:15 *127:17 0.5 
4 *127:17 *127:19 254.993 
5 *127:19 io_out[29] 26.0398 
*END

*D_NET *128 0.453665
*CONN
*P io_out[2] O
*I *739:io_out_o[2] O *D ntt_wb_bridge
*CAP
1 io_out[2] 0.000799938
2 *739:io_out_o[2] 0.00221832
3 *128:25 0.00566268
4 *128:23 0.00486274
5 *128:21 0.0378532
6 *128:19 0.0400715
7 *128:21 *130:31 3.99991e-05
8 *128:21 *133:27 0.00146389
9 *128:25 user_irq[0] 0
10 *128:25 *141:37 0.0300477
11 *87:51 *128:19 1.82074e-05
12 *88:17 *128:21 0.0136807
13 *90:23 *128:21 9.40268e-05
14 *90:27 *128:25 0.00769172
15 *94:79 *128:19 5.03348e-05
16 *96:15 *128:21 0.00158566
17 *97:15 *128:21 0.068255
18 *100:29 *128:21 1.69185e-05
19 *100:31 *128:25 0
20 *101:31 *128:25 0.0298684
21 *104:19 *128:21 0
22 *106:19 *128:19 0.00679738
23 *106:21 *128:21 0.141122
24 *111:31 *128:21 0.0510065
25 *111:35 *128:25 0.000114015
26 *117:18 *128:21 0.00115311
27 *123:15 *128:19 0.00144774
28 *124:15 *128:19 0.00157949
29 *126:23 *128:19 0.00532392
30 *127:15 *128:19 0.000840379
*RES
1 *739:io_out_o[2] *128:19 22.8543 
2 *128:19 *128:21 213.498 
3 *128:21 *128:23 0.5 
4 *128:23 *128:25 339.765 
5 *128:25 io_out[2] 2.41267 
*END

*D_NET *129 0.424562
*CONN
*P io_out[30] O
*I *739:io_out_o[30] O *D ntt_wb_bridge
*CAP
1 io_out[30] 0.00093027
2 *739:io_out_o[30] 0.00100546
3 *129:27 0.0315463
4 *129:25 0.030616
5 *129:23 0.0440808
6 *129:21 0.0440808
7 *129:19 0.0389243
8 *129:17 0.0389243
9 *129:15 0.00747573
10 *129:13 0.00848119
11 *129:13 *141:25 0.000289846
12 *129:15 *136:25 0.0134986
13 *129:15 *141:23 0.00738026
14 *129:19 *307:25 0.0227936
15 *129:23 *399:29 0.0202408
16 *129:27 *131:29 0.030995
17 *93:19 *129:15 0.0369587
18 *97:21 *129:19 0
19 *106:19 *129:15 0.00374541
20 *108:19 *129:15 0.00081962
21 *110:13 *129:15 0.00043387
22 *118:147 *129:23 0.000516279
23 *119:21 *129:15 0.00660839
24 *122:25 *129:27 0.0131169
25 *123:27 *129:27 0
26 *125:21 *129:15 0.000192976
27 *126:29 *129:23 0
28 *126:33 *129:27 0.0209063
*RES
1 *739:io_out_o[30] *129:13 11.837 
2 *129:13 *129:15 56.5275 
3 *129:15 *129:17 0.5 
4 *129:17 *129:19 99.8665 
5 *129:19 *129:21 0.5 
6 *129:21 *129:23 128.225 
7 *129:23 *129:25 0.5 
8 *129:25 *129:27 122.606 
9 *129:27 io_out[30] 2.73313 
*END

*D_NET *130 0.464602
*CONN
*P io_out[31] O
*I *739:io_out_o[31] O *D ntt_wb_bridge
*CAP
1 io_out[31] 0.000778588
2 *739:io_out_o[31] 0.000655406
3 *130:43 0.0446927
4 *130:41 0.0457514
5 *130:31 0.0189335
6 *130:29 0.017251
7 *130:23 0.00556038
8 *130:21 0.00552921
9 *130:15 0.001627
10 *130:13 0.00215883
11 *130:13 *141:25 0.000114449
12 *130:15 *133:25 0.000516422
13 *130:23 *131:17 0.0137735
14 *130:31 *133:27 0.102049
15 *130:41 *541:9 0
16 *130:43 *131:29 0.00220574
17 *130:43 *133:31 0.0260574
18 *81:15 *130:15 0
19 *88:17 *130:23 0
20 *88:17 *130:31 0.0133816
21 *89:13 *130:31 0.00183298
22 *89:21 *130:31 0.086115
23 *92:21 *130:31 0.000102037
24 *95:83 *130:41 0.00140729
25 *97:15 *130:31 0.0087151
26 *109:23 *130:15 0.00632867
27 *111:31 *130:23 0
28 *117:18 *130:23 0.00383501
29 *121:21 *130:23 0.00151547
30 *122:23 *130:31 0
31 *122:25 *130:41 0.00385219
32 *122:33 *130:43 0.0180532
33 *123:13 *130:21 0
34 *126:13 *130:15 0.00286165
35 *126:33 *130:43 0.0280404
36 *127:15 *130:15 0.000866535
37 *128:21 *130:31 3.99991e-05
*RES
1 *739:io_out_o[31] *130:13 10.1486 
2 *130:13 *130:15 57.375 
3 *130:15 *130:21 5.635 
4 *130:21 *130:23 147.765 
5 *130:23 *130:29 4.7725 
6 *130:29 *130:31 151.764 
7 *130:31 *130:41 45.6048 
8 *130:41 *130:43 180.918 
9 *130:43 io_out[31] 2.267 
*END

*D_NET *131 0.467893
*CONN
*P io_out[32] O
*I *739:io_out_o[32] O *D ntt_wb_bridge
*CAP
1 io_out[32] 0.000834266
2 *739:io_out_o[32] 0.000571627
3 *131:29 0.0201305
4 *131:27 0.0192962
5 *131:25 0.0188913
6 *131:23 0.0190997
7 *131:17 0.00333953
8 *131:15 0.00465708
9 *131:11 0.00209757
10 *131:11 *141:25 4.89041e-05
11 *131:15 *132:17 0.000349366
12 *131:15 *142:15 0.0045503
13 *131:17 *142:15 0.0044827
14 *131:25 *136:27 0.104827
15 *131:29 *133:31 0.0488031
16 *88:27 *131:25 0.0319599
17 *91:47 *131:25 0.00749113
18 *94:79 *131:25 0.000669941
19 *94:81 *131:25 1.47935e-05
20 *95:49 *131:25 0.00252438
21 *95:79 *131:25 0.0333047
22 *95:83 *131:29 0.0441203
23 *108:17 *131:23 0.000332361
24 *111:29 *131:17 1.91597e-05
25 *111:31 *131:15 0
26 *111:31 *131:17 0
27 *116:21 *131:25 0.00299133
28 *117:18 *131:15 0.000657718
29 *117:18 *131:17 0.00351218
30 *120:13 *131:25 0.00164998
31 *121:21 *131:17 0.00577918
32 *122:25 *131:29 0.00303834
33 *122:31 io_out[32] 0.000323032
34 *123:27 *131:29 0
35 *126:33 *131:29 0.0305512
36 *129:27 *131:29 0.030995
37 *130:23 *131:17 0.0137735
38 *130:43 *131:29 0.00220574
*RES
1 *739:io_out_o[32] *131:11 9.7467 
2 *131:11 *131:15 41.775 
3 *131:15 *131:17 150.18 
4 *131:17 *131:23 6.5575 
5 *131:23 *131:25 155.93 
6 *131:25 *131:27 0.5 
7 *131:27 *131:29 154.992 
8 *131:29 io_out[32] 2.6166 
*END

*D_NET *132 0.356582
*CONN
*P io_out[33] O
*I *739:io_out_o[33] O *D ntt_wb_bridge
*CAP
1 io_out[33] 0.00414436
2 *739:io_out_o[33] 0.00125433
3 *132:23 0.0499856
4 *132:21 0.0458412
5 *132:19 0.0263022
6 *132:17 0.0275565
7 *132:17 *133:25 0.00142215
8 *132:17 *141:25 0.000482608
9 *132:17 *142:15 0.000500021
10 *132:19 *133:25 0.00169576
11 *132:19 *142:15 0.00106936
12 *132:23 *641:5 0.00162715
13 *82:13 *132:17 0.000100591
14 *92:21 *132:19 0.00247888
15 *96:23 *132:19 0.02591
16 *108:19 *132:19 3.22423e-05
17 *109:23 *132:17 0.000545523
18 *109:23 *132:19 0.00139712
19 *111:29 *132:19 0.00085805
20 *112:23 *132:19 0.00169405
21 *117:18 *132:17 0.00243917
22 *117:18 *132:19 0.0161354
23 *121:13 *132:19 0.0013858
24 *121:21 *132:19 0.00806343
25 *122:23 *132:19 0.0197421
26 *123:23 *132:19 0.00611637
27 *127:15 *132:19 0.107453
28 *131:15 *132:17 0.000349366
*RES
1 *739:io_out_o[33] *132:17 12.2355 
2 *132:17 *132:19 177.984 
3 *132:19 *132:21 0.5 
4 *132:21 *132:23 122.778 
5 *132:23 io_out[33] 10.3078 
*END

*D_NET *133 0.424908
*CONN
*P io_out[34] O
*I *739:io_out_o[34] O *D ntt_wb_bridge
*CAP
1 io_out[34] 0.00082919
2 *739:io_out_o[34] 0.00212933
3 *133:31 0.012138
4 *133:29 0.0113088
5 *133:27 0.0226379
6 *133:25 0.0247672
7 *133:25 *141:25 0.000347153
8 *133:25 *142:15 0.000238446
9 *133:27 *136:27 0.110566
10 *133:27 *143:41 0.00349516
11 *133:31 io_out[37] 0.00345089
12 *80:23 *133:27 0.00558953
13 *89:13 *133:27 0.00157024
14 *92:13 *133:27 0.00606705
15 *95:49 *133:27 5.74526e-05
16 *106:21 *133:27 0.0184091
17 *108:19 *133:25 0.00283273
18 *109:23 *133:25 0.000260145
19 *113:13 *133:27 0.000873861
20 *115:13 *133:27 0.00189826
21 *116:19 *133:27 0.00138392
22 *117:18 *133:25 0.00117918
23 *118:13 *133:27 0.00502122
24 *120:13 *133:27 0.00584973
25 *123:27 *133:31 0
26 *128:21 *133:27 0.00146389
27 *130:15 *133:25 0.000516422
28 *130:31 *133:27 0.102049
29 *130:43 *133:31 0.0260574
30 *131:29 *133:31 0.0488031
31 *132:17 *133:25 0.00142215
32 *132:19 *133:25 0.00169576
*RES
1 *739:io_out_o[34] *133:25 18.1704 
2 *133:25 *133:27 183.345 
3 *133:27 *133:29 0.5 
4 *133:29 *133:31 89.0999 
5 *133:31 io_out[34] 2.50007 
*END

*D_NET *134 0.313322
*CONN
*P io_out[35] O
*I *739:io_out_o[35] O *D ntt_wb_bridge
*CAP
1 io_out[35] 0.0419406
2 *739:io_out_o[35] 0.00151952
3 *134:23 0.0419406
4 *134:21 0.041566
5 *134:19 0.041566
6 *134:17 0.00957771
7 *134:15 0.0110972
8 io_out[35] *584:9 0.0560764
9 io_out[35] *585:9 0
10 *134:15 *141:25 6.72267e-05
11 *134:17 *137:13 0.000337667
12 *134:17 *138:13 0.0188755
13 *134:17 *339:43 0.0331755
14 *134:17 *340:39 0.000868768
15 *134:17 *343:35 0.0019564
16 *134:17 *349:43 0.000813111
17 *134:21 la_data_out[23] 0.000368223
18 *134:21 *283:25 0
19 *134:21 *303:17 0.000739607
20 *134:21 *331:17 0.000769582
21 *134:21 *334:23 0.000739607
22 *134:21 *340:35 0.00646203
23 *134:21 *343:31 0.000368223
24 *134:21 *346:37 0.000716173
25 *134:21 *348:39 0.000368223
26 *134:21 *350:31 0.000368223
27 io_oeb[37] *134:17 0.000776569
28 *97:21 *134:21 0
29 *116:87 io_out[35] 0.000267463
30 *126:25 *134:21 0
*RES
1 *739:io_out_o[35] *134:15 4.16793 
2 *134:15 *134:17 62.8495 
3 *134:17 *134:19 0.5 
4 *134:19 *134:21 58.178 
5 *134:21 *134:23 0.5 
6 *134:23 io_out[35] 132.284 
*END

*D_NET *135 0.261801
*CONN
*P io_out[36] O
*I *739:io_out_o[36] O *D ntt_wb_bridge
*CAP
1 io_out[36] 0.041829
2 *739:io_out_o[36] 0.00109558
3 *135:20 0.0524907
4 *135:14 0.0224694
5 *135:12 0.0129032
6 io_out[36] *555:9 0.00950547
7 io_out[36] *556:9 0.00966949
8 *135:14 *140:19 0.000414154
9 *135:14 *140:21 0.00555904
10 *135:14 *341:59 0.00743628
11 *135:14 *345:39 0.00917317
12 *135:20 la_data_out[24] 0.004073
13 *135:20 *294:29 0.0176613
14 *135:20 *320:31 0.00352707
15 *135:20 *323:23 0.00379011
16 *135:20 *327:35 0.00253875
17 *135:20 *328:23 0.000633958
18 io_oeb[37] *135:14 0.0224375
19 *80:41 *135:20 0.000151632
20 *80:73 io_out[36] 0.010639
21 *84:21 *135:14 0.000184606
22 *93:19 *135:14 0.0102319
23 *95:19 *135:14 0.00729159
24 *107:16 *135:14 0.000312357
25 *107:18 *135:14 0.00578279
*RES
1 *739:io_out_o[36] *135:12 3.27747 
2 *135:12 *135:14 62.4999 
3 *135:14 *135:20 33.8548 
4 *135:20 io_out[36] 134.149 
*END

*D_NET *136 0.311465
*CONN
*P io_out[37] O
*I *739:io_out_o[37] O *D ntt_wb_bridge
*CAP
1 io_out[37] 0.00232534
2 *739:io_out_o[37] 0.00628124
3 *136:27 0.0199629
4 *136:25 0.0239188
5 io_out[37] *540:9 0
6 io_out[37] *541:9 0.000243111
7 *136:25 *141:25 0.000539915
8 *82:13 *136:25 0.000118628
9 *86:13 *136:25 0.000109416
10 *91:13 *136:25 0.000101753
11 *93:19 *136:25 0.0027302
12 *94:13 *136:25 0.000106508
13 *95:49 *136:27 0.00245214
14 *108:19 *136:25 0.0142778
15 *110:13 *136:25 0.00477622
16 *116:19 *136:27 5.56205e-06
17 *116:21 *136:27 0.00117337
18 *129:15 *136:25 0.0134986
19 *131:25 *136:27 0.104827
20 *133:27 *136:27 0.110566
21 *133:31 io_out[37] 0.00345089
*RES
1 *739:io_out_o[37] *136:25 44.7111 
2 *136:25 *136:27 164.467 
3 *136:27 io_out[37] 9.2954 
*END

*D_NET *137 0.318989
*CONN
*P io_out[3] O
*I *739:io_out_o[3] O *D ntt_wb_bridge
*CAP
1 io_out[3] 0.0101114
2 *739:io_out_o[3] 0.00174854
3 *137:17 0.0403574
4 *137:15 0.030246
5 *137:13 0.0432258
6 *137:11 0.0449743
7 *137:13 *138:13 0.000611174
8 *137:13 *139:17 0.131847
9 *137:13 *279:25 0.0127494
10 *137:13 *334:29 0
11 *137:13 *362:25 0
12 *137:13 *371:37 0
13 *137:17 *654:11 0
14 *137:17 *700:11 0.00271113
15 *87:51 *137:11 2.73991e-05
16 *94:79 *137:11 4.21127e-05
17 *134:17 *137:13 0.000337667
*RES
1 *739:io_out_o[3] *137:11 4.28953 
2 *137:11 *137:13 198.145 
3 *137:13 *137:15 0.5 
4 *137:15 *137:17 84.9655 
5 *137:17 io_out[3] 26.2729 
*END

*D_NET *138 0.397558
*CONN
*P io_out[4] O
*I *739:io_out_o[4] O *D ntt_wb_bridge
*CAP
1 io_out[4] 0.00174831
2 *739:io_out_o[4] 0.00147425
3 *138:17 0.0278763
4 *138:15 0.026128
5 *138:13 0.0302946
6 *138:11 0.0317689
7 *138:13 *139:17 0.146534
8 *138:13 *352:27 0
9 *138:17 *139:21 0.0602809
10 io_oeb[37] *138:13 0
11 *69:17 *138:13 0.0519224
12 *87:51 *138:11 3.77479e-05
13 *94:79 *138:11 5.56205e-06
14 *134:17 *138:13 0.0188755
15 *137:13 *138:13 0.000611174
*RES
1 *739:io_out_o[4] *138:11 4.0818 
2 *138:11 *138:13 218.305 
3 *138:13 *138:15 0.5 
4 *138:15 *138:17 110.03 
5 *138:17 io_out[4] 4.59767 
*END

*D_NET *139 0.490176
*CONN
*P io_out[5] O
*I *739:io_out_o[5] O *D ntt_wb_bridge
*CAP
1 io_out[5] 0.00175839
2 *739:io_out_o[5] 0.00164378
3 *139:21 0.049832
4 *139:19 0.0480736
5 *139:17 0.0242259
6 *139:15 0.0258697
7 *139:15 *140:19 0
8 *87:51 *139:15 2.86168e-05
9 *94:79 *139:15 8.14646e-05
10 *137:13 *139:17 0.131847
11 *138:13 *139:17 0.146534
12 *138:17 *139:21 0.0602809
*RES
1 *739:io_out_o[5] *139:15 4.44153 
2 *139:15 *139:17 216.907 
3 *139:17 *139:19 0.5 
4 *139:19 *139:21 135.353 
5 *139:21 io_out[5] 4.48113 
*END

*D_NET *140 0.402622
*CONN
*P io_out[6] O
*I *739:io_out_o[6] O *D ntt_wb_bridge
*CAP
1 io_out[6] 0.00154802
2 *739:io_out_o[6] 0.00145834
3 *140:25 0.0366466
4 *140:23 0.0350986
5 *140:21 0.0454745
6 *140:19 0.0469328
7 *140:21 *341:59 0.00249613
8 *140:21 *353:27 0.000180279
9 *79:13 *140:21 0.0093266
10 *87:51 *140:19 3.3211e-05
11 *93:19 *140:19 0.000214666
12 *94:79 *140:19 0.000304757
13 *95:19 *140:21 0.000691727
14 *105:27 io_out[6] 0.000151747
15 *107:18 *140:21 0.13437
16 *107:22 *140:25 0.0817209
17 *110:13 *140:21 0
18 *135:14 *140:19 0.000414154
19 *135:14 *140:21 0.00555904
20 *139:15 *140:19 0
*RES
1 *739:io_out_o[6] *140:19 7.06383 
2 *140:19 *140:21 1276.26 
3 *140:21 *140:23 2 
4 *140:23 *140:25 943.605 
5 *140:25 io_out[6] 19.6069 
*END

*D_NET *141 0.509642
*CONN
*P io_out[7] O
*I *739:io_out_o[7] O *D ntt_wb_bridge
*CAP
1 io_out[7] 0.000802237
2 *739:io_out_o[7] 0.00338252
3 *141:37 0.0171661
4 *141:35 0.0163639
5 *141:33 0.0238121
6 *141:31 0.0273532
7 *141:25 0.0191168
8 *141:23 0.0189583
9 *141:23 *143:29 0.000478111
10 *141:25 *143:29 0.00161739
11 *141:25 *143:41 0.0191593
12 *141:25 *351:39 0.00361227
13 *141:37 *143:47 0.101126
14 *68:17 *141:25 0.000121388
15 *68:27 *141:33 0.0308675
16 *69:15 *141:25 6.92707e-05
17 *72:23 *141:25 7.33588e-05
18 *74:11 *141:25 0.000247169
19 *75:11 *141:31 0.000241782
20 *76:13 *141:31 0.000185322
21 *77:13 *141:31 0.000203008
22 *77:33 *141:33 0.0164239
23 *78:11 *141:31 0.000160832
24 *78:13 *141:31 0.000883538
25 *78:13 *141:33 0.00359052
26 *79:11 *141:25 5.70064e-05
27 *80:21 *141:31 0.00129548
28 *81:13 *141:31 6.67896e-05
29 *81:15 *141:23 0.000465095
30 *82:11 *141:31 0.000133749
31 *82:13 *141:23 0.000135083
32 *82:13 *141:25 0.00567743
33 *82:13 *141:31 0.00035842
34 *83:11 *141:31 0.000116615
35 *84:11 *141:33 7.85429e-05
36 *85:11 *141:33 0.000100835
37 *86:11 *141:33 0.000274926
38 *86:13 *141:23 0.000124592
39 *86:13 *141:25 0.00514548
40 *86:13 *141:31 0.000559751
41 *86:13 *141:33 0.00019259
42 *87:11 *141:33 0.000144901
43 *87:13 *141:23 0.00010605
44 *87:13 *141:25 0.00289259
45 *87:13 *141:33 0.000136405
46 *87:51 *141:23 0
47 *88:15 *141:33 0.00011227
48 *89:11 *141:33 4.68515e-05
49 *90:21 *141:25 0.000449698
50 *90:23 *141:25 0.000531573
51 *90:27 *141:37 0.0068851
52 *91:11 *141:33 0.000308653
53 *91:13 *141:23 0.000113694
54 *91:13 *141:25 0.00634733
55 *91:13 *141:31 0.00101214
56 *91:13 *141:33 0.000861776
57 *91:47 *141:23 8.26226e-05
58 *92:11 *141:33 0.000225715
59 *93:17 *141:33 0.000143972
60 *94:11 *141:33 5.15876e-05
61 *94:13 *141:23 0.000114858
62 *94:13 *141:25 0.00322391
63 *94:13 *141:31 0.000562002
64 *94:13 *141:33 0.000649049
65 *95:17 *141:33 0.00055811
66 *95:49 *141:23 4.34363e-05
67 *95:49 *141:25 0.00843807
68 *96:13 *141:33 9.70834e-05
69 *97:13 *141:33 0.000219531
70 *99:19 *141:25 8.83932e-05
71 *99:27 *141:33 0.0283029
72 *100:21 *141:25 0.000104023
73 *100:23 *141:25 0.00281884
74 *100:23 *141:31 0.0029177
75 *100:23 *141:33 0.00150587
76 *100:29 *141:33 1.45731e-05
77 *101:17 *141:25 0.000273891
78 *101:31 *141:37 0.0154441
79 *102:17 *141:25 0.000414873
80 *102:31 *141:37 0.00749837
81 *103:11 *141:25 0.000377675
82 *104:17 *141:25 8.66566e-05
83 *105:13 *141:25 0.000102286
84 *105:27 *141:37 0.0447134
85 *106:19 *141:23 0.00406803
86 *106:21 *141:25 0
87 *108:17 *141:23 0.000404981
88 *108:19 *141:23 0.00124936
89 *110:13 *141:23 0.000242708
90 *111:35 *141:37 0.00010285
91 *112:23 *141:25 0.000109195
92 *113:11 *141:25 0.000118394
93 *113:13 *141:31 0.000709847
94 *113:13 *141:33 0.00091457
95 *114:11 *141:25 0.000198112
96 *114:13 *141:25 0.000281779
97 *115:11 *141:25 3.06609e-05
98 *116:19 *141:25 3.81661e-05
99 *118:11 *141:25 0.00025331
100 *119:11 *141:25 0.00014082
101 *120:11 *141:25 9.38734e-05
102 *121:11 *141:25 3.69571e-05
103 *122:11 *141:25 0.000253864
104 *122:13 *141:23 0.000212147
105 *123:13 *141:25 8.84005e-05
106 *124:13 *141:25 0.000112713
107 *125:11 *141:25 3.86957e-05
108 *126:11 *141:25 0.000320764
109 *126:23 *141:23 5.75488e-05
110 *127:13 *141:25 0.0004253
111 *128:25 *141:37 0.0300477
112 *129:13 *141:25 0.000289846
113 *129:15 *141:23 0.00738026
114 *130:13 *141:25 0.000114449
115 *131:11 *141:25 4.89041e-05
116 *132:17 *141:25 0.000482608
117 *133:25 *141:25 0.000347153
118 *134:15 *141:25 6.72267e-05
119 *136:25 *141:25 0.000539915
*RES
1 *739:io_out_o[7] *141:23 26.4245 
2 *141:23 *141:25 60.6353 
3 *141:25 *141:31 12.5223 
4 *141:31 *141:33 130.818 
5 *141:33 *141:35 0.5 
6 *141:35 *141:37 1133.32 
7 *141:37 io_out[7] 2.47093 
*END

*D_NET *142 0.473777
*CONN
*P io_out[8] O
*I *739:io_out_o[8] O *D ntt_wb_bridge
*CAP
1 io_out[8] 0.00099549
2 *739:io_out_o[8] 0.00058106
3 *142:23 0.00832094
4 *142:21 0.00732545
5 *142:19 0.0489948
6 *142:17 0.0489948
7 *142:15 0.0375303
8 *142:13 0.0381114
9 *142:19 *648:11 0
10 *142:19 *653:11 0.00946455
11 *142:19 *671:17 0.0136616
12 *142:19 *732:11 0
13 io_oeb[8] io_out[8] 3.92756e-05
14 *68:19 *142:15 0.000559464
15 *74:17 *142:19 0
16 *75:17 *142:19 0
17 *78:129 *142:19 0.0613426
18 *90:21 *142:15 0.000361858
19 *91:47 *142:13 0.000106151
20 *100:21 *142:15 0.000823485
21 *104:19 *142:15 0.0198331
22 *104:23 *142:19 0.0270749
23 *109:23 *142:15 0.110613
24 *111:29 *142:15 0.00180524
25 *111:35 io_out[8] 0.000244044
26 *112:23 *142:15 2.0514e-05
27 *113:17 *142:19 0
28 *115:145 *142:19 0.00721362
29 *117:18 *142:15 0.000980822
30 *121:13 *142:15 0.0063707
31 *121:21 *142:15 0.00424057
32 *126:13 *142:15 0.00388515
33 *127:15 *142:15 0.0034415
34 *131:15 *142:15 0.0045503
35 *131:17 *142:15 0.0044827
36 *132:17 *142:15 0.000500021
37 *132:19 *142:15 0.00106936
38 *133:25 *142:15 0.000238446
*RES
1 *739:io_out_o[8] *142:13 9.6057 
2 *142:13 *142:15 1143.44 
3 *142:15 *142:17 2 
4 *142:17 *142:19 1335.8 
5 *142:19 *142:21 2 
6 *142:21 *142:23 123.96 
7 *142:23 io_out[8] 7.42823 
*END

*D_NET *143 0.541525
*CONN
*P io_out[9] O
*I *739:io_out_o[9] O *D ntt_wb_bridge
*CAP
1 io_out[9] 0.000822492
2 *739:io_out_o[9] 0.00357754
3 *143:47 0.0228522
4 *143:45 0.0220297
5 *143:43 0.0503491
6 *143:41 0.0560702
7 *143:29 0.00929868
8 *143:43 *351:39 0.00165993
9 io_oeb[8] *143:47 0.00114607
10 *78:13 *143:43 0
11 *82:13 *143:29 0.000996382
12 *86:13 *143:29 0.00091986
13 *87:13 *143:29 0.000498703
14 *87:13 *143:43 0.0132733
15 *90:21 *143:41 9.29394e-05
16 *91:13 *143:29 0.00438308
17 *94:13 *143:29 0.000625068
18 *94:13 *143:43 0.00254971
19 *95:49 *143:29 0.0061072
20 *95:49 *143:41 0.00330125
21 *99:31 *143:47 0.0122997
22 *101:27 *143:43 0.0276252
23 *102:31 *143:47 0.00833829
24 *105:27 *143:47 0.0207351
25 *106:21 *143:41 0.00283973
26 *108:17 *143:29 9.88127e-05
27 *109:21 *143:29 0.000274209
28 *110:11 *143:29 0.000231839
29 *111:29 *143:29 0.000305468
30 *111:35 *143:47 0.136755
31 *113:13 *143:29 0.000245504
32 *114:13 *143:41 0.00430544
33 *115:11 *143:29 0.000180267
34 *116:19 *143:29 0.000220209
35 *120:13 *143:29 0
36 *120:13 *143:41 0.000640701
37 *133:27 *143:41 0.00349516
38 *141:23 *143:29 0.000478111
39 *141:25 *143:29 0.00161739
40 *141:25 *143:41 0.0191593
41 *141:37 *143:47 0.101126
*RES
1 *739:io_out_o[9] *143:29 49.0618 
2 *143:29 *143:41 38.8694 
3 *143:41 *143:43 970.59 
4 *143:43 *143:45 2 
5 *143:45 *143:47 1529.47 
6 *143:47 io_out[9] 2.5292 
*END

*D_NET *272 0.208442
*CONN
*P la_data_out[0] O
*I *739:la_data_out_o[0] O *D ntt_wb_bridge
*CAP
1 la_data_out[0] 0.000567895
2 *739:la_data_out_o[0] 0.000527759
3 *272:51 0.0129804
4 *272:47 0.0142947
5 *272:39 0.00384408
6 *272:25 0.0480433
7 *272:23 0.0466091
8 *272:23 *310:31 1.17267e-05
9 *272:23 *311:21 3.58598e-05
10 *272:23 *313:13 1.91597e-05
11 *272:23 *313:23 0.000432118
12 *272:23 *322:19 0.00112695
13 *272:23 *322:21 7.89356e-05
14 *272:23 *330:13 0.00138101
15 *272:23 *330:19 0.000430756
16 *272:23 *337:39 3.59784e-05
17 *272:23 *355:37 7.89356e-05
18 *272:25 la_data_out[21] 0.000126782
19 *272:25 la_data_out[24] 0.00293558
20 *272:25 *283:25 0
21 *272:25 *294:19 0.000206861
22 *272:25 *294:21 0.000105649
23 *272:25 *294:29 0.0369172
24 *272:25 *309:27 0.000207968
25 *272:25 *309:29 0.000438156
26 *272:25 *309:47 0.000141767
27 *272:25 *313:25 0.0115047
28 *272:25 *320:29 0.000157071
29 *272:25 *327:33 0
30 *272:25 *328:23 0.000269569
31 *272:25 *330:19 0.000168785
32 *272:25 *330:21 0.000415422
33 *272:25 *342:45 0.000425283
34 *272:25 *342:47 0.000739607
35 *272:25 *351:35 0.00114749
36 *272:25 *366:25 0.000303831
37 *272:25 *388:25 0
38 *272:39 la_data_out[13] 0.000626574
39 *272:39 la_data_out[16] 0.000345504
40 *272:39 la_data_out[21] 0.000102589
41 *272:39 la_data_out[25] 0.000310419
42 *272:39 *283:43 0.00175074
43 *272:39 *294:47 0.00011286
44 *272:39 *329:27 0.000347943
45 *272:39 *334:29 0.000192654
46 *272:39 *337:51 0.000195179
47 *272:47 la_data_out[13] 0.00162252
48 *272:51 la_data_out[10] 0.00121801
49 *272:51 la_data_out[11] 0.0106806
50 *272:51 la_data_out[13] 0.00422641
51 *126:25 *272:25 0
*RES
1 *739:la_data_out_o[0] *272:23 24.2593 
2 *272:23 *272:25 104.345 
3 *272:25 *272:39 47.1902 
4 *272:39 *272:47 35.335 
5 *272:47 *272:51 41.5577 
6 *272:51 la_data_out[0] 10.2525 
*END

*D_NET *273 0.18612
*CONN
*P la_data_out[100] O
*I *739:la_data_out_o[100] O *D ntt_wb_bridge
*CAP
1 la_data_out[100] 0.0354926
2 *739:la_data_out_o[100] 0.00100894
3 *273:17 0.0354926
4 *273:15 0.00685792
5 *273:13 0.00786686
6 la_data_out[100] *714:97 0.00184751
7 *273:13 *371:23 0.000259458
8 *273:15 *275:15 0.0460886
9 *273:15 *280:15 0.0429406
10 *273:15 *385:15 0.00527323
11 *273:15 *387:15 0.000367035
12 *273:15 *390:15 0.000207709
13 *273:15 *736:15 0.00133385
14 *273:15 *737:34 0.000657347
15 *78:95 la_data_out[100] 0.000425499
16 *114:83 la_data_out[100] 0
*RES
1 *739:la_data_out_o[100] *273:13 14.2118 
2 *273:13 *273:15 435.495 
3 *273:15 *273:17 2 
4 *273:17 la_data_out[100] 647.625 
*END

*D_NET *274 0.183473
*CONN
*P la_data_out[101] O
*I *739:la_data_out_o[101] O *D ntt_wb_bridge
*CAP
1 la_data_out[101] 0.000759142
2 *739:la_data_out_o[101] 0.000978318
3 *274:23 0.00336727
4 *274:21 0.00260813
5 *274:19 0.034034
6 *274:17 0.034034
7 *274:15 0.00651714
8 *274:13 0.00749546
9 *274:13 *371:23 0.000150216
10 *274:15 *276:15 0.0345093
11 *274:15 *378:15 0.00407482
12 *274:15 *382:15 0.000118286
13 *274:15 *385:15 0.000106983
14 *274:15 *394:15 0
15 *274:15 *396:15 0.0402051
16 *274:15 *663:53 0.000584219
17 *274:15 *733:23 0
18 *274:19 *682:65 0.00393113
19 *274:23 *276:23 0.00795206
20 *78:95 *274:19 0.00204762
*RES
1 *739:la_data_out_o[101] *274:13 15.0418 
2 *274:13 *274:15 370.98 
3 *274:15 *274:17 2 
4 *274:17 *274:19 635.565 
5 *274:19 *274:21 2 
6 *274:21 *274:23 73.245 
7 *274:23 la_data_out[101] 15.185 
*END

*D_NET *275 0.177928
*CONN
*P la_data_out[102] O
*I *739:la_data_out_o[102] O *D ntt_wb_bridge
*CAP
1 la_data_out[102] 0.00132646
2 *739:la_data_out_o[102] 0.000927051
3 *275:19 0.0367894
4 *275:17 0.035463
5 *275:15 0.00822891
6 *275:13 0.00915596
7 la_data_out[102] *302:25 0.0021084
8 *275:13 *371:23 0.000179738
9 *275:15 *280:15 0.000461318
10 *275:15 *374:15 0.00385875
11 *275:15 *385:15 0.000977809
12 *275:15 *387:15 0.000338889
13 *275:15 *390:15 0.000394716
14 *275:15 *396:15 0.0141511
15 *275:15 *737:34 0.0174782
16 *275:19 *658:73 0
17 *273:15 *275:15 0.0460886
*RES
1 *739:la_data_out_o[102] *275:13 14.3198 
2 *275:13 *275:15 432.39 
3 *275:15 *275:17 2 
4 *275:17 *275:19 636.585 
5 *275:19 la_data_out[102] 34.825 
*END

*D_NET *276 0.16655
*CONN
*P la_data_out[103] O
*I *739:la_data_out_o[103] O *D ntt_wb_bridge
*CAP
1 la_data_out[103] 0.000735938
2 *739:la_data_out_o[103] 0.000853746
3 *276:23 0.00438824
4 *276:21 0.00365231
5 *276:19 0.0347059
6 *276:17 0.0347059
7 *276:15 0.0115826
8 *276:13 0.0124363
9 *276:13 *353:21 0.000542608
10 *276:13 *371:23 0.000129376
11 *276:15 *378:15 0.00375836
12 *276:15 *385:15 0.000481853
13 *276:15 *394:15 0
14 *276:15 *663:53 0.00030924
15 *276:15 *733:23 0
16 *276:19 *714:53 0
17 *276:19 *715:37 0.0032529
18 *276:23 *285:21 0.00396126
19 *276:23 *286:21 0.00859224
20 *114:59 *276:19 0
21 *274:15 *276:15 0.0345093
22 *274:23 *276:23 0.00795206
*RES
1 *739:la_data_out_o[103] *276:13 15.2664 
2 *276:13 *276:15 318.54 
3 *276:15 *276:17 2 
4 *276:17 *276:19 636.075 
5 *276:19 *276:21 2 
6 *276:21 *276:23 141.21 
7 *276:23 la_data_out[103] 14.93 
*END

*D_NET *277 0.185543
*CONN
*P la_data_out[104] O
*I *739:la_data_out_o[104] O *D ntt_wb_bridge
*CAP
1 la_data_out[104] 0.0353416
2 *739:la_data_out_o[104] 0.000702871
3 *277:19 0.0353416
4 *277:17 0.013456
5 *277:15 0.0141588
6 la_data_out[104] *658:97 0.00156413
7 *277:15 *278:13 0
8 *277:15 *371:23 6.73718e-05
9 *277:17 *282:17 0.0040706
10 *277:17 *295:15 0.0426821
11 *277:17 *296:15 0.00139854
12 *277:17 *300:15 0.00241776
13 *277:17 *356:19 0.000249666
14 *277:17 *357:17 0.00294937
15 *277:17 *360:19 0.00271797
16 *277:17 *362:15 0.0206454
17 *277:17 *390:15 0.00737348
18 *277:17 *715:53 0.00040561
19 *76:69 la_data_out[104] 0
*RES
1 *739:la_data_out_o[104] *277:15 10.0917 
2 *277:15 *277:17 79.0476 
3 *277:17 *277:19 0.5 
4 *277:19 la_data_out[104] 645.203 
*END

*D_NET *278 0.188891
*CONN
*P la_data_out[105] O
*I *739:la_data_out_o[105] O *D ntt_wb_bridge
*CAP
1 la_data_out[105] 0.0351539
2 *739:la_data_out_o[105] 0.00059318
3 *278:25 0.0351539
4 *278:23 0.00725037
5 *278:21 0.00784291
6 *278:15 0.00267269
7 *278:13 0.00267333
8 la_data_out[105] *694:25 0
9 *278:13 *371:23 9.45549e-05
10 *278:15 *359:15 0.00263638
11 *278:15 *363:15 0.01557
12 *278:15 *391:15 0.0153801
13 *278:15 *530:15 6.24064e-05
14 *278:15 *728:15 0.000407586
15 *278:21 *531:21 0.000377001
16 *278:21 *693:11 0.000164467
17 *278:23 *297:13 0
18 *278:23 *301:23 0.0358222
19 *278:23 *397:25 0.0257086
20 *278:23 *667:41 0.00132746
21 *115:89 la_data_out[105] 0
22 *277:15 *278:13 0
*RES
1 *739:la_data_out_o[105] *278:13 9.61837 
2 *278:13 *278:15 145.35 
3 *278:15 *278:21 14.56 
4 *278:21 *278:23 331.305 
5 *278:23 *278:25 2 
6 *278:25 la_data_out[105] 632.835 
*END

*D_NET *279 0.168871
*CONN
*P la_data_out[106] O
*I *739:la_data_out_o[106] O *D ntt_wb_bridge
*CAP
1 la_data_out[106] 0.000953417
2 *739:la_data_out_o[106] 0.00886968
3 *279:25 0.0131208
4 *279:19 0.0460999
5 *279:17 0.0428023
6 *279:17 *280:13 0
7 *279:17 *281:17 0.0162884
8 *279:17 *282:17 1.03654e-05
9 *279:17 *288:21 0.00219501
10 *279:17 *295:15 0
11 *279:17 *298:29 0.00411336
12 *279:17 *299:15 0.000634923
13 *279:17 *354:15 0.000658717
14 *279:17 *358:9 0.00115193
15 *279:17 *363:65 0.000126314
16 *279:17 *364:19 0.00228629
17 *279:17 *370:15 0.00209708
18 *279:17 *371:23 0.000577418
19 *279:17 *372:15 0.00299129
20 *279:17 *375:13 7.8999e-05
21 *279:17 *380:13 0.00258838
22 *279:17 *529:15 0.000586236
23 *279:17 *530:15 0.000857336
24 *279:17 *531:21 0.00311803
25 *279:19 la_data_out[86] 0
26 *78:39 *279:19 0.00391575
27 *114:35 *279:19 0
28 *137:13 *279:25 0.0127494
*RES
1 *739:la_data_out_o[106] *279:17 43.9906 
2 *279:17 *279:19 624.855 
3 *279:19 *279:25 45.612 
4 *279:25 la_data_out[106] 16.8825 
*END

*D_NET *280 0.191685
*CONN
*P la_data_out[107] O
*I *739:la_data_out_o[107] O *D ntt_wb_bridge
*CAP
1 la_data_out[107] 0.0360098
2 *739:la_data_out_o[107] 0.000935626
3 *280:17 0.0360098
4 *280:15 0.00954804
5 *280:13 0.0104837
6 la_data_out[107] *655:41 0.00238605
7 *280:13 *371:23 0.000284605
8 *280:15 *296:15 0.0443608
9 *280:15 *385:15 0.00414895
10 *280:15 *387:15 0.000279113
11 *280:15 *390:15 0.000281018
12 *280:15 *736:15 0.00355544
13 *78:113 la_data_out[107] 0
14 *273:15 *280:15 0.0429406
15 *275:15 *280:15 0.000461318
16 *279:17 *280:13 0
*RES
1 *739:la_data_out_o[107] *280:13 13.9669 
2 *280:13 *280:15 488.97 
3 *280:15 *280:17 2 
4 *280:17 la_data_out[107] 647.37 
*END

*D_NET *281 0.23417
*CONN
*P la_data_out[108] O
*I *739:la_data_out_o[108] O *D ntt_wb_bridge
*CAP
1 la_data_out[108] 0.00126022
2 *739:la_data_out_o[108] 0.00384064
3 *281:23 0.0182876
4 *281:21 0.0170274
5 *281:19 0.0111859
6 *281:17 0.0150266
7 *281:17 *282:17 0.00164175
8 *281:17 *354:15 0.00901895
9 *281:17 *358:25 8.93633e-05
10 *281:17 *359:15 0.000692737
11 *281:17 *363:15 0.000475621
12 *281:17 *371:23 0.000476696
13 *281:17 *393:15 0.0027955
14 *281:17 *395:15 0.00304989
15 *281:17 *397:15 0.000619431
16 *281:17 *731:47 0.000541841
17 *281:19 *282:19 0.0311043
18 *281:19 *284:17 2.88519e-05
19 *281:19 *292:17 0.0547437
20 *281:19 *367:19 0
21 *281:19 *649:15 0
22 *281:23 *352:27 0.0019477
23 *281:23 *353:27 1.48085e-05
24 *281:23 *358:33 0.00195215
25 *69:17 *281:23 0.0161406
26 *70:22 *281:23 0.0133579
27 *71:22 *281:23 0.00466915
28 *72:25 *281:23 0.00394619
29 *73:20 *281:23 0.00394619
30 *279:17 *281:17 0.0162884
*RES
1 *739:la_data_out_o[108] *281:17 32.2925 
2 *281:17 *281:19 620.265 
3 *281:19 *281:21 0.5 
4 *281:21 *281:23 59.4117 
5 *281:23 la_data_out[108] 22.4825 
*END

*D_NET *282 0.191125
*CONN
*P la_data_out[109] O
*I *739:la_data_out_o[109] O *D ntt_wb_bridge
*CAP
1 la_data_out[109] 0.00229031
2 *739:la_data_out_o[109] 0.00435043
3 *282:23 0.0182929
4 *282:21 0.0160026
5 *282:19 0.0149403
6 *282:17 0.0192907
7 *282:17 *295:15 0.00882748
8 *282:17 *356:19 0.00235272
9 *282:17 *359:15 0.00423347
10 *282:17 *371:23 0.000426334
11 *282:17 *728:15 0.00153634
12 *282:17 *731:47 0.0001939
13 *282:19 *367:19 0.0205145
14 *282:19 *649:15 0
15 *78:29 *282:23 0.000841176
16 *101:27 *282:23 0.040205
17 *277:17 *282:17 0.0040706
18 *279:17 *282:17 1.03654e-05
19 *281:17 *282:17 0.00164175
20 *281:19 *282:19 0.0311043
*RES
1 *739:la_data_out_o[109] *282:17 33.5015 
2 *282:17 *282:19 605.985 
3 *282:19 *282:21 0.5 
4 *282:21 *282:23 61.5093 
5 *282:23 la_data_out[109] 38.8025 
*END

*D_NET *283 0.208128
*CONN
*P la_data_out[10] O
*I *739:la_data_out_o[10] O *D ntt_wb_bridge
*CAP
1 la_data_out[10] 0.00495457
2 *739:la_data_out_o[10] 0.00046499
3 *283:43 0.005977
4 *283:25 0.031219
5 *283:23 0.0303278
6 *283:17 0.0080093
7 *283:15 0.00787812
8 *283:13 0.00122768
9 *283:11 0.00169267
10 la_data_out[10] la_data_out[12] 0.0137922
11 la_data_out[10] la_data_out[13] 0.00240905
12 la_data_out[10] la_data_out[16] 0.00789677
13 *283:11 *310:31 0.000153311
14 *283:13 *294:13 0.00764148
15 *283:13 *303:13 4.21973e-05
16 *283:13 *314:13 0.00145649
17 *283:13 *329:13 0.00796488
18 *283:13 *377:25 0
19 *283:17 *306:17 0.0193941
20 *283:17 *326:19 5.69248e-06
21 *283:17 *329:17 3.12599e-05
22 *283:17 *350:31 0
23 *283:23 *595:9 0
24 *283:23 *596:9 3.14408e-05
25 *283:25 *306:17 0.00013192
26 *283:25 *317:19 0.0074071
27 *283:25 *317:29 0.000137349
28 *283:25 *318:19 0.000866389
29 *283:25 *319:19 0.000837434
30 *283:25 *321:19 0.000899885
31 *283:25 *324:19 0.000368223
32 *283:25 *326:31 0.000151845
33 *283:25 *329:17 0.000153582
34 *283:43 la_data_out[12] 0.000188118
35 *283:43 *294:47 0.00127231
36 *283:43 *329:17 2.4669e-05
37 *283:43 *331:17 0
38 *283:43 *334:29 0.00018751
39 *283:43 *337:51 0.000189811
40 *126:25 *283:17 0.00408749
41 *126:25 *283:25 0.0356852
42 *134:21 *283:25 0
43 *272:25 *283:25 0
44 *272:39 *283:43 0.00175074
45 *272:51 la_data_out[10] 0.00121801
*RES
1 *739:la_data_out_o[10] *283:11 4.95323 
2 *283:11 *283:13 73.245 
3 *283:13 *283:15 2 
4 *283:15 *283:17 219.788 
5 *283:17 *283:23 1.24193 
6 *283:23 *283:25 68.514 
7 *283:25 *283:43 34.9902 
8 *283:43 la_data_out[10] 38.3513 
*END

*D_NET *284 0.220731
*CONN
*P la_data_out[110] O
*I *739:la_data_out_o[110] O *D ntt_wb_bridge
*CAP
1 la_data_out[110] 0.000680339
2 *739:la_data_out_o[110] 0.000352677
3 *284:25 0.00593333
4 *284:23 0.00589425
5 *284:17 0.0215007
6 *284:15 0.0208595
7 *284:13 0.00424251
8 *284:11 0.00459519
9 *284:11 *371:23 0.000182168
10 *284:13 *285:13 0.000568202
11 *284:13 *288:23 0.00222195
12 *284:13 *292:13 0.000299001
13 *284:13 *293:13 0.00892227
14 *284:13 *368:19 0
15 *284:13 *375:13 0.00122444
16 *284:13 *383:19 0.00118316
17 *284:13 *383:21 0.0033356
18 *284:13 *392:21 2.0514e-05
19 *284:17 *292:17 7.05141e-05
20 *284:17 *302:17 0.0554009
21 *284:17 *369:15 0
22 *284:17 *649:15 0.00167808
23 *284:17 *676:35 0.00182474
24 *284:17 *734:19 0
25 *284:17 *735:11 0
26 *284:23 *292:23 0.000978714
27 *284:23 *292:25 2.62258e-05
28 *284:23 *359:33 0.000110612
29 *284:23 *365:27 0.000530149
30 *284:23 *368:47 0.00092528
31 *284:25 la_data_out[85] 0.00266085
32 *284:25 *285:21 0.0355734
33 *284:25 *292:25 0.0389073
34 *281:19 *284:17 2.88519e-05
*RES
1 *739:la_data_out_o[110] *284:11 5.55697 
2 *284:11 *284:13 132.24 
3 *284:13 *284:15 2 
4 *284:15 *284:17 625.875 
5 *284:17 *284:23 23.765 
6 *284:23 *284:25 358.215 
7 *284:25 la_data_out[110] 14.165 
*END

*D_NET *285 0.191416
*CONN
*P la_data_out[111] O
*I *739:la_data_out_o[111] O *D ntt_wb_bridge
*CAP
1 la_data_out[111] 0.000694106
2 *739:la_data_out_o[111] 0.000202921
3 *285:21 0.00777685
4 *285:19 0.00708275
5 *285:17 0.0333855
6 *285:15 0.0333855
7 *285:13 0.00384352
8 *285:11 0.00404644
9 *285:11 *371:23 0.000167103
10 *285:13 *286:13 0.0190981
11 *285:13 *288:23 0.00322642
12 *285:13 *292:13 0.00968834
13 *285:13 *371:23 0.00146172
14 *285:17 *658:35 0.00621988
15 *285:17 *714:37 0
16 *285:21 *286:21 0.0201744
17 *285:21 *292:25 0.000859251
18 *276:23 *285:21 0.00396126
19 *284:13 *285:13 0.000568202
20 *284:25 *285:21 0.0355734
*RES
1 *739:la_data_out_o[111] *285:11 4.2085 
2 *285:11 *285:13 178.815 
3 *285:13 *285:15 2 
4 *285:15 *285:17 624.855 
5 *285:17 *285:19 2 
6 *285:19 *285:21 340.965 
7 *285:21 la_data_out[111] 14.42 
*END

*D_NET *286 0.198148
*CONN
*P la_data_out[112] O
*I *739:la_data_out_o[112] O *D ntt_wb_bridge
*CAP
1 la_data_out[112] 0.000707969
2 *739:la_data_out_o[112] 0.000119531
3 *286:21 0.00615157
4 *286:19 0.0054436
5 *286:17 0.0234826
6 *286:15 0.0234826
7 *286:13 0.00603079
8 *286:11 0.00615032
9 *286:11 *371:23 7.61246e-05
10 *286:13 *287:13 0.0355161
11 *286:13 *288:23 0.00711532
12 *286:13 *298:31 0.00148656
13 *286:13 *371:23 0.00161266
14 *286:13 *531:21 0.000114019
15 *286:17 la_data_out[97] 0.0322093
16 *286:17 *714:69 0
17 *286:21 *292:25 0.000584264
18 *276:23 *286:21 0.00859224
19 *285:13 *286:13 0.0190981
20 *285:21 *286:21 0.0201744
*RES
1 *739:la_data_out_o[112] *286:11 3.70523 
2 *286:11 *286:13 329.925 
3 *286:13 *286:15 2 
4 *286:15 *286:17 624.345 
5 *286:17 *286:19 2 
6 *286:19 *286:21 198.825 
7 *286:21 la_data_out[112] 14.675 
*END

*D_NET *287 0.203003
*CONN
*P la_data_out[113] O
*I *739:la_data_out_o[113] O *D ntt_wb_bridge
*CAP
1 la_data_out[113] 0.0335713
2 *739:la_data_out_o[113] 0.00013038
3 *287:15 0.0335713
4 *287:13 0.00945201
5 *287:11 0.00958239
6 la_data_out[113] *655:99 0.00111998
7 la_data_out[113] *686:73 0.000452494
8 la_data_out[113] *721:79 0.00464687
9 *287:11 *371:23 0.000113259
10 *287:13 *288:23 0.00803368
11 *287:13 *289:13 0.0578675
12 *287:13 *298:31 0.00443411
13 *287:13 *371:23 0.0014798
14 *77:121 la_data_out[113] 0.00303152
15 *286:13 *287:13 0.0355161
*RES
1 *739:la_data_out_o[113] *287:11 3.55157 
2 *287:11 *287:13 535.89 
3 *287:13 *287:15 2 
4 *287:15 la_data_out[113] 636.66 
*END

*D_NET *288 0.168507
*CONN
*P la_data_out[114] O
*I *739:la_data_out_o[114] O *D ntt_wb_bridge
*CAP
1 la_data_out[114] 0.035407
2 *739:la_data_out_o[114] 0.00111782
3 *288:25 0.035407
4 *288:23 0.012104
5 *288:21 0.0132218
6 la_data_out[114] *652:83 0.000309305
7 la_data_out[114] *659:93 0.00222936
8 la_data_out[114] *694:109 0
9 la_data_out[114] *694:125 0
10 la_data_out[114] *723:95 0.00139805
11 *288:21 *365:19 0.000863409
12 *288:21 *371:23 9.46445e-05
13 *288:21 *380:13 0.00373508
14 *288:23 *289:13 0.000184458
15 *288:23 *292:13 0.00881019
16 *288:23 *293:13 0.0105371
17 *288:23 *369:13 0.000109836
18 *288:23 *392:21 0.0201851
19 *279:17 *288:21 0.00219501
20 *284:13 *288:23 0.00222195
21 *285:13 *288:23 0.00322642
22 *286:13 *288:23 0.00711532
23 *287:13 *288:23 0.00803368
*RES
1 *739:la_data_out_o[114] *288:21 16.4225 
2 *288:21 *288:23 512.43 
3 *288:23 *288:25 2 
4 *288:25 la_data_out[114] 637.68 
*END

*D_NET *289 0.21288
*CONN
*P la_data_out[115] O
*I *739:la_data_out_o[115] O *D ntt_wb_bridge
*CAP
1 la_data_out[115] 0.0353417
2 *739:la_data_out_o[115] 7.71802e-05
3 *289:15 0.0353417
4 *289:13 0.00883418
5 *289:11 0.00891136
6 la_data_out[115] *652:121 0.000505837
7 la_data_out[115] *665:57 0.000501323
8 la_data_out[115] *686:73 0.000226236
9 la_data_out[115] *694:141 0
10 la_data_out[115] *721:117 0
11 la_data_out[115] *723:95 0.000232204
12 *289:11 *371:23 5.94143e-05
13 *289:13 *290:13 0.0594032
14 *289:13 *293:13 0
15 *289:13 *298:31 0.00502854
16 *289:13 *371:23 0.000365273
17 *114:135 la_data_out[115] 0
18 *287:13 *289:13 0.0578675
19 *288:23 *289:13 0.000184458
*RES
1 *739:la_data_out_o[115] *289:11 3.14963 
2 *289:11 *289:13 552.105 
3 *289:13 *289:15 2 
4 *289:15 la_data_out[115] 636.405 
*END

*D_NET *290 0.220031
*CONN
*P la_data_out[116] O
*I *739:la_data_out_o[116] O *D ntt_wb_bridge
*CAP
1 la_data_out[116] 0.0353123
2 *739:la_data_out_o[116] 0.000102068
3 *290:15 0.0353123
4 *290:13 0.00894898
5 *290:11 0.00905104
6 la_data_out[116] *296:19 0
7 la_data_out[116] *669:63 0.00119366
8 la_data_out[116] *686:73 0.00161045
9 la_data_out[116] *694:141 0
10 *290:11 *371:23 6.68411e-05
11 *290:13 *291:13 0.0601928
12 *290:13 *293:13 0
13 *290:13 *298:31 0.00828689
14 *290:13 *371:23 0.000442698
15 *290:13 *531:21 0.000107806
16 *114:137 la_data_out[116] 0
17 *289:13 *290:13 0.0594032
*RES
1 *739:la_data_out_o[116] *290:11 2.9149 
2 *290:11 *290:13 561.42 
3 *290:13 *290:15 2 
4 *290:15 la_data_out[116] 636.15 
*END

*D_NET *291 0.200021
*CONN
*P la_data_out[117] O
*I *739:la_data_out_o[117] O *D ntt_wb_bridge
*CAP
1 la_data_out[117] 0.0335012
2 *739:la_data_out_o[117] 9.51754e-05
3 *291:19 0.0352257
4 *291:13 0.0128475
5 *291:11 0.0112181
6 la_data_out[117] *669:63 0.000377216
7 *291:11 *371:23 4.82353e-05
8 *291:13 *297:13 0.0315986
9 *291:13 *298:31 0.00897512
10 *291:13 *302:15 0.00421494
11 *291:13 *371:23 0.000117694
12 *291:13 *694:161 0.000182763
13 *291:19 *669:63 0.00120143
14 *291:19 *694:161 3.86814e-05
15 *112:33 la_data_out[117] 0
16 *112:33 *291:19 0
17 *115:131 la_data_out[117] 0
18 *115:131 *291:19 0.000186188
19 *290:13 *291:13 0.0601928
*RES
1 *739:la_data_out_o[117] *291:11 2.87183 
2 *291:11 *291:13 568.665 
3 *291:13 *291:19 34.1975 
4 *291:19 la_data_out[117] 604.253 
*END

*D_NET *292 0.268398
*CONN
*P la_data_out[118] O
*I *739:la_data_out_o[118] O *D ntt_wb_bridge
*CAP
1 la_data_out[118] 0.000661805
2 *739:la_data_out_o[118] 0.00034408
3 *292:25 0.00861123
4 *292:23 0.00836415
5 *292:17 0.00988906
6 *292:15 0.00947433
7 *292:13 0.00154966
8 *292:11 0.00189374
9 *292:11 *371:23 0.000149464
10 *292:13 *371:23 0.00147491
11 *292:17 *302:17 0.0554408
12 *292:17 *367:19 0
13 *292:23 la_data_out[81] 0.000283721
14 *292:23 la_data_out[83] 0.00161174
15 *292:23 *302:23 9.56017e-06
16 *292:23 *365:27 0.000458676
17 *292:23 *373:31 0.000110612
18 *292:25 *296:23 0.00270981
19 *292:25 *302:23 0.000187913
20 *292:25 *302:25 0.0502051
21 *281:19 *292:17 0.0547437
22 *284:13 *292:13 0.000299001
23 *284:17 *292:17 7.05141e-05
24 *284:23 *292:23 0.000978714
25 *284:23 *292:25 2.62258e-05
26 *284:25 *292:25 0.0389073
27 *285:13 *292:13 0.00968834
28 *285:21 *292:25 0.000859251
29 *286:21 *292:25 0.000584264
30 *288:23 *292:13 0.00881019
*RES
1 *739:la_data_out_o[118] *292:11 4.41537 
2 *292:11 *292:13 88.77 
3 *292:13 *292:15 2 
4 *292:15 *292:17 625.365 
5 *292:17 *292:23 22.13 
6 *292:23 *292:25 465.165 
7 *292:25 la_data_out[118] 13.91 
*END

*D_NET *293 0.150547
*CONN
*P la_data_out[119] O
*I *739:la_data_out_o[119] O *D ntt_wb_bridge
*CAP
1 la_data_out[119] 0.0352683
2 *739:la_data_out_o[119] 0.000496091
3 *293:15 0.0352683
4 *293:13 0.0256546
5 *293:11 0.0261507
6 *293:11 *371:23 0.000186598
7 *293:13 *299:15 0
8 *293:13 *368:19 0
9 *293:13 *369:7 0.000760439
10 *293:13 *383:21 0.00123693
11 *293:13 *392:21 0.00606579
12 *293:13 *529:15 0
13 *103:17 la_data_out[119] 0
14 *115:137 la_data_out[119] 0
15 *284:13 *293:13 0.00892227
16 *288:23 *293:13 0.0105371
17 *289:13 *293:13 0
18 *290:13 *293:13 0
*RES
1 *739:la_data_out_o[119] *293:11 5.7917 
2 *293:11 *293:13 580.74 
3 *293:13 *293:15 2 
4 *293:15 la_data_out[119] 638.7 
*END

*D_NET *294 0.206866
*CONN
*P la_data_out[11] O
*I *739:la_data_out_o[11] O *D ntt_wb_bridge
*CAP
1 la_data_out[11] 0.0062277
2 *739:la_data_out_o[11] 0.0002471
3 *294:47 0.00729049
4 *294:29 0.0203122
5 *294:27 0.0193343
6 *294:21 0.00669618
7 *294:19 0.00764547
8 *294:13 0.00396316
9 *294:11 0.00317602
10 la_data_out[11] la_data_out[13] 0.00150073
11 la_data_out[11] la_data_out[21] 0.00230891
12 la_data_out[11] *309:47 0.00672324
13 *294:11 *310:31 4.08474e-05
14 *294:13 *328:15 0
15 *294:13 *329:13 0.000569816
16 *294:13 *334:21 0.00154626
17 *294:13 *377:17 0
18 *294:13 *377:25 0
19 *294:19 *335:23 0.00170899
20 *294:19 *351:33 0.00169921
21 *294:19 *351:35 0
22 *294:19 *366:25 0.000173912
23 *294:21 *335:23 0
24 *294:21 *342:45 5.33545e-05
25 *294:21 *351:35 0.0165122
26 *294:27 *342:45 0.000109407
27 *294:29 la_data_out[24] 0.00413071
28 *294:29 *309:29 0.000739607
29 *294:29 *320:31 0.00280062
30 *294:29 *323:23 0.00280062
31 *294:29 *325:19 0.00533938
32 *294:29 *327:33 8.29027e-06
33 *294:29 *328:23 0.000249774
34 *294:29 *330:21 0.0075692
35 *294:29 *341:53 3.42271e-05
36 *294:47 la_data_out[13] 0
37 *294:47 la_data_out[21] 0
38 *294:47 la_data_out[25] 2.01934e-05
39 *294:47 la_data_out[26] 0.000235382
40 *294:47 *307:25 0
41 *294:47 *309:47 0
42 *294:47 *326:33 0.000115345
43 *294:47 *334:29 0.000305227
44 *294:47 *335:23 7.91423e-05
45 *135:20 *294:29 0.0176613
46 *272:25 *294:19 0.000206861
47 *272:25 *294:21 0.000105649
48 *272:25 *294:29 0.0369172
49 *272:39 *294:47 0.00011286
50 *272:51 la_data_out[11] 0.0106806
51 *283:13 *294:13 0.00764148
52 *283:43 *294:47 0.00127231
*RES
1 *739:la_data_out_o[11] *294:11 4.88397 
2 *294:11 *294:13 78.075 
3 *294:13 *294:19 37.5275 
4 *294:19 *294:21 186.105 
5 *294:21 *294:27 1.18367 
6 *294:27 *294:29 68.3417 
7 *294:29 *294:47 25.895 
8 *294:47 la_data_out[11] 36.2092 
*END

*D_NET *295 0.183982
*CONN
*P la_data_out[120] O
*I *739:la_data_out_o[120] O *D ntt_wb_bridge
*CAP
1 la_data_out[120] 0.0369584
2 *739:la_data_out_o[120] 0.000905745
3 *295:17 0.0369584
4 *295:15 0.027986
5 *295:13 0.0288917
6 *295:13 *371:23 0.000271777
7 *295:15 *669:63 0
8 *295:15 *721:133 0.000500321
9 *295:15 *723:131 0
10 *277:17 *295:15 0.0426821
11 *279:17 *295:15 0
12 *282:17 *295:15 0.00882748
*RES
1 *739:la_data_out_o[120] *295:13 9.7666 
2 *295:13 *295:15 99.5575 
3 *295:15 *295:17 0.5 
4 *295:17 la_data_out[120] 644.693 
*END

*D_NET *296 0.212847
*CONN
*P la_data_out[121] O
*I *739:la_data_out_o[121] O *D ntt_wb_bridge
*CAP
1 la_data_out[121] 0.000702094
2 *739:la_data_out_o[121] 0.00123567
3 *296:23 0.00313615
4 *296:21 0.00243405
5 *296:19 0.0352348
6 *296:17 0.0352348
7 *296:15 0.00934811
8 *296:13 0.0105838
9 *296:13 *371:23 0.000421124
10 *296:15 *300:15 0.0553147
11 *296:15 *387:15 0.00297603
12 *296:15 *390:15 0.000304357
13 *296:15 *736:15 0.00131289
14 *296:19 *669:63 0.000372013
15 *296:19 *686:73 0.000366815
16 *296:19 *721:133 0
17 *296:23 *302:25 0.00255353
18 la_data_out[116] *296:19 0
19 *76:79 *296:15 0.00284674
20 *277:17 *296:15 0.00139854
21 *280:15 *296:15 0.0443608
22 *292:25 *296:23 0.00270981
*RES
1 *739:la_data_out_o[121] *296:13 13.907 
2 *296:13 *296:15 530.715 
3 *296:15 *296:17 2 
4 *296:17 *296:19 635.055 
5 *296:19 *296:21 2 
6 *296:21 *296:23 64.965 
7 *296:23 la_data_out[121] 14.165 
*END

*D_NET *297 0.179558
*CONN
*P la_data_out[122] O
*I *739:la_data_out_o[122] O *D ntt_wb_bridge
*CAP
1 la_data_out[122] 0.0350191
2 *739:la_data_out_o[122] 0.000382888
3 *297:15 0.0350191
4 *297:13 0.021848
5 *297:11 0.0222309
6 *297:11 *371:23 0.000116568
7 *297:13 *298:29 0.000346747
8 *297:13 *298:31 0.0174727
9 *297:13 *302:15 0.0042161
10 *297:13 *368:33 0.00149063
11 *297:13 *368:37 0.00209203
12 *297:13 *391:25 0.000326963
13 *297:13 *391:27 0.00739771
14 *297:13 *393:23 0
15 *297:13 *395:23 0
16 *297:13 *397:25 0
17 *278:23 *297:13 0
18 *291:13 *297:13 0.0315986
*RES
1 *739:la_data_out_o[122] *297:11 3.25437 
2 *297:11 *297:13 603.855 
3 *297:13 *297:15 2 
4 *297:15 la_data_out[122] 635.385 
*END

*D_NET *298 0.22508
*CONN
*P la_data_out[123] O
*I *739:la_data_out_o[123] O *D ntt_wb_bridge
*CAP
1 la_data_out[123] 0.0349846
2 *739:la_data_out_o[123] 0.00193702
3 *298:33 0.0349846
4 *298:31 0.0440156
5 *298:29 0.0459526
6 *298:29 *299:15 0.000258101
7 *298:29 *301:21 0.00226527
8 *298:29 *363:65 4.83147e-05
9 *298:29 *364:19 0.000726692
10 *298:29 *365:19 0.000364816
11 *298:29 *368:37 0.000349064
12 *298:29 *370:15 0.000800437
13 *298:29 *371:23 0.000320402
14 *298:29 *380:13 0.00104733
15 *298:29 *393:21 0.000485874
16 *298:31 *371:23 0.000517467
17 *298:31 *375:13 0
18 *298:31 *391:27 0.00234896
19 *298:31 *393:23 0.000599134
20 *298:31 *531:21 9.22365e-05
21 *298:31 *655:121 0.000322041
22 *298:31 *667:41 0.00113162
23 *298:31 *669:63 0
24 *298:31 *694:141 0
25 *298:31 *694:161 0.000797989
26 *77:153 *298:31 0.000585375
27 *108:31 la_data_out[123] 0
28 *279:17 *298:29 0.00411336
29 *286:13 *298:31 0.00148656
30 *287:13 *298:31 0.00443411
31 *289:13 *298:31 0.00502854
32 *290:13 *298:31 0.00828689
33 *291:13 *298:31 0.00897512
34 *297:13 *298:29 0.000346747
35 *297:13 *298:31 0.0174727
*RES
1 *739:la_data_out_o[123] *298:29 26.9635 
2 *298:29 *298:31 96.7024 
3 *298:31 *298:33 0.5 
4 *298:33 la_data_out[123] 635.003 
*END

*D_NET *299 0.161445
*CONN
*P la_data_out[124] O
*I *739:la_data_out_o[124] O *D ntt_wb_bridge
*CAP
1 la_data_out[124] 0.0352927
2 *739:la_data_out_o[124] 0.000583601
3 *299:17 0.0352927
4 *299:15 0.0313539
5 *299:13 0.0319375
6 *299:13 *371:23 0.000267239
7 *299:15 *301:21 0.000354896
8 *299:15 *365:19 0.00643979
9 *299:15 *368:19 0.00118507
10 *299:15 *529:15 0.0168558
11 *299:15 *530:15 0.000988717
12 *279:17 *299:15 0.000634923
13 *293:13 *299:15 0
14 *298:29 *299:15 0.000258101
*RES
1 *739:la_data_out_o[124] *299:13 7.31157 
2 *299:13 *299:15 620.07 
3 *299:15 *299:17 2 
4 *299:17 la_data_out[124] 640.74 
*END

*D_NET *300 0.188406
*CONN
*P la_data_out[125] O
*I *739:la_data_out_o[125] O *D ntt_wb_bridge
*CAP
1 la_data_out[125] 0.035625
2 *739:la_data_out_o[125] 0.000996198
3 *300:17 0.035625
4 *300:15 0.024284
5 *300:13 0.0252802
6 *300:13 *371:23 0.000219679
7 *300:15 *387:15 0.00370939
8 *300:15 *658:97 0.000107989
9 *300:15 *689:31 3.49355e-05
10 *300:15 *715:53 0.00010799
11 *300:15 *726:15 5.74791e-05
12 *300:15 *736:15 0.00459536
13 *76:79 *300:15 3.04176e-05
14 *277:17 *300:15 0.00241776
15 *296:15 *300:15 0.0553147
*RES
1 *739:la_data_out_o[125] *300:13 13.3581 
2 *300:13 *300:15 628.005 
3 *300:15 *300:17 2 
4 *300:17 la_data_out[125] 646.86 
*END

*D_NET *301 0.17775
*CONN
*P la_data_out[126] O
*I *739:la_data_out_o[126] O *D ntt_wb_bridge
*CAP
1 la_data_out[126] 0.0362157
2 *739:la_data_out_o[126] 0.00121606
3 *301:25 0.0362157
4 *301:23 0.0286681
5 *301:21 0.0298842
6 *301:21 *365:19 0.000394807
7 *301:21 *368:33 0.000322112
8 *301:21 *371:23 0.000169318
9 *301:21 *380:13 0.00226527
10 *301:21 *393:21 0.000577393
11 *301:21 *395:21 0.000594195
12 *301:23 *397:25 0.000351177
13 *301:23 *667:41 0.00243348
14 *278:23 *301:23 0.0358222
15 *298:29 *301:21 0.00226527
16 *299:15 *301:21 0.000354896
*RES
1 *739:la_data_out_o[126] *301:21 19.5921 
2 *301:21 *301:23 616.275 
3 *301:23 *301:25 2 
4 *301:25 la_data_out[126] 632.58 
*END

*D_NET *302 0.243968
*CONN
*P la_data_out[127] O
*I *739:la_data_out_o[127] O *D ntt_wb_bridge
*CAP
1 la_data_out[127] 0.000668447
2 *739:la_data_out_o[127] 0.000916362
3 *302:25 0.0227629
4 *302:23 0.0227922
5 *302:17 0.00995188
6 *302:15 0.0101705
7 *302:15 *371:23 3.08905e-05
8 *302:17 *369:15 0
9 *302:17 *373:31 3.85204e-05
10 *302:23 la_data_out[81] 0.000905363
11 *302:23 la_data_out[83] 0.000721011
12 *302:23 *354:31 0.000138126
13 *302:23 *378:25 0.000534504
14 la_data_out[102] *302:25 0.0021084
15 *284:17 *302:17 0.0554009
16 *291:13 *302:15 0.00421494
17 *292:17 *302:17 0.0554408
18 *292:23 *302:23 9.56017e-06
19 *292:25 *302:23 0.000187913
20 *292:25 *302:25 0.0502051
21 *296:23 *302:25 0.00255353
22 *297:13 *302:15 0.0042161
*RES
1 *739:la_data_out_o[127] *302:15 44.322 
2 *302:15 *302:17 624.345 
3 *302:17 *302:23 25.4075 
4 *302:23 *302:25 581.948 
5 *302:25 la_data_out[127] 13.655 
*END

*D_NET *303 0.189742
*CONN
*P la_data_out[12] O
*I *739:la_data_out_o[12] O *D ntt_wb_bridge
*CAP
1 la_data_out[12] 0.00511444
2 *739:la_data_out_o[12] 0.000190028
3 *303:17 0.0148453
4 *303:15 0.00973089
5 *303:13 0.00153706
6 *303:11 0.00172709
7 la_data_out[12] la_data_out[13] 0.000203872
8 la_data_out[12] la_data_out[14] 0.000811241
9 la_data_out[12] la_data_out[15] 0.00843033
10 la_data_out[12] la_data_out[16] 0.000785378
11 la_data_out[12] la_data_out[21] 9.59362e-06
12 la_data_out[12] *337:51 0.000550739
13 *303:11 *310:31 4.27041e-05
14 *303:13 *304:13 0.00996028
15 *303:13 *310:31 0.00139194
16 *303:13 *311:21 0.000179376
17 *303:13 *314:13 0.000102874
18 *303:13 *329:13 0.00941373
19 *303:17 la_data_out[23] 0
20 *303:17 *331:17 1.60293e-05
21 *303:17 *334:23 0.0553287
22 *303:17 *340:35 0.0546078
23 la_data_out[10] la_data_out[12] 0.0137922
24 *134:21 *303:17 0.000739607
25 *283:13 *303:13 4.21973e-05
26 *283:43 la_data_out[12] 0.000188118
*RES
1 *739:la_data_out_o[12] *303:11 4.12403 
2 *303:11 *303:13 90.84 
3 *303:13 *303:15 2 
4 *303:15 *303:17 624.727 
5 *303:17 la_data_out[12] 38.8369 
*END

*D_NET *304 0.157835
*CONN
*P la_data_out[13] O
*I *739:la_data_out_o[13] O *D ntt_wb_bridge
*CAP
1 la_data_out[13] 0.00505728
2 *739:la_data_out_o[13] 0.000216092
3 *304:25 0.0258037
4 *304:23 0.0220476
5 *304:13 0.00317986
6 *304:11 0.00209471
7 la_data_out[13] la_data_out[16] 0.00933863
8 la_data_out[13] la_data_out[21] 0.00139088
9 la_data_out[13] *337:41 0.000620218
10 la_data_out[13] *338:39 0
11 *304:11 *310:31 6.96262e-05
12 *304:13 *305:13 0.000434763
13 *304:13 *306:13 0.0100157
14 *304:13 *310:31 0.00139412
15 *304:13 *311:21 0.000135187
16 *304:13 *314:13 0.000110612
17 *304:13 *329:13 0.000341577
18 *304:23 *337:39 0.00131039
19 *304:23 *337:41 0.000737741
20 *304:23 *338:37 0.00029297
21 *304:25 *337:41 0.0514258
22 la_data_out[10] la_data_out[13] 0.00240905
23 la_data_out[11] la_data_out[13] 0.00150073
24 la_data_out[12] la_data_out[13] 0.000203872
25 *97:21 *304:25 0.00126792
26 *272:39 la_data_out[13] 0.000626574
27 *272:47 la_data_out[13] 0.00162252
28 *272:51 la_data_out[13] 0.00422641
29 *294:47 la_data_out[13] 0
30 *303:13 *304:13 0.00996028
*RES
1 *739:la_data_out_o[13] *304:11 3.9425 
2 *304:11 *304:13 101.19 
3 *304:13 *304:23 36.0275 
4 *304:23 *304:25 579.705 
5 *304:25 la_data_out[13] 48.0372 
*END

*D_NET *305 0.122863
*CONN
*P la_data_out[14] O
*I *739:la_data_out_o[14] O *D ntt_wb_bridge
*CAP
1 la_data_out[14] 0.00194208
2 *739:la_data_out_o[14] 0.000221442
3 *305:25 0.0371073
4 *305:23 0.0377886
5 *305:13 0.00436524
6 *305:11 0.0019633
7 la_data_out[14] la_data_out[15] 0.00108553
8 *305:11 *310:31 9.65483e-05
9 *305:13 *306:13 0.010574
10 *305:13 *307:13 0.000703396
11 *305:13 *309:13 0.0100898
12 *305:13 *310:31 0.00106703
13 *305:13 *399:25 0.000101753
14 *305:23 *310:31 0.00579904
15 *305:23 *314:13 0.00143765
16 *305:23 *332:11 1.79483e-05
17 *305:23 *339:37 1.92979e-05
18 *305:23 *344:31 0.00179854
19 *305:23 *377:29 0.00543882
20 la_data_out[12] la_data_out[14] 0.000811241
21 *80:65 *305:25 0
22 *304:13 *305:13 0.000434763
*RES
1 *739:la_data_out_o[14] *305:11 3.50597 
2 *305:11 *305:13 103.605 
3 *305:13 *305:23 19.4686 
4 *305:23 *305:25 622.815 
5 *305:25 la_data_out[14] 18.7644 
*END

*D_NET *306 0.179081
*CONN
*P la_data_out[15] O
*I *739:la_data_out_o[15] O *D ntt_wb_bridge
*CAP
1 la_data_out[15] 0.00609689
2 *739:la_data_out_o[15] 0.000285251
3 *306:17 0.0159523
4 *306:15 0.00985543
5 *306:13 0.00163236
6 *306:11 0.00191761
7 la_data_out[15] *334:29 0.000520664
8 la_data_out[15] *337:51 5.15079e-06
9 *306:11 *310:31 0.00012347
10 *306:13 *309:13 0.000333357
11 *306:13 *310:31 0.00114653
12 *306:13 *329:13 0.000473732
13 *306:13 *388:25 0.000105621
14 *306:13 *399:25 0.000117246
15 *306:17 *329:17 0.0552329
16 *306:17 *341:55 0.0344884
17 *306:17 *350:31 0
18 la_data_out[12] la_data_out[15] 0.00843033
19 la_data_out[14] la_data_out[15] 0.00108553
20 *126:25 *306:17 0.00116224
21 *283:17 *306:17 0.0193941
22 *283:25 *306:17 0.00013192
23 *304:13 *306:13 0.0100157
24 *305:13 *306:13 0.010574
*RES
1 *739:la_data_out_o[15] *306:11 3.83443 
2 *306:11 *306:13 101.535 
3 *306:13 *306:15 2 
4 *306:15 *306:17 623.198 
5 *306:17 la_data_out[15] 33.5658 
*END

*D_NET *307 0.147763
*CONN
*P la_data_out[16] O
*I *739:la_data_out_o[16] O *D ntt_wb_bridge
*CAP
1 la_data_out[16] 0.00257589
2 *739:la_data_out_o[16] 0.000155482
3 *307:25 0.0378066
4 *307:23 0.0354498
5 *307:13 0.00241134
6 *307:11 0.00234773
7 *307:11 *310:31 8.63365e-05
8 *307:13 *309:13 0.0111544
9 *307:13 *310:31 0.000693147
10 *307:13 *313:13 0.0110951
11 *307:13 *388:25 0.000106603
12 *307:13 *399:25 0.000118628
13 *307:23 *310:31 0.000887405
14 *307:23 *332:11 6.02792e-05
15 *307:23 *339:37 6.16289e-05
16 *307:23 *344:31 0.000889544
17 la_data_out[10] la_data_out[16] 0.00789677
18 la_data_out[12] la_data_out[16] 0.000785378
19 la_data_out[13] la_data_out[16] 0.00933863
20 *129:19 *307:25 0.0227936
21 *272:39 la_data_out[16] 0.000345504
22 *294:47 *307:25 0
23 *305:13 *307:13 0.000703396
*RES
1 *739:la_data_out_o[16] *307:11 2.9681 
2 *307:11 *307:13 114.99 
3 *307:13 *307:23 5.12063 
4 *307:23 *307:25 623.835 
5 *307:25 la_data_out[16] 27.0958 
*END

*D_NET *308 0.118042
*CONN
*P la_data_out[17] O
*I *739:la_data_out_o[17] O *D ntt_wb_bridge
*CAP
1 la_data_out[17] 0.0361349
2 *739:la_data_out_o[17] 0.00572962
3 *308:15 0.0418645
4 *308:15 *310:31 0.000162706
5 *308:15 *312:15 0.0180253
6 *308:15 *314:13 0.00012701
7 *308:15 *331:15 0.0131638
8 *308:15 *332:9 0.000199855
9 *308:15 *333:15 0
10 *308:15 *377:29 0.00263402
*RES
1 *739:la_data_out_o[17] *308:15 39.1419 
2 *308:15 la_data_out[17] 639.593 
*END

*D_NET *309 0.175176
*CONN
*P la_data_out[18] O
*I *739:la_data_out_o[18] O *D ntt_wb_bridge
*CAP
1 la_data_out[18] 0.000512442
2 *739:la_data_out_o[18] 0.000311917
3 *309:47 0.00463634
4 *309:29 0.0131468
5 *309:27 0.00958924
6 *309:13 0.00250607
7 *309:11 0.00225167
8 *309:11 *310:31 0.000204237
9 *309:13 *310:31 0.000918036
10 *309:13 *313:13 0.000596056
11 *309:13 *329:13 0.00021799
12 *309:13 *399:25 0.000108734
13 *309:27 *313:23 0.00076969
14 *309:27 *313:25 4.83632e-05
15 *309:27 *320:29 0
16 *309:27 *351:33 0.00086647
17 *309:29 la_data_out[21] 2.04875e-05
18 *309:29 *313:25 0.0527719
19 *309:29 *330:21 0.0528157
20 *309:47 la_data_out[21] 0.00119797
21 *309:47 la_data_out[23] 2.3601e-05
22 *309:47 *319:25 0.000380105
23 *309:47 *321:23 0.000415846
24 *309:47 *326:33 3.59538e-06
25 *309:47 *330:21 0.000470142
26 *309:47 *332:11 0.000356086
27 *309:47 *336:23 0.000186853
28 *309:47 *338:39 2.12358e-05
29 la_data_out[11] *309:47 0.00672324
30 *272:25 *309:27 0.000207968
31 *272:25 *309:29 0.000438156
32 *272:25 *309:47 0.000141767
33 *294:29 *309:29 0.000739607
34 *294:47 *309:47 0
35 *305:13 *309:13 0.0100898
36 *306:13 *309:13 0.000333357
37 *307:13 *309:13 0.0111544
*RES
1 *739:la_data_out_o[18] *309:11 3.54483 
2 *309:11 *309:13 112.23 
3 *309:13 *309:27 25.485 
4 *309:27 *309:29 595.403 
5 *309:29 *309:47 44.4869 
6 *309:47 la_data_out[18] 9.2325 
*END

*D_NET *310 0.125886
*CONN
*P la_data_out[19] O
*I *739:la_data_out_o[19] O *D ntt_wb_bridge
*CAP
1 la_data_out[19] 0.0359299
2 *739:la_data_out_o[19] 0.00975137
3 *310:31 0.0456813
4 *310:31 *311:21 0.000606459
5 *310:31 *313:13 0.000557944
6 *310:31 *314:13 0.0129909
7 *310:31 *322:19 9.36583e-05
8 *310:31 *327:33 1.19759e-05
9 *310:31 *330:13 0.000107019
10 *310:31 *333:13 0.000238782
11 *310:31 *344:27 0.000373291
12 *310:31 *344:31 0.00330169
13 *310:31 *355:17 0.00011201
14 *310:31 *366:25 0.000389866
15 *310:31 *377:17 0.000419217
16 *310:31 *388:25 0.000490588
17 *310:31 *399:25 0.00054095
18 *272:23 *310:31 1.17267e-05
19 *283:11 *310:31 0.000153311
20 *294:11 *310:31 4.08474e-05
21 *303:11 *310:31 4.27041e-05
22 *303:13 *310:31 0.00139194
23 *304:11 *310:31 6.96262e-05
24 *304:13 *310:31 0.00139412
25 *305:11 *310:31 9.65483e-05
26 *305:13 *310:31 0.00106703
27 *305:23 *310:31 0.00579904
28 *306:11 *310:31 0.00012347
29 *306:13 *310:31 0.00114653
30 *307:11 *310:31 8.63365e-05
31 *307:13 *310:31 0.000693147
32 *307:23 *310:31 0.000887405
33 *308:15 *310:31 0.000162706
34 *309:11 *310:31 0.000204237
35 *309:13 *310:31 0.000918036
*RES
1 *739:la_data_out_o[19] *310:31 37.1179 
2 *310:31 la_data_out[19] 636.023 
*END

*D_NET *311 0.125742
*CONN
*P la_data_out[1] O
*I *739:la_data_out_o[1] O *D ntt_wb_bridge
*CAP
1 la_data_out[1] 0.0351208
2 *739:la_data_out_o[1] 0.00067019
3 *311:25 0.0351208
4 *311:23 0.0152568
5 *311:21 0.015927
6 *311:21 *314:13 0.000768948
7 *311:21 *322:19 0.00113776
8 *311:21 *337:39 0.00105548
9 *311:21 *342:33 2.80106e-05
10 *311:23 *322:21 0
11 *311:23 *327:33 2.08692e-05
12 *311:23 *337:39 0.0018451
13 *311:23 *344:27 1.40885e-05
14 *311:23 *344:31 0.0160903
15 *118:95 la_data_out[1] 0.0017296
16 *272:23 *311:21 3.58598e-05
17 *303:13 *311:21 0.000179376
18 *304:13 *311:21 0.000135187
19 *310:31 *311:21 0.000606459
*RES
1 *739:la_data_out_o[1] *311:21 19.3599 
2 *311:21 *311:23 52.0119 
3 *311:23 *311:25 0.5 
4 *311:25 la_data_out[1] 633.982 
*END

*D_NET *312 0.117486
*CONN
*P la_data_out[20] O
*I *739:la_data_out_o[20] O *D ntt_wb_bridge
*CAP
1 la_data_out[20] 0.0361801
2 *739:la_data_out_o[20] 0.00546373
3 *312:15 0.0416439
4 *312:15 *314:13 0.000138958
5 *312:15 *326:15 0.00170375
6 *312:15 *328:15 0.00299461
7 *312:15 *331:15 0.00104035
8 *312:15 *333:15 0.00120963
9 *312:15 *337:19 0.00245512
10 *312:15 *344:27 0.00350844
11 *312:15 *377:17 0.00058234
12 *312:15 *377:25 0.000363346
13 *312:15 *388:25 0.00217657
14 *308:15 *312:15 0.0180253
*RES
1 *739:la_data_out_o[20] *312:15 35.7937 
2 *312:15 la_data_out[20] 640.102 
*END

*D_NET *313 0.181625
*CONN
*P la_data_out[21] O
*I *739:la_data_out_o[21] O *D ntt_wb_bridge
*CAP
1 la_data_out[21] 0.00227541
2 *739:la_data_out_o[21] 0.000251281
3 *313:25 0.0113921
4 *313:23 0.0095211
5 *313:13 0.00260783
6 *313:11 0.00245472
7 la_data_out[21] la_data_out[38] 0.00102419
8 la_data_out[21] la_data_out[39] 0.00136814
9 la_data_out[21] *330:21 5.41179e-05
10 la_data_out[21] *335:23 0
11 la_data_out[21] *335:37 1.7635e-05
12 la_data_out[21] *337:51 5.27579e-05
13 la_data_out[21] *338:45 0.000246025
14 la_data_out[21] *342:47 0.000171462
15 *313:11 *314:13 0.000194836
16 *313:11 *330:13 0.000241706
17 *313:13 *329:13 0
18 *313:13 *330:13 0.0137599
19 *313:13 *399:25 0.000109416
20 *313:23 *320:29 1.48494e-05
21 *313:23 *330:19 0.000505539
22 *313:23 *366:25 0.000101037
23 *313:25 *330:19 9.77672e-05
24 *313:25 *330:21 1.32711e-05
25 *313:25 *342:47 0.000576973
26 *313:25 *351:35 0.0516205
27 la_data_out[11] la_data_out[21] 0.00230891
28 la_data_out[12] la_data_out[21] 9.59362e-06
29 la_data_out[13] la_data_out[21] 0.00139088
30 *272:23 *313:13 1.91597e-05
31 *272:23 *313:23 0.000432118
32 *272:25 la_data_out[21] 0.000126782
33 *272:25 *313:25 0.0115047
34 *272:39 la_data_out[21] 0.000102589
35 *294:47 la_data_out[21] 0
36 *307:13 *313:13 0.0110951
37 *309:13 *313:13 0.000596056
38 *309:27 *313:23 0.00076969
39 *309:27 *313:25 4.83632e-05
40 *309:29 la_data_out[21] 2.04875e-05
41 *309:29 *313:25 0.0527719
42 *309:47 la_data_out[21] 0.00119797
43 *310:31 *313:13 0.000557944
*RES
1 *739:la_data_out_o[21] *313:11 3.51023 
2 *313:11 *313:13 127.065 
3 *313:13 *313:23 18.5375 
4 *313:23 *313:25 596.295 
5 *313:25 la_data_out[21] 32.5931 
*END

*D_NET *314 0.118563
*CONN
*P la_data_out[22] O
*I *739:la_data_out_o[22] O *D ntt_wb_bridge
*CAP
1 la_data_out[22] 0.0360029
2 *739:la_data_out_o[22] 0.00433215
3 *314:13 0.040335
4 *314:13 *329:13 0.00301104
5 *314:13 *332:9 0.000106369
6 *314:13 *334:21 0.0165855
7 *314:13 *377:29 0.000862054
8 *283:13 *314:13 0.00145649
9 *303:13 *314:13 0.000102874
10 *304:13 *314:13 0.000110612
11 *305:23 *314:13 0.00143765
12 *308:15 *314:13 0.00012701
13 *310:31 *314:13 0.0129909
14 *311:21 *314:13 0.000768948
15 *312:15 *314:13 0.000138958
16 *313:11 *314:13 0.000194836
*RES
1 *739:la_data_out_o[22] *314:13 28.3793 
2 *314:13 la_data_out[22] 637.042 
*END

*D_NET *315 0.137958
*CONN
*P la_data_out[23] O
*I *739:la_data_out_o[23] O *D ntt_wb_bridge
*CAP
1 la_data_out[23] 0.0235908
2 *739:la_data_out_o[23] 0.000808185
3 *315:25 0.02439
4 *315:15 0.00360409
5 *315:13 0.00361302
6 la_data_out[23] *331:17 0
7 la_data_out[23] *332:11 0.055733
8 la_data_out[23] *336:21 0
9 la_data_out[23] *339:37 0.000261602
10 la_data_out[23] *340:35 0
11 la_data_out[23] *346:37 0
12 la_data_out[23] *689:29 1.0129e-05
13 la_data_out[23] *729:21 0.000235804
14 *315:13 *316:17 0
15 *315:13 *334:21 4.77564e-05
16 *315:15 *335:15 0.00184998
17 *315:15 *340:33 0.0010217
18 *315:15 *342:29 0.000236591
19 *315:15 *351:23 0.0143694
20 *315:15 *737:34 0.00452884
21 *315:25 *338:37 0.00250737
22 *315:25 *343:29 5.46363e-05
23 *315:25 *726:23 0.000390213
24 *315:25 *736:23 0.000313562
25 *134:21 la_data_out[23] 0.000368223
26 *303:17 la_data_out[23] 0
27 *309:47 la_data_out[23] 2.3601e-05
*RES
1 *739:la_data_out_o[23] *315:13 12.5146 
2 *315:13 *315:15 132.24 
3 *315:15 *315:25 8.58783 
4 *315:25 la_data_out[23] 648.773 
*END

*D_NET *316 0.183682
*CONN
*P la_data_out[24] O
*I *739:la_data_out_o[24] O *D ntt_wb_bridge
*CAP
1 la_data_out[24] 0.00974056
2 *739:la_data_out_o[24] 0.000575104
3 *316:33 0.010833
4 *316:19 0.00302676
5 *316:17 0.00250944
6 la_data_out[24] *323:21 2.04875e-05
7 la_data_out[24] *323:23 0.0543261
8 la_data_out[24] *325:29 1.23015e-05
9 la_data_out[24] *328:23 0.0541227
10 la_data_out[24] *330:21 2.68568e-05
11 *316:17 *334:21 6.49273e-05
12 *316:19 *317:15 0.0154922
13 *316:19 *341:29 0.00232683
14 *316:19 *355:17 0.00379251
15 *316:19 *366:25 0.00087908
16 *316:19 *399:25 0.000348731
17 *316:19 *689:31 0
18 *316:19 *728:15 0.0115655
19 *316:33 *323:21 0.000691566
20 *316:33 *327:33 0.000149398
21 *316:33 *328:23 0.000388466
22 *316:33 *355:37 0.00164999
23 *135:20 la_data_out[24] 0.004073
24 *272:25 la_data_out[24] 0.00293558
25 *294:29 la_data_out[24] 0.00413071
26 *315:13 *316:17 0
*RES
1 *739:la_data_out_o[24] *316:17 9.09403 
2 *316:17 *316:19 140.175 
3 *316:19 *316:33 33.7575 
4 *316:33 la_data_out[24] 622.763 
*END

*D_NET *317 0.188916
*CONN
*P la_data_out[25] O
*I *739:la_data_out_o[25] O *D ntt_wb_bridge
*CAP
1 la_data_out[25] 0.000977639
2 *739:la_data_out_o[25] 0.00056688
3 *317:29 0.00179559
4 *317:19 0.00988378
5 *317:17 0.00906583
6 *317:15 0.0024487
7 *317:13 0.00301558
8 la_data_out[25] la_data_out[26] 0.0020664
9 la_data_out[25] *329:27 0.000167193
10 la_data_out[25] *330:27 0.00150813
11 la_data_out[25] *338:45 0.000232066
12 *317:13 *334:21 0.000148479
13 *317:15 *318:15 0.0173555
14 *317:15 *341:29 0.00224259
15 *317:15 *366:25 0.000817984
16 *317:15 *399:25 0.000422373
17 *317:15 *689:31 0
18 *317:15 *728:15 0.000318548
19 *317:19 *318:19 0.0532724
20 *317:19 *319:19 2.52026e-05
21 *317:19 *321:19 0.0531914
22 *317:19 *335:21 6.57653e-06
23 *317:19 *335:23 0
24 *317:19 *388:25 0.00054017
25 *317:29 *318:19 0.00262952
26 *317:29 *329:17 0.00265494
27 *80:41 *317:29 9.24781e-05
28 *126:25 *317:19 0.000102302
29 *272:39 la_data_out[25] 0.000310419
30 *283:25 *317:19 0.0074071
31 *283:25 *317:29 0.000137349
32 *294:47 la_data_out[25] 2.01934e-05
33 *316:19 *317:15 0.0154922
*RES
1 *739:la_data_out_o[25] *317:13 8.8365 
2 *317:13 *317:15 157.08 
3 *317:15 *317:17 2 
4 *317:17 *317:19 600.503 
5 *317:19 *317:29 34.497 
6 *317:29 la_data_out[25] 33.08 
*END

*D_NET *318 0.187173
*CONN
*P la_data_out[26] O
*I *739:la_data_out_o[26] O *D ntt_wb_bridge
*CAP
1 la_data_out[26] 0.00121467
2 *739:la_data_out_o[26] 0.00056633
3 *318:19 0.0110395
4 *318:17 0.00982481
5 *318:15 0.00232268
6 *318:13 0.00288901
7 la_data_out[26] *326:33 0.000139569
8 la_data_out[26] *328:27 0.00293293
9 la_data_out[26] *329:27 6.76938e-05
10 la_data_out[26] *330:27 0.000859251
11 la_data_out[26] *336:39 0.00020279
12 la_data_out[26] *337:51 0.000418457
13 *318:13 *334:21 0.00019884
14 *318:15 *319:15 0.000217683
15 *318:15 *320:15 0.0174714
16 *318:15 *321:15 8.73389e-06
17 *318:15 *333:15 0.000671386
18 *318:15 *339:25 0.00291681
19 *318:15 *366:25 0.000333179
20 *318:15 *728:15 0.000238566
21 *318:19 *321:19 1.13341e-05
22 *318:19 *326:19 0.0530655
23 *318:19 *326:31 0.00253681
24 *318:19 *329:17 1.46216e-05
25 *318:19 *350:31 0
26 *318:19 *388:25 0.000475461
27 la_data_out[25] la_data_out[26] 0.0020664
28 *126:25 *318:19 0.000109931
29 *283:25 *318:19 0.000866389
30 *294:47 la_data_out[26] 0.000235382
31 *317:15 *318:15 0.0173555
32 *317:19 *318:19 0.0532724
33 *317:29 *318:19 0.00262952
*RES
1 *739:la_data_out_o[26] *318:13 8.65497 
2 *318:13 *318:15 162.6 
3 *318:15 *318:17 2 
4 *318:17 *318:19 631.23 
5 *318:19 la_data_out[26] 48.445 
*END

*D_NET *319 0.189065
*CONN
*P la_data_out[27] O
*I *739:la_data_out_o[27] O *D ntt_wb_bridge
*CAP
1 la_data_out[27] 0.000873708
2 *739:la_data_out_o[27] 0.000544176
3 *319:25 0.0025576
4 *319:19 0.0113586
5 *319:17 0.00967473
6 *319:15 0.00233779
7 *319:13 0.00288197
8 *319:13 *334:21 0.000249202
9 *319:15 *320:15 0.0180459
10 *319:15 *321:15 0.000351997
11 *319:15 *323:15 0.0178175
12 *319:15 *333:15 0.000364834
13 *319:15 *337:19 0.00360938
14 *319:19 *321:19 0.0556272
15 *319:19 *324:19 0.0555835
16 *319:19 *335:23 4.47211e-05
17 *319:19 *388:25 0.000467769
18 *319:25 *320:35 0.00424527
19 *319:25 *321:23 0.000113993
20 *319:25 *334:29 0.000854431
21 *319:25 *350:35 0
22 *283:25 *319:19 0.000837434
23 *309:47 *319:25 0.000380105
24 *317:19 *319:19 2.52026e-05
25 *318:15 *319:15 0.000217683
*RES
1 *739:la_data_out_o[27] *319:13 8.21843 
2 *319:13 *319:15 166.74 
3 *319:15 *319:17 2 
4 *319:17 *319:19 628.425 
5 *319:19 *319:25 48.61 
6 *319:25 la_data_out[27] 14.205 
*END

*D_NET *320 0.202078
*CONN
*P la_data_out[28] O
*I *739:la_data_out_o[28] O *D ntt_wb_bridge
*CAP
1 la_data_out[28] 0.000855127
2 *739:la_data_out_o[28] 0.0005824
3 *320:35 0.00189142
4 *320:33 0.0010363
5 *320:31 0.00862068
6 *320:29 0.00945137
7 *320:15 0.00322305
8 *320:13 0.00297476
9 *320:13 *334:21 0.000299563
10 *320:15 *323:15 0.000341577
11 *320:15 *333:15 0.000490101
12 *320:15 *339:25 0.00293216
13 *320:15 *366:25 0.000334283
14 *320:15 *728:15 0.000395293
15 *320:29 *323:21 0
16 *320:29 *328:21 0.00013964
17 *320:29 *328:23 0.0011599
18 *320:29 *330:19 0.00121265
19 *320:29 *351:33 7.49315e-05
20 *320:31 *323:23 0.0542519
21 *320:31 *325:19 0.0533883
22 *320:31 *325:29 0.000751817
23 *320:31 *327:33 0.00437428
24 *320:35 *321:23 0.00570789
25 *320:35 *334:29 0.00124995
26 *84:19 *320:31 7.68851e-05
27 *135:20 *320:31 0.00352707
28 *272:25 *320:29 0.000157071
29 *294:29 *320:31 0.00280062
30 *309:27 *320:29 0
31 *313:23 *320:29 1.48494e-05
32 *318:15 *320:15 0.0174714
33 *319:15 *320:15 0.0180459
34 *319:25 *320:35 0.00424527
*RES
1 *739:la_data_out_o[28] *320:13 8.5469 
2 *320:13 *320:15 168.465 
3 *320:15 *320:29 29.4 
4 *320:29 *320:31 608.025 
5 *320:31 *320:33 2 
6 *320:33 *320:35 52.545 
7 *320:35 la_data_out[28] 15.95 
*END

*D_NET *321 0.201031
*CONN
*P la_data_out[29] O
*I *739:la_data_out_o[29] O *D ntt_wb_bridge
*CAP
1 la_data_out[29] 0.00085762
2 *739:la_data_out_o[29] 0.000549227
3 *321:23 0.00223839
4 *321:21 0.00138077
5 *321:19 0.00967638
6 *321:17 0.00967638
7 *321:15 0.00253137
8 *321:13 0.0030806
9 *321:13 *334:21 0.000349924
10 *321:15 *323:15 0.0189582
11 *321:15 *324:15 0.000348119
12 *321:15 *325:15 0.0189185
13 *321:15 *326:15 1.74678e-05
14 *321:15 *337:19 0.00309562
15 *321:15 *388:25 0.000869582
16 *321:19 *324:19 2.16968e-05
17 *321:19 *326:31 0.00245185
18 *321:19 *388:25 0.000502653
19 *321:23 *323:27 0.00716819
20 *321:23 *324:23 0.00028982
21 *321:23 *326:33 2.38055e-05
22 *321:23 *334:29 0.00169629
23 *283:25 *321:19 0.000899885
24 *309:47 *321:23 0.000415846
25 *317:19 *321:19 0.0531914
26 *318:15 *321:15 8.73389e-06
27 *318:19 *321:19 1.13341e-05
28 *319:15 *321:15 0.000351997
29 *319:19 *321:19 0.0556272
30 *319:25 *321:23 0.000113993
31 *320:35 *321:23 0.00570789
*RES
1 *739:la_data_out_o[29] *321:13 7.85537 
2 *321:13 *321:15 177.435 
3 *321:15 *321:17 2 
4 *321:17 *321:19 628.425 
5 *321:19 *321:21 2 
6 *321:21 *321:23 71.52 
7 *321:23 la_data_out[29] 15.695 
*END

*D_NET *322 0.134285
*CONN
*P la_data_out[2] O
*I *739:la_data_out_o[2] O *D ntt_wb_bridge
*CAP
1 la_data_out[2] 0.0366482
2 *739:la_data_out_o[2] 0.00082459
3 *322:23 0.0366482
4 *322:21 0.0129541
5 *322:19 0.0137787
6 *322:19 *325:19 0.000369544
7 *322:19 *327:33 6.47158e-06
8 *322:19 *330:13 0.000550764
9 *322:19 *337:39 0.000593917
10 *322:19 *342:33 0
11 *322:21 *337:39 0.000366591
12 *322:21 *355:37 0.000291374
13 *322:21 *355:41 0.0284714
14 *80:105 la_data_out[2] 0.000343955
15 *272:23 *322:19 0.00112695
16 *272:23 *322:21 7.89356e-05
17 *310:31 *322:19 9.36583e-05
18 *311:21 *322:19 0.00113776
19 *311:23 *322:21 0
*RES
1 *739:la_data_out_o[2] *322:19 29.1722 
2 *322:19 *322:21 49.6812 
3 *322:21 *322:23 0.5 
4 *322:23 la_data_out[2] 630.922 
*END

*D_NET *323 0.211484
*CONN
*P la_data_out[30] O
*I *739:la_data_out_o[30] O *D ntt_wb_bridge
*CAP
1 la_data_out[30] 0.00081718
2 *739:la_data_out_o[30] 0.00058222
3 *323:27 0.00223716
4 *323:25 0.00141998
5 *323:23 0.00863875
6 *323:21 0.00916496
7 *323:15 0.00321959
8 *323:13 0.0032756
9 *323:13 *334:21 0.000400285
10 *323:15 *325:15 0.000341577
11 *323:15 *333:15 0.000398034
12 *323:15 *337:19 0.00355043
13 *323:15 *339:25 0.000132257
14 *323:15 *728:15 0
15 *323:21 *325:19 0.00167267
16 *323:21 *327:33 0.000171534
17 *323:21 *328:21 0.000469064
18 *323:21 *328:23 0.000111242
19 *323:21 *337:39 0.000104236
20 *323:21 *342:33 0
21 *323:23 *325:19 1.32711e-05
22 *323:23 *325:29 2.03376e-05
23 *323:23 *327:33 0.00407071
24 *323:27 *324:23 0.00863086
25 *323:27 *334:29 0.0018759
26 la_data_out[24] *323:21 2.04875e-05
27 la_data_out[24] *323:23 0.0543261
28 *135:20 *323:23 0.00379011
29 *294:29 *323:23 0.00280062
30 *316:33 *323:21 0.000691566
31 *319:15 *323:15 0.0178175
32 *320:15 *323:15 0.000341577
33 *320:29 *323:21 0
34 *320:31 *323:23 0.0542519
35 *321:15 *323:15 0.0189582
36 *321:23 *323:27 0.00716819
*RES
1 *739:la_data_out_o[30] *323:13 8.18383 
2 *323:13 *323:15 176.745 
3 *323:15 *323:21 22.5725 
4 *323:21 *323:23 608.917 
5 *323:23 *323:25 2 
6 *323:25 *323:27 79.455 
7 *323:27 la_data_out[30] 15.44 
*END

*D_NET *324 0.210178
*CONN
*P la_data_out[31] O
*I *739:la_data_out_o[31] O *D ntt_wb_bridge
*CAP
1 la_data_out[31] 0.000816136
2 *739:la_data_out_o[31] 0.00046924
3 *324:23 0.00256489
4 *324:21 0.00174876
5 *324:19 0.00968223
6 *324:17 0.00968223
7 *324:15 0.00268112
8 *324:13 0.00315036
9 *324:13 *325:13 0
10 *324:13 *334:21 0.000250938
11 *324:15 *325:15 0.0202541
12 *324:15 *326:15 0.000436375
13 *324:15 *327:15 0.0201008
14 *324:15 *337:19 0.00312006
15 *324:15 *388:25 0.0010211
16 *324:19 *326:31 1.5102e-05
17 *324:19 *335:23 0.0556636
18 *324:19 *366:25 0.000165398
19 *324:19 *388:25 0.000233601
20 *324:23 *325:31 0.0100179
21 *324:23 *326:33 0.000161298
22 *324:23 *335:37 0.00270082
23 *283:25 *324:19 0.000368223
24 *319:19 *324:19 0.0555835
25 *321:15 *324:15 0.000348119
26 *321:19 *324:19 2.16968e-05
27 *321:23 *324:23 0.00028982
28 *323:27 *324:23 0.00863086
*RES
1 *739:la_data_out_o[31] *324:13 7.20097 
2 *324:13 *324:15 188.82 
3 *324:15 *324:17 2 
4 *324:17 *324:19 628.425 
5 *324:19 *324:21 2 
6 *324:21 *324:23 97.74 
7 *324:23 la_data_out[31] 15.185 
*END

*D_NET *325 0.195784
*CONN
*P la_data_out[32] O
*I *739:la_data_out_o[32] O *D ntt_wb_bridge
*CAP
1 la_data_out[32] 0.000794531
2 *739:la_data_out_o[32] 0.000588714
3 *325:31 0.00257217
4 *325:29 0.00214544
5 *325:19 0.0112714
6 *325:17 0.0109036
7 *325:15 0.00283465
8 *325:13 0.00342336
9 *325:13 *334:21 0.000501008
10 *325:15 *327:15 0.000226431
11 *325:15 *337:19 0.00337731
12 *325:15 *339:25 0.000337042
13 *325:15 *388:25 0.000787296
14 *325:15 *728:15 0
15 *325:19 *327:33 0
16 *325:19 *327:35 0.0202501
17 *325:19 *342:33 0
18 *325:19 *342:35 0.00965574
19 *325:19 *344:27 0.000120346
20 *325:19 *355:37 1.88656e-05
21 *325:29 *327:35 0.000594448
22 *325:31 *326:33 0.011443
23 *325:31 *335:37 0.00250964
24 la_data_out[24] *325:29 1.23015e-05
25 *82:19 *325:19 0.000190119
26 *84:19 *325:29 7.56599e-05
27 *86:27 *325:19 6.33291e-05
28 *294:29 *325:19 0.00533938
29 *320:31 *325:19 0.0533883
30 *320:31 *325:29 0.000751817
31 *321:15 *325:15 0.0189185
32 *322:19 *325:19 0.000369544
33 *323:15 *325:15 0.000341577
34 *323:21 *325:19 0.00167267
35 *323:23 *325:19 1.32711e-05
36 *323:23 *325:29 2.03376e-05
37 *324:13 *325:13 0
38 *324:15 *325:15 0.0202541
39 *324:23 *325:31 0.0100179
*RES
1 *739:la_data_out_o[32] *325:13 7.82077 
2 *325:13 *325:15 186.75 
3 *325:15 *325:17 2 
4 *325:17 *325:19 617.843 
5 *325:19 *325:29 14.2025 
6 *325:29 *325:31 105.33 
7 *325:31 la_data_out[32] 14.93 
*END

*D_NET *326 0.230984
*CONN
*P la_data_out[33] O
*I *739:la_data_out_o[33] O *D ntt_wb_bridge
*CAP
1 la_data_out[33] 0.000772926
2 *739:la_data_out_o[33] 0.000506002
3 *326:33 0.00293403
4 *326:31 0.00297278
5 *326:19 0.00987331
6 *326:17 0.00906164
7 *326:15 0.00293285
8 *326:13 0.00343885
9 *326:13 *329:13 0.000101753
10 *326:13 *334:21 0.000551369
11 *326:15 *327:15 0.0210533
12 *326:15 *328:15 0.0212677
13 *326:15 *337:19 0.00125954
14 *326:15 *344:27 0.000662147
15 *326:15 *377:25 0.000268848
16 *326:15 *388:25 0.000274976
17 *326:19 *329:17 0.0527891
18 *326:19 *350:31 0
19 *326:19 *388:25 0.000147915
20 *326:31 *335:23 0
21 *326:33 *327:39 0.0128279
22 *326:33 *328:27 0.000127783
23 *326:33 *335:37 0.000306234
24 *326:33 *336:39 0.0028839
25 *326:33 *337:51 0.000196612
26 la_data_out[26] *326:33 0.000139569
27 *126:25 *326:19 0.0115014
28 *283:17 *326:19 5.69248e-06
29 *283:25 *326:31 0.000151845
30 *294:47 *326:33 0.000115345
31 *309:47 *326:33 3.59538e-06
32 *312:15 *326:15 0.00170375
33 *318:19 *326:19 0.0530655
34 *318:19 *326:31 0.00253681
35 *321:15 *326:15 1.74678e-05
36 *321:19 *326:31 0.00245185
37 *321:23 *326:33 2.38055e-05
38 *324:15 *326:15 0.000436375
39 *324:19 *326:31 1.5102e-05
40 *324:23 *326:33 0.000161298
41 *325:31 *326:33 0.011443
*RES
1 *739:la_data_out_o[33] *326:13 7.12923 
2 *326:13 *326:15 199.17 
3 *326:15 *326:17 2 
4 *326:17 *326:19 597.825 
5 *326:19 *326:31 37.605 
6 *326:31 *326:33 125.34 
7 *326:33 la_data_out[33] 14.675 
*END

*D_NET *327 0.187061
*CONN
*P la_data_out[34] O
*I *739:la_data_out_o[34] O *D ntt_wb_bridge
*CAP
1 la_data_out[34] 0.000730761
2 *739:la_data_out_o[34] 0.000646792
3 *327:39 0.00288365
4 *327:37 0.00215289
5 *327:35 0.0152589
6 *327:33 0.0296541
7 *327:15 0.0173577
8 *327:13 0.00360927
9 *327:13 *329:13 0.000112775
10 *327:13 *334:21 0.000577182
11 *327:15 *328:15 0.000341577
12 *327:15 *337:19 0.003165
13 *327:15 *388:25 0.00111256
14 *327:15 *728:15 0
15 *327:33 *341:53 0
16 *327:33 *342:33 0.00112512
17 *327:33 *342:35 0.00383672
18 *327:33 *342:45 1.91769e-05
19 *327:33 *344:27 0.000451352
20 *327:33 *366:25 0
21 *327:39 *328:27 0.014253
22 *327:39 *336:39 0.002956
23 *327:39 *337:51 0.000160538
24 *82:19 *327:35 0.000188459
25 *86:27 *327:35 6.1908e-05
26 *135:20 *327:35 0.00253875
27 *272:25 *327:33 0
28 *294:29 *327:33 8.29027e-06
29 *310:31 *327:33 1.19759e-05
30 *311:23 *327:33 2.08692e-05
31 *316:33 *327:33 0.000149398
32 *320:31 *327:33 0.00437428
33 *322:19 *327:33 6.47158e-06
34 *323:21 *327:33 0.000171534
35 *323:23 *327:33 0.00407071
36 *324:15 *327:15 0.0201008
37 *325:15 *327:15 0.000226431
38 *325:19 *327:33 0
39 *325:19 *327:35 0.0202501
40 *325:29 *327:35 0.000594448
41 *326:15 *327:15 0.0210533
42 *326:33 *327:39 0.0128279
*RES
1 *739:la_data_out_o[34] *327:13 7.4577 
2 *327:13 *327:15 195.72 
3 *327:15 *327:33 47.3341 
4 *327:33 *327:35 405.427 
5 *327:35 *327:37 2 
6 *327:37 *327:39 131.205 
7 *327:39 la_data_out[34] 14.42 
*END

*D_NET *328 0.217931
*CONN
*P la_data_out[35] O
*I *739:la_data_out_o[35] O *D ntt_wb_bridge
*CAP
1 la_data_out[35] 0.000709156
2 *739:la_data_out_o[35] 0.000332696
3 *328:27 0.00311512
4 *328:25 0.00240597
5 *328:23 0.00960553
6 *328:21 0.00992326
7 *328:15 0.00714051
8 *328:13 0.00715548
9 *328:13 *334:21 5.29662e-05
10 *328:15 *337:19 0.00213258
11 *328:15 *344:27 0.000599919
12 *328:15 *377:17 0.00286315
13 *328:15 *377:25 0.00141786
14 *328:15 *388:25 0.000245041
15 *328:23 *330:19 0.000104335
16 *328:23 *330:21 0.0538602
17 *328:23 *337:39 5.75043e-05
18 *328:27 *329:29 0.0129765
19 *328:27 *330:27 8.34281e-06
20 *328:27 *336:39 0.000181159
21 *328:27 *337:51 0.00358172
22 la_data_out[24] *328:23 0.0541227
23 la_data_out[26] *328:27 0.00293293
24 *135:20 *328:23 0.000633958
25 *272:25 *328:23 0.000269569
26 *294:13 *328:15 0
27 *294:29 *328:23 0.000249774
28 *312:15 *328:15 0.00299461
29 *316:33 *328:23 0.000388466
30 *320:29 *328:21 0.00013964
31 *320:29 *328:23 0.0011599
32 *323:21 *328:21 0.000469064
33 *323:21 *328:23 0.000111242
34 *326:15 *328:15 0.0212677
35 *326:33 *328:27 0.000127783
36 *327:15 *328:15 0.000341577
37 *327:39 *328:27 0.014253
*RES
1 *739:la_data_out_o[35] *328:13 6.14717 
2 *328:13 *328:15 208.14 
3 *328:15 *328:21 8.6375 
4 *328:21 *328:23 622.943 
5 *328:23 *328:25 2 
6 *328:25 *328:27 146.73 
7 *328:27 la_data_out[35] 14.165 
*END

*D_NET *329 0.216167
*CONN
*P la_data_out[36] O
*I *739:la_data_out_o[36] O *D ntt_wb_bridge
*CAP
1 la_data_out[36] 0.000687551
2 *739:la_data_out_o[36] 0.000164737
3 *329:29 0.00288188
4 *329:27 0.00345772
5 *329:17 0.0109691
6 *329:15 0.0097057
7 *329:13 0.00883067
8 *329:11 0.00899541
9 *329:11 *334:21 2.38557e-05
10 *329:13 *330:13 0
11 *329:13 *334:21 0.000733016
12 *329:27 la_data_out[38] 0.00150265
13 *329:27 *330:27 0.00300654
14 *329:29 *330:27 0.000241267
15 *329:29 *330:29 0.0139889
16 *329:29 *337:51 0.00316024
17 la_data_out[25] *329:27 0.000167193
18 la_data_out[26] *329:27 6.76938e-05
19 *126:25 *329:17 0.00115011
20 *272:39 *329:27 0.000347943
21 *283:13 *329:13 0.00796488
22 *283:17 *329:17 3.12599e-05
23 *283:25 *329:17 0.000153582
24 *283:43 *329:17 2.4669e-05
25 *294:13 *329:13 0.000569816
26 *303:13 *329:13 0.00941373
27 *304:13 *329:13 0.000341577
28 *306:13 *329:13 0.000473732
29 *306:17 *329:17 0.0552329
30 *309:13 *329:13 0.00021799
31 *313:13 *329:13 0
32 *314:13 *329:13 0.00301104
33 *317:29 *329:17 0.00265494
34 *318:19 *329:17 1.46216e-05
35 *326:13 *329:13 0.000101753
36 *326:19 *329:17 0.0527891
37 *327:13 *329:13 0.000112775
38 *328:27 *329:29 0.0129765
*RES
1 *739:la_data_out_o[36] *329:11 4.39423 
2 *329:11 *329:13 220.215 
3 *329:13 *329:15 2 
4 *329:15 *329:17 626.64 
5 *329:17 *329:27 40.44 
6 *329:27 *329:29 132.585 
7 *329:29 la_data_out[36] 13.91 
*END

*D_NET *330 0.213231
*CONN
*P la_data_out[37] O
*I *739:la_data_out_o[37] O *D ntt_wb_bridge
*CAP
1 la_data_out[37] 0.000665947
2 *739:la_data_out_o[37] 9.29193e-05
3 *330:29 0.00601056
4 *330:27 0.00595448
5 *330:21 0.0100247
6 *330:19 0.00973735
7 *330:13 0.00961895
8 *330:11 0.00938941
9 *330:11 *334:21 2.31728e-05
10 *330:13 *337:39 5.95138e-05
11 *330:13 *399:25 0.000212334
12 *330:21 *335:37 7.96104e-06
13 *330:27 *338:45 0.000633739
14 *330:29 *338:45 0.00740267
15 la_data_out[21] *330:21 5.41179e-05
16 la_data_out[24] *330:21 2.68568e-05
17 la_data_out[25] *330:27 0.00150813
18 la_data_out[26] *330:27 0.000859251
19 *272:23 *330:13 0.00138101
20 *272:23 *330:19 0.000430756
21 *272:25 *330:19 0.000168785
22 *272:25 *330:21 0.000415422
23 *294:29 *330:21 0.0075692
24 *309:29 *330:21 0.0528157
25 *309:47 *330:21 0.000470142
26 *310:31 *330:13 0.000107019
27 *313:11 *330:13 0.000241706
28 *313:13 *330:13 0.0137599
29 *313:23 *330:19 0.000505539
30 *313:25 *330:19 9.77672e-05
31 *313:25 *330:21 1.32711e-05
32 *320:29 *330:19 0.00121265
33 *322:19 *330:13 0.000550764
34 *328:23 *330:19 0.000104335
35 *328:23 *330:21 0.0538602
36 *328:27 *330:27 8.34281e-06
37 *329:13 *330:13 0
38 *329:27 *330:27 0.00300654
39 *329:29 *330:27 0.000241267
40 *329:29 *330:29 0.0139889
*RES
1 *739:la_data_out_o[37] *330:11 2.9377 
2 *330:11 *330:13 219.87 
3 *330:13 *330:19 18.4925 
4 *330:19 *330:21 608.407 
5 *330:21 *330:27 33.86 
6 *330:27 *330:29 142.245 
7 *330:29 la_data_out[37] 13.655 
*END

*D_NET *331 0.212942
*CONN
*P la_data_out[38] O
*I *739:la_data_out_o[38] O *D ntt_wb_bridge
*CAP
1 la_data_out[38] 0.00549005
2 *739:la_data_out_o[38] 0.00590433
3 *331:17 0.017195
4 *331:15 0.0176093
5 la_data_out[38] la_data_out[39] 0.0114246
6 la_data_out[38] *338:45 0.0218103
7 *331:15 *332:9 0.0267688
8 *331:15 *334:21 0.000180267
9 *331:15 *337:19 0.00244161
10 *331:17 *334:23 0.0318458
11 *331:17 *340:35 0
12 *331:17 *343:31 6.12395e-05
13 *331:17 *346:37 0.0545907
14 *331:17 *350:31 0
15 *331:17 *399:25 0.000103095
16 la_data_out[21] la_data_out[38] 0.00102419
17 la_data_out[23] *331:17 0
18 *134:21 *331:17 0.000769582
19 *283:43 *331:17 0
20 *303:17 *331:17 1.60293e-05
21 *308:15 *331:15 0.0131638
22 *312:15 *331:15 0.00104035
23 *329:27 la_data_out[38] 0.00150265
*RES
1 *739:la_data_out_o[38] *331:15 44.603 
2 *331:15 *331:17 628.425 
3 *331:17 la_data_out[38] 45.0125 
*END

*D_NET *332 0.209487
*CONN
*P la_data_out[39] O
*I *739:la_data_out_o[39] O *D ntt_wb_bridge
*CAP
1 la_data_out[39] 0.0108069
2 *739:la_data_out_o[39] 0.00477069
3 *332:11 0.0221764
4 *332:9 0.0161402
5 la_data_out[39] *338:45 0.000574085
6 *332:9 *334:21 0.0270909
7 *332:11 *336:21 7.24439e-06
8 *332:11 *336:23 0.0309543
9 *332:11 *339:37 0.000745902
10 la_data_out[21] la_data_out[39] 0.00136814
11 la_data_out[23] *332:11 0.055733
12 la_data_out[38] la_data_out[39] 0.0114246
13 *83:19 *332:11 0.000185015
14 *305:23 *332:11 1.79483e-05
15 *307:23 *332:11 6.02792e-05
16 *308:15 *332:9 0.000199855
17 *309:47 *332:11 0.000356086
18 *314:13 *332:9 0.000106369
19 *331:15 *332:9 0.0267688
*RES
1 *739:la_data_out_o[39] *332:9 42.3405 
2 *332:9 *332:11 628.935 
3 *332:11 la_data_out[39] 46.7893 
*END

*D_NET *333 0.12211
*CONN
*P la_data_out[3] O
*I *739:la_data_out_o[3] O *D ntt_wb_bridge
*CAP
1 la_data_out[3] 0.0374721
2 *739:la_data_out_o[3] 0.000758689
3 *333:17 0.0374721
4 *333:15 0.0179923
5 *333:13 0.018751
6 *333:15 *337:19 0.000619626
7 *333:15 *339:37 0
8 *333:15 *366:25 0.00360907
9 *333:15 *377:29 0
10 *333:15 *388:25 0.00184191
11 *333:15 *399:25 0.00022073
12 *308:15 *333:15 0
13 *310:31 *333:13 0.000238782
14 *312:15 *333:15 0.00120963
15 *318:15 *333:15 0.000671386
16 *319:15 *333:15 0.000364834
17 *320:15 *333:15 0.000490101
18 *323:15 *333:15 0.000398034
*RES
1 *739:la_data_out_o[3] *333:13 7.67847 
2 *333:13 *333:15 51.8371 
3 *333:15 *333:17 0.5 
4 *333:17 la_data_out[3] 642.653 
*END

*D_NET *334 0.2263
*CONN
*P la_data_out[40] O
*I *739:la_data_out_o[40] O *D ntt_wb_bridge
*CAP
1 la_data_out[40] 0.000761619
2 *739:la_data_out_o[40] 0.00645243
3 *334:29 0.0105258
4 *334:23 0.0210646
5 *334:21 0.0177529
6 *334:21 *337:19 0.000916065
7 *334:23 *340:35 3.35901e-05
8 *334:29 *335:37 0.0237343
9 *334:29 *337:51 0.000386475
10 la_data_out[15] *334:29 0.000520664
11 *134:21 *334:23 0.000739607
12 *137:13 *334:29 0
13 *272:39 *334:29 0.000192654
14 *283:43 *334:29 0.00018751
15 *294:13 *334:21 0.00154626
16 *294:47 *334:29 0.000305227
17 *303:17 *334:23 0.0553287
18 *314:13 *334:21 0.0165855
19 *315:13 *334:21 4.77564e-05
20 *316:17 *334:21 6.49273e-05
21 *317:13 *334:21 0.000148479
22 *318:13 *334:21 0.00019884
23 *319:13 *334:21 0.000249202
24 *319:25 *334:29 0.000854431
25 *320:13 *334:21 0.000299563
26 *320:35 *334:29 0.00124995
27 *321:13 *334:21 0.000349924
28 *321:23 *334:29 0.00169629
29 *323:13 *334:21 0.000400285
30 *323:27 *334:29 0.0018759
31 *324:13 *334:21 0.000250938
32 *325:13 *334:21 0.000501008
33 *326:13 *334:21 0.000551369
34 *327:13 *334:21 0.000577182
35 *328:13 *334:21 5.29662e-05
36 *329:11 *334:21 2.38557e-05
37 *329:13 *334:21 0.000733016
38 *330:11 *334:21 2.31728e-05
39 *331:15 *334:21 0.000180267
40 *331:17 *334:23 0.0318458
41 *332:9 *334:21 0.0270909
*RES
1 *739:la_data_out_o[40] *334:21 45.8014 
2 *334:21 *334:23 624.855 
3 *334:23 *334:29 38.8531 
4 *334:29 la_data_out[40] 13.3125 
*END

*D_NET *335 0.244559
*CONN
*P la_data_out[41] O
*I *739:la_data_out_o[41] O *D ntt_wb_bridge
*CAP
1 la_data_out[41] 0.000727051
2 *739:la_data_out_o[41] 0.00671146
3 *335:37 0.00567069
4 *335:23 0.0270594
5 *335:21 0.0223449
6 *335:15 0.00694059
7 *335:15 *336:17 0.00876606
8 *335:15 *337:19 0.000355134
9 *335:15 *338:21 0.000127533
10 *335:15 *339:25 0.00050999
11 *335:15 *339:37 0.00484203
12 *335:15 *340:29 0.0126584
13 *335:15 *340:33 0.00604506
14 *335:15 *342:29 0.000662121
15 *335:15 *348:27 0.000321381
16 *335:15 *351:23 0.00320564
17 *335:15 *689:31 0.00524881
18 *335:15 *726:15 0.0055741
19 *335:15 *729:15 0.00481377
20 *335:15 *736:15 0.00469245
21 *335:15 *737:34 0.00264426
22 *335:21 *351:33 0
23 *335:23 *342:45 0
24 *335:23 *342:47 0
25 *335:23 *351:33 6.4992e-05
26 *335:23 *366:25 0.000147915
27 *335:23 *388:25 0.000233601
28 *335:37 *336:39 0.0239869
29 *335:37 *337:51 0.00120685
30 la_data_out[21] *335:23 0
31 la_data_out[21] *335:37 1.7635e-05
32 *126:25 *335:23 0.000368223
33 *294:19 *335:23 0.00170899
34 *294:21 *335:23 0
35 *294:47 *335:23 7.91423e-05
36 *315:15 *335:15 0.00184998
37 *317:19 *335:21 6.57653e-06
38 *317:19 *335:23 0
39 *319:19 *335:23 4.47211e-05
40 *324:19 *335:23 0.0556636
41 *324:23 *335:37 0.00270082
42 *325:31 *335:37 0.00250964
43 *326:31 *335:23 0
44 *326:33 *335:37 0.000306234
45 *330:21 *335:37 7.96104e-06
46 *334:29 *335:37 0.0237343
*RES
1 *739:la_data_out_o[41] *335:15 49.6837 
2 *335:15 *335:21 4.115 
3 *335:21 *335:23 630.338 
4 *335:23 *335:37 46.5332 
5 *335:37 la_data_out[41] 12.8025 
*END

*D_NET *336 0.233432
*CONN
*P la_data_out[42] O
*I *739:la_data_out_o[42] O *D ntt_wb_bridge
*CAP
1 la_data_out[42] 0.000692483
2 *739:la_data_out_o[42] 0.00091003
3 *336:39 0.00655582
4 *336:23 0.0168307
5 *336:21 0.0114488
6 *336:17 0.0113904
7 *336:13 0.0118189
8 *336:13 *337:19 0.000462573
9 *336:17 *338:37 0.00579534
10 *336:17 *339:37 8.54866e-05
11 *336:17 *340:29 0.000121097
12 *336:17 *340:33 0.000894197
13 *336:17 *341:37 0.000460174
14 *336:17 *342:29 0.00617202
15 *336:17 *343:29 0
16 *336:17 *716:23 0
17 *336:21 *339:37 0.00203292
18 *336:21 *349:39 0.00224392
19 *336:21 *689:29 0.000101306
20 *336:23 *338:39 0.0541095
21 *336:23 *349:39 1.18585e-05
22 *336:39 *337:51 0.0280291
23 *336:39 *338:45 0.00258598
24 la_data_out[23] *336:21 0
25 la_data_out[26] *336:39 0.00020279
26 *83:19 *336:23 0.000186436
27 *97:21 *336:23 0.000368223
28 *309:47 *336:23 0.000186853
29 *326:33 *336:39 0.0028839
30 *327:39 *336:39 0.002956
31 *328:27 *336:39 0.000181159
32 *332:11 *336:21 7.24439e-06
33 *332:11 *336:23 0.0309543
34 *335:15 *336:17 0.00876606
35 *335:37 *336:39 0.0239869
*RES
1 *739:la_data_out_o[42] *336:13 10.0546 
2 *336:13 *336:17 44.3545 
3 *336:17 *336:21 26.055 
4 *336:21 *336:23 610.575 
5 *336:23 *336:39 46.5405 
6 *336:39 la_data_out[42] 12.2925 
*END

*D_NET *337 0.286133
*CONN
*P la_data_out[43] O
*I *739:la_data_out_o[43] O *D ntt_wb_bridge
*CAP
1 la_data_out[43] 0.000657915
2 *739:la_data_out_o[43] 0.00880311
3 *337:51 0.00670506
4 *337:41 0.0155038
5 *337:39 0.0114636
6 *337:19 0.01081
7 *337:19 *339:25 0.0172935
8 *337:19 *366:25 0.00142082
9 *337:19 *388:25 0.00269061
10 *337:19 *399:25 0.000148545
11 *337:39 *338:37 0.00103219
12 *337:39 *339:39 0.000155933
13 *337:41 *338:39 0
14 *337:41 *339:39 0.053031
15 *337:51 *338:45 0.0269946
16 la_data_out[12] *337:51 0.000550739
17 la_data_out[13] *337:41 0.000620218
18 la_data_out[15] *337:51 5.15079e-06
19 la_data_out[21] *337:51 5.27579e-05
20 la_data_out[26] *337:51 0.000418457
21 *97:21 *337:41 0.00251634
22 *272:23 *337:39 3.59784e-05
23 *272:39 *337:51 0.000195179
24 *283:43 *337:51 0.000189811
25 *304:23 *337:39 0.00131039
26 *304:23 *337:41 0.000737741
27 *304:25 *337:41 0.0514258
28 *311:21 *337:39 0.00105548
29 *311:23 *337:39 0.0018451
30 *312:15 *337:19 0.00245512
31 *319:15 *337:19 0.00360938
32 *321:15 *337:19 0.00309562
33 *322:19 *337:39 0.000593917
34 *322:21 *337:39 0.000366591
35 *323:15 *337:19 0.00355043
36 *323:21 *337:39 0.000104236
37 *324:15 *337:19 0.00312006
38 *325:15 *337:19 0.00337731
39 *326:15 *337:19 0.00125954
40 *326:33 *337:51 0.000196612
41 *327:15 *337:19 0.003165
42 *327:39 *337:51 0.000160538
43 *328:15 *337:19 0.00213258
44 *328:23 *337:39 5.75043e-05
45 *328:27 *337:51 0.00358172
46 *329:29 *337:51 0.00316024
47 *330:13 *337:39 5.95138e-05
48 *331:15 *337:19 0.00244161
49 *333:15 *337:19 0.000619626
50 *334:21 *337:19 0.000916065
51 *334:29 *337:51 0.000386475
52 *335:15 *337:19 0.000355134
53 *335:37 *337:51 0.00120685
54 *336:13 *337:19 0.000462573
55 *336:39 *337:51 0.0280291
*RES
1 *739:la_data_out_o[43] *337:19 48.1981 
2 *337:19 *337:39 46.7488 
3 *337:39 *337:41 606.495 
4 *337:41 *337:51 46.6481 
5 *337:51 la_data_out[43] 11.7825 
*END

*D_NET *338 0.286593
*CONN
*P la_data_out[44] O
*I *739:la_data_out_o[44] O *D ntt_wb_bridge
*CAP
1 la_data_out[44] 0.000623347
2 *739:la_data_out_o[44] 0.00483095
3 *338:45 0.00873553
4 *338:39 0.017633
5 *338:37 0.0120614
6 *338:21 0.00737158
7 *338:21 *339:25 0.000907332
8 *338:21 *339:37 9.54817e-06
9 *338:21 *340:29 0.0238878
10 *338:21 *341:29 0.000646421
11 *338:21 *342:25 0.0227268
12 *338:21 *345:21 0.000243936
13 *338:21 *346:23 0
14 *338:21 *346:25 0.00249675
15 *338:21 *351:15 0.00168156
16 *338:21 *399:25 0.000923904
17 *338:37 *339:37 5.16211e-05
18 *338:37 *339:39 7.15608e-05
19 *338:37 *341:37 0.00160932
20 *338:37 *343:29 0
21 *338:37 *347:37 0.000873907
22 *338:37 *377:25 0
23 *338:37 *689:23 0.000190239
24 *338:37 *726:23 2.64558e-06
25 *338:37 *729:23 1.14185e-05
26 *338:37 *737:34 0.00104779
27 *338:39 *339:39 0
28 *338:39 *349:39 0.0532208
29 la_data_out[13] *338:39 0
30 la_data_out[21] *338:45 0.000246025
31 la_data_out[25] *338:45 0.000232066
32 la_data_out[38] *338:45 0.0218103
33 la_data_out[39] *338:45 0.000574085
34 *97:21 *338:39 0.000368223
35 *304:23 *338:37 0.00029297
36 *309:47 *338:39 2.12358e-05
37 *315:25 *338:37 0.00250737
38 *330:27 *338:45 0.000633739
39 *330:29 *338:45 0.00740267
40 *335:15 *338:21 0.000127533
41 *336:17 *338:37 0.00579534
42 *336:23 *338:39 0.0541095
43 *336:39 *338:45 0.00258598
44 *337:39 *338:37 0.00103219
45 *337:41 *338:39 0
46 *337:51 *338:45 0.0269946
*RES
1 *739:la_data_out_o[44] *338:21 48.6208 
2 *338:21 *338:37 42.9716 
3 *338:37 *338:39 610.703 
4 *338:39 *338:45 48.4671 
5 *338:45 la_data_out[44] 11.2725 
*END

*D_NET *339 0.282931
*CONN
*P la_data_out[45] O
*I *739:la_data_out_o[45] O *D ntt_wb_bridge
*CAP
1 la_data_out[45] 0.00118535
2 *739:la_data_out_o[45] 0.00541631
3 *339:43 0.00633142
4 *339:41 0.00514608
5 *339:39 0.00917321
6 *339:37 0.0111783
7 *339:25 0.00742141
8 *339:25 *740:mem_we 0
9 *339:25 *341:29 0.023008
10 *339:25 *341:37 0
11 *339:25 *345:21 0.000716532
12 *339:25 *346:23 0.000129592
13 *339:25 *399:25 0.00151116
14 *339:37 *340:33 0.000497626
15 *339:37 *399:25 0.00228162
16 *339:37 *689:31 0.00106469
17 *339:37 *729:15 0.00104174
18 *339:39 *347:37 0.0531784
19 *339:39 *349:39 4.32459e-05
20 *339:43 *340:39 0.0332315
21 io_oeb[37] *339:43 0.000141635
22 la_data_out[23] *339:37 0.000261602
23 *97:21 *339:39 0.000659651
24 *134:17 *339:43 0.0331755
25 *305:23 *339:37 1.92979e-05
26 *307:23 *339:37 6.16289e-05
27 *318:15 *339:25 0.00291681
28 *320:15 *339:25 0.00293216
29 *323:15 *339:25 0.000132257
30 *325:15 *339:25 0.000337042
31 *332:11 *339:37 0.000745902
32 *333:15 *339:37 0
33 *335:15 *339:25 0.00050999
34 *335:15 *339:37 0.00484203
35 *336:17 *339:37 8.54866e-05
36 *336:21 *339:37 0.00203292
37 *337:19 *339:25 0.0172935
38 *337:39 *339:39 0.000155933
39 *337:41 *339:39 0.053031
40 *338:21 *339:25 0.000907332
41 *338:21 *339:37 9.54817e-06
42 *338:37 *339:37 5.16211e-05
43 *338:37 *339:39 7.15608e-05
44 *338:39 *339:39 0
*RES
1 *739:la_data_out_o[45] *339:25 46.6413 
2 *339:25 *339:37 38.3196 
3 *339:37 *339:39 601.778 
4 *339:39 *339:41 0.5 
5 *339:41 *339:43 49.9143 
6 *339:43 la_data_out[45] 21.4625 
*END

*D_NET *340 0.278866
*CONN
*P la_data_out[46] O
*I *739:la_data_out_o[46] O *D ntt_wb_bridge
*CAP
1 la_data_out[46] 0.00121343
2 *739:la_data_out_o[46] 0.00590495
3 *340:39 0.00658926
4 *340:37 0.00537583
5 *340:35 0.0226585
6 *340:33 0.0238094
7 *340:29 0.0070559
8 *340:29 *341:29 0
9 *340:29 *341:37 0.000131341
10 *340:29 *342:25 0.000329038
11 *340:29 *345:21 1.17037e-05
12 *340:29 *346:25 0.000188847
13 *340:29 *347:23 0.000899218
14 *340:29 *348:25 0.0001742
15 *340:29 *348:27 0.00226023
16 *340:29 *350:19 0.00245989
17 *340:29 *689:31 0.000746796
18 *340:29 *726:15 0.000635658
19 *340:29 *729:15 0.00068845
20 *340:29 *736:15 0.00127764
21 *340:33 *342:29 0.00503798
22 *340:33 *351:23 0.000934993
23 *340:35 *346:37 0
24 *340:39 *343:35 0.0345307
25 *340:39 *349:43 0.0155406
26 io_oeb[37] *340:39 8.156e-05
27 la_data_out[23] *340:35 0
28 *134:17 *340:39 0.000868768
29 *134:21 *340:35 0.00646203
30 *303:17 *340:35 0.0546078
31 *315:15 *340:33 0.0010217
32 *331:17 *340:35 0
33 *334:23 *340:35 3.35901e-05
34 *335:15 *340:29 0.0126584
35 *335:15 *340:33 0.00604506
36 *336:17 *340:29 0.000121097
37 *336:17 *340:33 0.000894197
38 *338:21 *340:29 0.0238878
39 *339:37 *340:33 0.000497626
40 *339:43 *340:39 0.0332315
*RES
1 *739:la_data_out_o[46] *340:29 49.1353 
2 *340:29 *340:33 10.6764 
3 *340:33 *340:35 625.365 
4 *340:35 *340:37 0.5 
5 *340:37 *340:39 51.4875 
6 *340:39 la_data_out[46] 21.9725 
*END

*D_NET *341 0.25512
*CONN
*P la_data_out[47] O
*I *739:la_data_out_o[47] O *D ntt_wb_bridge
*CAP
1 la_data_out[47] 0.00140259
2 *739:la_data_out_o[47] 0.0045037
3 *341:59 0.00816409
4 *341:57 0.0067615
5 *341:55 0.0139357
6 *341:53 0.0304925
7 *341:37 0.0182494
8 *341:29 0.00619629
9 *341:29 *342:25 0.000105891
10 *341:29 *343:21 0.0236646
11 *341:29 *345:21 8.67624e-06
12 *341:29 *346:23 0.00100353
13 *341:29 *348:25 0.000595865
14 *341:29 *349:25 5.33545e-05
15 *341:29 *399:25 0.00115446
16 *341:29 *728:15 0.00230734
17 *341:37 *343:29 0.00111903
18 *341:53 *594:9 0.000126939
19 *341:53 *595:9 0.000126939
20 *341:55 *350:31 0
21 *341:59 *345:39 0.0340027
22 *107:18 *341:59 0.0187698
23 *124:21 *341:55 7.6956e-05
24 *126:25 *341:55 0.00741891
25 *135:14 *341:59 0.00743628
26 *140:21 *341:59 0.00249613
27 *294:29 *341:53 3.42271e-05
28 *306:17 *341:55 0.0344884
29 *316:19 *341:29 0.00232683
30 *317:15 *341:29 0.00224259
31 *327:33 *341:53 0
32 *336:17 *341:37 0.000460174
33 *338:21 *341:29 0.000646421
34 *338:37 *341:37 0.00160932
35 *339:25 *341:29 0.023008
36 *339:25 *341:37 0
37 *340:29 *341:29 0
38 *340:29 *341:37 0.000131341
*RES
1 *739:la_data_out_o[47] *341:29 45.5377 
2 *341:29 *341:37 13.0167 
3 *341:37 *341:53 44.3111 
4 *341:53 *341:55 388.853 
5 *341:55 *341:57 2 
6 *341:57 *341:59 313.02 
7 *341:59 la_data_out[47] 25.895 
*END

*D_NET *342 0.280413
*CONN
*P la_data_out[48] O
*I *739:la_data_out_o[48] O *D ntt_wb_bridge
*CAP
1 la_data_out[48] 0.00128994
2 *739:la_data_out_o[48] 0.00461179
3 *342:51 0.00775763
4 *342:49 0.00646769
5 *342:47 0.0131615
6 *342:45 0.0147453
7 *342:35 0.00840416
8 *342:33 0.00935685
9 *342:29 0.00367778
10 *342:25 0.00575306
11 *342:25 *343:21 0.0253023
12 *342:25 *343:29 8.5051e-05
13 *342:25 *345:21 3.22902e-05
14 *342:25 *347:23 0.00210381
15 *342:25 *347:25 0.00229844
16 *342:25 *349:27 0.00245224
17 *342:29 *351:23 0.000258121
18 *342:29 *737:34 0.000461102
19 *342:45 *351:35 0.00160896
20 *342:45 *595:9 0
21 *342:45 *596:9 7.50295e-05
22 *342:47 *351:35 0.0310265
23 *342:51 *343:35 0.0355744
24 io_oeb[37] *342:51 0.0355744
25 la_data_out[21] *342:47 0.000171462
26 *84:13 *342:51 0.00775737
27 *85:13 *342:51 0.00847092
28 *85:19 *342:47 9.53201e-05
29 *272:25 *342:45 0.000425283
30 *272:25 *342:47 0.000739607
31 *294:21 *342:45 5.33545e-05
32 *294:27 *342:45 0.000109407
33 *311:21 *342:33 2.80106e-05
34 *313:25 *342:47 0.000576973
35 *315:15 *342:29 0.000236591
36 *322:19 *342:33 0
37 *323:21 *342:33 0
38 *325:19 *342:33 0
39 *325:19 *342:35 0.00965574
40 *327:33 *342:33 0.00112512
41 *327:33 *342:35 0.00383672
42 *327:33 *342:45 1.91769e-05
43 *335:15 *342:29 0.000662121
44 *335:23 *342:45 0
45 *335:23 *342:47 0
46 *336:17 *342:29 0.00617202
47 *338:21 *342:25 0.0227268
48 *340:29 *342:25 0.000329038
49 *340:33 *342:29 0.00503798
50 *341:29 *342:25 0.000105891
*RES
1 *739:la_data_out_o[48] *342:25 49.2423 
2 *342:25 *342:29 9.91893 
3 *342:29 *342:33 44.235 
4 *342:33 *342:35 185.595 
5 *342:35 *342:45 34.1522 
6 *342:45 *342:47 364.515 
7 *342:47 *342:49 0.5 
8 *342:49 *342:51 54.2843 
9 *342:51 la_data_out[48] 22.9925 
*END

*D_NET *343 0.331243
*CONN
*P la_data_out[49] O
*I *739:la_data_out_o[49] O *D ntt_wb_bridge
*CAP
1 la_data_out[49] 0.00124673
2 *739:la_data_out_o[49] 0.0048114
3 *343:35 0.00793815
4 *343:33 0.00669142
5 *343:31 0.00969608
6 *343:29 0.0122699
7 *343:21 0.0073852
8 *343:21 *345:21 0.000145408
9 *343:21 *345:23 0.00267033
10 *343:21 *347:23 0.000477859
11 *343:21 *348:25 0.00176379
12 *343:21 *350:17 0
13 *343:21 *728:15 0.00471801
14 *343:29 *347:33 0.00167313
15 *343:29 *348:35 0.00183302
16 *343:29 *349:35 0.00280259
17 *343:29 *350:27 0.00128588
18 *343:29 *716:23 0.00772229
19 *343:29 *736:23 0.00182533
20 *343:31 *346:37 0.0556406
21 *343:31 *348:39 0.0557427
22 *343:31 *350:31 5.02814e-06
23 *343:31 *399:25 0.000143229
24 *343:35 *348:43 0.00807002
25 *343:35 *349:43 0.0018957
26 io_oeb[37] *343:35 0.00126027
27 *83:13 *343:35 0.00881202
28 *134:17 *343:35 0.0019564
29 *134:21 *343:31 0.000368223
30 *315:25 *343:29 5.46363e-05
31 *331:17 *343:31 6.12395e-05
32 *336:17 *343:29 0
33 *338:37 *343:29 0
34 *340:39 *343:35 0.0345307
35 *341:29 *343:21 0.0236646
36 *341:37 *343:29 0.00111903
37 *342:25 *343:21 0.0253023
38 *342:25 *343:29 8.5051e-05
39 *342:51 *343:35 0.0355744
*RES
1 *739:la_data_out_o[49] *343:21 45.1062 
2 *343:21 *343:29 20.5046 
3 *343:29 *343:31 629.445 
4 *343:31 *343:33 0.5 
5 *343:33 *343:35 57.8385 
6 *343:35 la_data_out[49] 22.4825 
*END

*D_NET *344 0.131274
*CONN
*P la_data_out[4] O
*I *739:la_data_out_o[4] O *D ntt_wb_bridge
*CAP
1 la_data_out[4] 0.0364344
2 *739:la_data_out_o[4] 0.00172156
3 *344:31 0.04698
4 *344:27 0.0122672
5 *344:27 *388:25 0.00204524
6 *344:31 *377:29 0.00234653
7 *80:89 la_data_out[4] 0
8 *118:87 la_data_out[4] 0.00166894
9 *305:23 *344:31 0.00179854
10 *307:23 *344:31 0.000889544
11 *310:31 *344:27 0.000373291
12 *310:31 *344:31 0.00330169
13 *311:23 *344:27 1.40885e-05
14 *311:23 *344:31 0.0160903
15 *312:15 *344:27 0.00350844
16 *325:19 *344:27 0.000120346
17 *326:15 *344:27 0.000662147
18 *327:33 *344:27 0.000451352
19 *328:15 *344:27 0.000599919
*RES
1 *739:la_data_out_o[4] *344:27 17.0626 
2 *344:27 *344:31 45.6073 
3 *344:31 la_data_out[4] 635.003 
*END

*D_NET *345 0.311546
*CONN
*P la_data_out[50] O
*I *739:la_data_out_o[50] O *D ntt_wb_bridge
*CAP
1 la_data_out[50] 0.0013696
2 *739:la_data_out_o[50] 0.00210761
3 *345:39 0.00692907
4 *345:37 0.00555947
5 *345:35 0.00966245
6 *345:33 0.00966245
7 *345:31 0.00240203
8 *345:29 0.00278556
9 *345:23 0.00179647
10 *345:21 0.00352055
11 *345:21 *346:23 0.00163303
12 *345:21 *350:17 0.000890319
13 *345:23 *346:25 0.000319903
14 *345:23 *347:25 0.0102427
15 *345:23 *689:31 0
16 *345:23 *728:15 0.0112003
17 *345:29 *346:31 0.000581085
18 *345:31 *346:33 0.0181511
19 *345:31 *347:33 0.000366993
20 *345:31 *348:35 0.0180745
21 *345:31 *716:23 0.00411526
22 *345:35 *347:37 0.055649
23 *345:35 *349:39 0.055605
24 *345:39 *346:41 0.0386844
25 *345:39 *347:41 0.000302165
26 *97:21 *345:35 0.000368223
27 *107:18 *345:39 0.00256152
28 *135:14 *345:39 0.00917317
29 *338:21 *345:21 0.000243936
30 *339:25 *345:21 0.000716532
31 *340:29 *345:21 1.17037e-05
32 *341:29 *345:21 8.67624e-06
33 *341:59 *345:39 0.0340027
34 *342:25 *345:21 3.22902e-05
35 *343:21 *345:21 0.000145408
36 *343:21 *345:23 0.00267033
*RES
1 *739:la_data_out_o[50] *345:21 14.8901 
2 *345:21 *345:23 101.19 
3 *345:23 *345:29 12.01 
4 *345:29 *345:31 169.155 
5 *345:31 *345:33 2 
6 *345:33 *345:35 628.425 
7 *345:35 *345:37 2 
8 *345:37 *345:39 361.32 
9 *345:39 la_data_out[50] 25.64 
*END

*D_NET *346 0.304902
*CONN
*P la_data_out[51] O
*I *739:la_data_out_o[51] O *D ntt_wb_bridge
*CAP
1 la_data_out[51] 0.00135107
2 *739:la_data_out_o[51] 0.00150091
3 *346:41 0.00670675
4 *346:39 0.00535568
5 *346:37 0.00995933
6 *346:35 0.00995933
7 *346:33 0.00586252
8 *346:31 0.00619415
9 *346:25 0.00195799
10 *346:23 0.00312727
11 *346:23 *347:23 0
12 *346:23 *348:25 5.39156e-06
13 *346:23 *349:25 0.00180046
14 *346:23 *350:17 0.00159618
15 *346:25 *347:25 0.000676968
16 *346:25 *348:27 0.0108415
17 *346:25 *349:27 0.00071139
18 *346:25 *351:15 0.00801126
19 *346:25 *689:31 0.000369489
20 *346:33 *348:35 1.91597e-05
21 *346:33 *716:23 0.00436991
22 *346:37 *348:39 1.60802e-05
23 *346:37 *399:25 0.000103095
24 *346:37 *729:21 0
25 *346:41 *347:41 0.0401471
26 io_oeb[37] *346:41 0.00952349
27 la_data_out[23] *346:37 0
28 *107:18 *346:41 0.000599731
29 *134:21 *346:37 0.000716173
30 *331:17 *346:37 0.0545907
31 *338:21 *346:23 0
32 *338:21 *346:25 0.00249675
33 *339:25 *346:23 0.000129592
34 *340:29 *346:25 0.000188847
35 *340:35 *346:37 0
36 *341:29 *346:23 0.00100353
37 *343:31 *346:37 0.0556406
38 *345:21 *346:23 0.00163303
39 *345:23 *346:25 0.000319903
40 *345:29 *346:31 0.000581085
41 *345:31 *346:33 0.0181511
42 *345:39 *346:41 0.0386844
*RES
1 *739:la_data_out_o[51] *346:23 16.0393 
2 *346:23 *346:25 106.02 
3 *346:25 *346:31 11.245 
4 *346:31 *346:33 164.325 
5 *346:33 *346:35 2 
6 *346:35 *346:37 628.935 
7 *346:37 *346:39 2 
8 *346:39 *346:41 369.6 
9 *346:41 la_data_out[51] 25.385 
*END

*D_NET *347 0.32311
*CONN
*P la_data_out[52] O
*I *739:la_data_out_o[52] O *D ntt_wb_bridge
*CAP
1 la_data_out[52] 0.00132519
2 *739:la_data_out_o[52] 0.0022839
3 *347:41 0.0071931
4 *347:39 0.00586791
5 *347:37 0.00991864
6 *347:35 0.00991864
7 *347:33 0.00260815
8 *347:31 0.0029567
9 *347:25 0.00180621
10 *347:23 0.00374155
11 *347:23 *348:25 0.000996382
12 *347:23 *350:17 0.000182432
13 *347:23 *350:19 0.000322744
14 *347:23 *351:15 0.000659071
15 *347:23 *689:31 0.000658646
16 *347:23 *726:15 0.000466496
17 *347:23 *729:15 0.000486825
18 *347:23 *736:15 0.000466496
19 *347:25 *349:27 0.00950422
20 *347:25 *728:15 0.000513422
21 *347:31 *348:33 0.000519684
22 *347:33 *348:35 0.0186491
23 *347:33 *349:35 0.000364045
24 *347:33 *350:27 0.0186473
25 *347:33 *716:23 0.00283949
26 *347:37 *349:39 2.04649e-05
27 *347:37 *737:40 0
28 *347:41 *349:43 9.90777e-06
29 io_oeb[37] *347:41 0.00904179
30 *83:13 *347:41 0.000461121
31 *85:13 *347:41 0.0407301
32 *97:21 *347:37 0.000613871
33 *107:18 *347:41 0.000446554
34 *338:37 *347:37 0.000873907
35 *339:39 *347:37 0.0531784
36 *340:29 *347:23 0.000899218
37 *342:25 *347:23 0.00210381
38 *342:25 *347:25 0.00229844
39 *343:21 *347:23 0.000477859
40 *343:29 *347:33 0.00167313
41 *345:23 *347:25 0.0102427
42 *345:31 *347:33 0.000366993
43 *345:35 *347:37 0.055649
44 *345:39 *347:41 0.000302165
45 *346:23 *347:23 0
46 *346:25 *347:25 0.000676968
47 *346:41 *347:41 0.0401471
*RES
1 *739:la_data_out_o[52] *347:23 16.079 
2 *347:23 *347:25 100.5 
3 *347:25 *347:31 11.245 
4 *347:31 *347:33 178.125 
5 *347:33 *347:35 2 
6 *347:35 *347:37 628.425 
7 *347:37 *347:39 2 
8 *347:39 *347:41 388.23 
9 *347:41 la_data_out[52] 25.13 
*END

*D_NET *348 0.326983
*CONN
*P la_data_out[53] O
*I *739:la_data_out_o[53] O *D ntt_wb_bridge
*CAP
1 la_data_out[53] 0.00124583
2 *739:la_data_out_o[53] 0.00176789
3 *348:43 0.00689678
4 *348:41 0.00565095
5 *348:39 0.00971627
6 *348:37 0.00971627
7 *348:35 0.00253369
8 *348:33 0.00282527
9 *348:27 0.00185391
10 *348:25 0.00333022
11 *348:25 *349:25 0.00102914
12 *348:25 *350:17 0.000212071
13 *348:25 *351:13 0.00183011
14 *348:25 *728:15 0.00059145
15 *348:27 *350:19 0.0103487
16 *348:27 *351:15 0.000702314
17 *348:27 *689:31 0.00100304
18 *348:35 *716:23 0.00248583
19 *348:39 *350:31 0.0557313
20 *348:39 *399:25 0.00015391
21 *348:43 *349:43 0.0429628
22 io_oeb[37] *348:43 0.00118362
23 *83:13 *348:43 0.0429598
24 *134:21 *348:39 0.000368223
25 *335:15 *348:27 0.000321381
26 *340:29 *348:25 0.0001742
27 *340:29 *348:27 0.00226023
28 *341:29 *348:25 0.000595865
29 *343:21 *348:25 0.00176379
30 *343:29 *348:35 0.00183302
31 *343:31 *348:39 0.0557427
32 *343:35 *348:43 0.00807002
33 *345:31 *348:35 0.0180745
34 *346:23 *348:25 5.39156e-06
35 *346:25 *348:27 0.0108415
36 *346:33 *348:35 1.91597e-05
37 *346:37 *348:39 1.60802e-05
38 *347:23 *348:25 0.000996382
39 *347:31 *348:33 0.000519684
40 *347:33 *348:35 0.0186491
*RES
1 *739:la_data_out_o[53] *348:25 16.9994 
2 *348:25 *348:27 108.78 
3 *348:27 *348:33 10.48 
4 *348:33 *348:35 171.57 
5 *348:35 *348:37 2 
6 *348:37 *348:39 629.7 
7 *348:39 *348:41 2 
8 *348:41 *348:43 395.475 
9 *348:43 la_data_out[53] 24.11 
*END

*D_NET *349 0.306776
*CONN
*P la_data_out[54] O
*I *739:la_data_out_o[54] O *D ntt_wb_bridge
*CAP
1 la_data_out[54] 0.00122729
2 *739:la_data_out_o[54] 0.00161742
3 *349:43 0.0160717
4 *349:41 0.0148444
5 *349:39 0.0097052
6 *349:37 0.0097052
7 *349:35 0.00682545
8 *349:33 0.00713556
9 *349:27 0.00178177
10 *349:25 0.00308907
11 *349:25 *350:17 0.000872009
12 *349:25 *351:13 0.00242588
13 *349:27 *351:15 0.00979742
14 *349:27 *728:15 0.000613405
15 *349:33 *350:25 0.000458769
16 *349:35 *350:27 0.0202196
17 *349:35 *716:23 0.0053539
18 *349:35 *736:23 0.000853429
19 *349:39 *689:29 4.66155e-05
20 io_oeb[37] *349:43 0.00157304
21 *83:13 *349:43 0.00110604
22 *97:21 *349:39 0.000368223
23 *134:17 *349:43 0.000813111
24 *336:21 *349:39 0.00224392
25 *336:23 *349:39 1.18585e-05
26 *338:39 *349:39 0.0532208
27 *339:39 *349:39 4.32459e-05
28 *340:39 *349:43 0.0155406
29 *341:29 *349:25 5.33545e-05
30 *342:25 *349:27 0.00245224
31 *343:29 *349:35 0.00280259
32 *343:35 *349:43 0.0018957
33 *345:35 *349:39 0.055605
34 *346:23 *349:25 0.00180046
35 *346:25 *349:27 0.00071139
36 *347:25 *349:27 0.00950422
37 *347:33 *349:35 0.000364045
38 *347:37 *349:39 2.04649e-05
39 *347:41 *349:43 9.90777e-06
40 *348:25 *349:25 0.00102914
41 *348:43 *349:43 0.0429628
*RES
1 *739:la_data_out_o[54] *349:25 16.2496 
2 *349:25 *349:27 99.465 
3 *349:27 *349:33 10.48 
4 *349:33 *349:35 191.925 
5 *349:35 *349:37 2 
6 *349:37 *349:39 629.19 
7 *349:39 *349:41 2 
8 *349:41 *349:43 414.105 
9 *349:43 la_data_out[54] 23.855 
*END

*D_NET *350 0.240179
*CONN
*P la_data_out[55] O
*I *739:la_data_out_o[55] O *D ntt_wb_bridge
*CAP
1 la_data_out[55] 0.000922462
2 *739:la_data_out_o[55] 0.00186009
3 *350:35 0.0255385
4 *350:33 0.0246161
5 *350:31 0.0229985
6 *350:29 0.0229985
7 *350:27 0.00295229
8 *350:25 0.00319977
9 *350:19 0.00177924
10 *350:17 0.00339185
11 *350:17 *351:13 0.000323142
12 *350:19 *351:15 0.000651748
13 *350:19 *689:31 0.0119104
14 *350:27 *716:23 0.00285706
15 *350:27 *736:23 0.000413266
16 *350:31 *399:25 0.000165398
17 *124:21 *350:31 0
18 *134:21 *350:31 0.000368223
19 *283:17 *350:31 0
20 *306:17 *350:31 0
21 *318:19 *350:31 0
22 *319:25 *350:35 0
23 *326:19 *350:31 0
24 *331:17 *350:31 0
25 *340:29 *350:19 0.00245989
26 *341:55 *350:31 0
27 *343:21 *350:17 0
28 *343:29 *350:27 0.00128588
29 *343:31 *350:31 5.02814e-06
30 *345:21 *350:17 0.000890319
31 *346:23 *350:17 0.00159618
32 *347:23 *350:17 0.000182432
33 *347:23 *350:19 0.000322744
34 *347:33 *350:27 0.0186473
35 *348:25 *350:17 0.000212071
36 *348:27 *350:19 0.0103487
37 *348:39 *350:31 0.0557313
38 *349:25 *350:17 0.000872009
39 *349:33 *350:25 0.000458769
40 *349:35 *350:27 0.0202196
*RES
1 *739:la_data_out_o[55] *350:17 14.1735 
2 *350:17 *350:19 107.745 
3 *350:19 *350:25 9.715 
4 *350:25 *350:27 186.405 
5 *350:27 *350:29 2 
6 *350:29 *350:31 634.545 
7 *350:31 *350:33 2 
8 *350:33 *350:35 421.695 
9 *350:35 la_data_out[55] 18.755 
*END

*D_NET *351 0.289327
*CONN
*P la_data_out[56] O
*I *739:la_data_out_o[56] O *D ntt_wb_bridge
*CAP
1 la_data_out[56] 0.00214768
2 *739:la_data_out_o[56] 0.00173507
3 *351:39 0.017297
4 *351:37 0.0151493
5 *351:35 0.00904528
6 *351:33 0.0101746
7 *351:23 0.00477546
8 *351:21 0.00381659
9 *351:15 0.001873
10 *351:13 0.00343761
11 *351:13 *728:15 0.00134312
12 *351:15 *689:31 0.000222194
13 *351:15 *728:15 0.000534904
14 *351:23 *726:15 0.000569354
15 *351:23 *736:15 0.0196837
16 *351:23 *737:34 0.000723923
17 *351:33 *366:25 0.000161833
18 *86:13 *351:39 0.00334798
19 *86:27 *351:39 0
20 *87:13 *351:39 0.0351253
21 *87:51 *351:39 0.00071033
22 *94:13 *351:39 0.000129707
23 *100:21 la_data_out[56] 0.000600451
24 *116:29 *351:39 0.00197884
25 *141:25 *351:39 0.00361227
26 *143:43 *351:39 0.00165993
27 *272:25 *351:35 0.00114749
28 *294:19 *351:33 0.00169921
29 *294:19 *351:35 0
30 *294:21 *351:35 0.0165122
31 *309:27 *351:33 0.00086647
32 *313:25 *351:35 0.0516205
33 *315:15 *351:23 0.0143694
34 *320:29 *351:33 7.49315e-05
35 *335:15 *351:23 0.00320564
36 *335:21 *351:33 0
37 *335:23 *351:33 6.4992e-05
38 *338:21 *351:15 0.00168156
39 *340:33 *351:23 0.000934993
40 *342:29 *351:23 0.000258121
41 *342:45 *351:35 0.00160896
42 *342:47 *351:35 0.0310265
43 *346:25 *351:15 0.00801126
44 *347:23 *351:15 0.000659071
45 *348:25 *351:13 0.00183011
46 *348:27 *351:15 0.000702314
47 *349:25 *351:13 0.00242588
48 *349:27 *351:15 0.00979742
49 *350:17 *351:13 0.000323142
50 *350:19 *351:15 0.000651748
*RES
1 *739:la_data_out_o[56] *351:13 11.5357 
2 *351:13 *351:15 103.605 
3 *351:15 *351:21 6.145 
4 *351:21 *351:23 189.855 
5 *351:23 *351:33 32.6675 
6 *351:33 *351:35 581.122 
7 *351:35 *351:37 2 
8 *351:37 *351:39 427.215 
9 *351:39 la_data_out[56] 39.665 
*END

*D_NET *352 0.350152
*CONN
*P la_data_out[57] O
*I *739:la_data_out_o[57] O *D ntt_wb_bridge
*CAP
1 la_data_out[57] 0.00126343
2 *739:la_data_out_o[57] 0.00599849
3 *352:27 0.0100176
4 *352:25 0.00875418
5 *352:23 0.00939865
6 *352:21 0.0143663
7 *352:9 0.0109662
8 *352:9 *353:13 0
9 *352:9 *354:15 0.000257795
10 *352:9 *356:19 0.0283572
11 *352:9 *357:17 0.0277648
12 *352:9 *689:31 0.000387484
13 *352:9 *728:15 0.000549932
14 *352:9 *729:15 0.000387484
15 *352:21 *353:21 0.0198812
16 *352:21 *358:25 0.000156042
17 *352:21 *649:11 0.0184895
18 *352:21 *664:23 0.0031317
19 *352:21 *688:23 0.00288149
20 *352:23 *353:23 0.0562937
21 *352:23 *358:27 0.0565092
22 *352:23 *383:29 0
23 *352:23 *704:19 7.32446e-05
24 *352:27 *353:27 0.00329762
25 *352:27 *358:33 0.0169833
26 io_oeb[37] *352:27 0.0320002
27 *69:17 *352:27 0.000337667
28 *70:20 *352:27 0.00219858
29 *83:13 *352:27 0.00672088
30 *84:13 *352:27 0.00432648
31 *85:13 *352:27 0.0050689
32 *102:27 *352:21 0.00138514
33 *138:13 *352:27 0
34 *281:23 *352:27 0.0019477
*RES
1 *739:la_data_out_o[57] *352:9 47.4756 
2 *352:9 *352:21 44.8478 
3 *352:21 *352:23 635.565 
4 *352:23 *352:25 0.5 
5 *352:25 *352:27 58.2464 
6 *352:27 la_data_out[57] 22.9925 
*END

*D_NET *353 0.341221
*CONN
*P la_data_out[58] O
*I *739:la_data_out_o[58] O *D ntt_wb_bridge
*CAP
1 la_data_out[58] 0.00138546
2 *739:la_data_out_o[58] 0.00616082
3 *353:27 0.010555
4 *353:25 0.00916953
5 *353:23 0.0154166
6 *353:21 0.0218894
7 *353:13 0.0126336
8 *353:13 *354:13 0.000547896
9 *353:13 *354:15 0.0273437
10 *353:13 *356:17 0.000126462
11 *353:13 *357:13 0.00014794
12 *353:13 *358:9 0.0151773
13 *353:13 *364:19 0.000689796
14 *353:13 *370:15 0.000212565
15 *353:13 *372:15 0.00122599
16 *353:13 *393:15 0.000828005
17 *353:13 *395:15 0.000645252
18 *353:21 *359:25 0
19 *353:21 *373:17 0.00120327
20 *353:21 *398:23 0.00121678
21 *353:21 *649:11 0.000682945
22 *353:21 *662:27 0.00399394
23 *353:21 *664:23 0.000117568
24 *353:21 *675:27 0.00572826
25 *353:21 *687:13 0.0104592
26 *353:21 *688:23 0.000385589
27 *353:21 *710:23 0.00434216
28 *353:23 *383:25 0
29 *353:23 *383:29 0
30 *353:23 *704:19 0.0299533
31 io_oeb[37] *353:27 0.0305472
32 *70:22 *353:27 0.00180085
33 *71:22 *353:27 0.000825323
34 *72:25 *353:27 0.00592064
35 *73:20 *353:27 0.0064534
36 *79:13 *353:27 0.0329181
37 *102:19 *353:27 0
38 *102:27 *353:21 9.70043e-06
39 *107:18 *353:27 0.00029758
40 *140:21 *353:27 0.000180279
41 *276:13 *353:21 0.000542608
42 *281:23 *353:27 1.48085e-05
43 *352:9 *353:13 0
44 *352:21 *353:21 0.0198812
45 *352:23 *353:23 0.0562937
46 *352:27 *353:27 0.00329762
*RES
1 *739:la_data_out_o[58] *353:13 44.5116 
2 *353:13 *353:21 47.9358 
3 *353:21 *353:23 633.015 
4 *353:23 *353:25 0.5 
5 *353:25 *353:27 56.0905 
6 *353:27 la_data_out[58] 24.0125 
*END

*D_NET *354 0.310366
*CONN
*P la_data_out[59] O
*I *739:la_data_out_o[59] O *D ntt_wb_bridge
*CAP
1 la_data_out[59] 0.000646675
2 *739:la_data_out_o[59] 0.000577328
3 *354:31 0.0121529
4 *354:29 0.0115062
5 *354:27 0.0171984
6 *354:25 0.0210786
7 *354:15 0.0100801
8 *354:13 0.00677724
9 *354:15 *356:19 0.00105
10 *354:15 *358:9 0.000962252
11 *354:15 *359:15 0.0378494
12 *354:15 *363:15 0.00274122
13 *354:15 *393:15 0.00109698
14 *354:15 *395:15 0.000946328
15 *354:15 *397:15 0.00319399
16 *354:15 *728:15 0.000208608
17 *354:25 *740:slot_b[1] 0.00707226
18 *354:25 *358:25 0.001805
19 *354:25 *360:55 0.000465432
20 *354:25 *361:15 0.00334091
21 *354:25 *379:21 1.79536e-05
22 *354:25 *647:17 8.10123e-05
23 *354:25 *674:15 0.000313489
24 *354:25 *677:27 0.000234182
25 *354:25 *695:23 0.000278162
26 *354:27 la_data_out[83] 0
27 *354:27 *383:25 0
28 *354:27 *383:29 0
29 *354:27 *695:19 0.0459715
30 *354:27 *707:11 0.0226959
31 *354:31 la_data_out[70] 0.0018829
32 *354:31 la_data_out[72] 0.0137851
33 *354:31 *356:41 0.0302802
34 *354:31 *359:33 0.00102292
35 *354:31 *360:87 0.00920055
36 *354:31 *373:31 0.00146236
37 *354:31 *374:31 0.000197928
38 *354:31 *375:27 0.00128045
39 *354:31 *378:25 0.000399754
40 *78:29 *354:27 0.0025464
41 *279:17 *354:15 0.000658717
42 *281:17 *354:15 0.00901895
43 *302:23 *354:31 0.000138126
44 *352:9 *354:15 0.000257795
45 *353:13 *354:13 0.000547896
46 *353:13 *354:15 0.0273437
*RES
1 *739:la_data_out_o[59] *354:13 5.16233 
2 *354:13 *354:15 59.5865 
3 *354:15 *354:25 33.7827 
4 *354:25 *354:27 648.825 
5 *354:27 *354:29 0.5 
6 *354:29 *354:31 54.5173 
7 *354:31 la_data_out[59] 11.7725 
*END

*D_NET *355 0.134212
*CONN
*P la_data_out[5] O
*I *739:la_data_out_o[5] O *D ntt_wb_bridge
*CAP
1 la_data_out[5] 0.035174
2 *739:la_data_out_o[5] 0.00192607
3 *355:41 0.0455124
4 *355:37 0.0115744
5 *355:17 0.00316217
6 *355:17 *740:mem_we 2.97004e-06
7 *355:17 *366:25 0
8 *355:17 *399:25 0.000903473
9 *355:17 *689:31 0
10 *80:75 la_data_out[5] 0
11 *118:79 la_data_out[5] 0.00154096
12 *272:23 *355:37 7.89356e-05
13 *310:31 *355:17 0.00011201
14 *316:19 *355:17 0.00379251
15 *316:33 *355:37 0.00164999
16 *322:21 *355:37 0.000291374
17 *322:21 *355:41 0.0284714
18 *325:19 *355:37 1.88656e-05
*RES
1 *739:la_data_out_o[5] *355:17 46.401 
2 *355:17 *355:37 24.7168 
3 *355:37 *355:41 42.8105 
4 *355:41 la_data_out[5] 630.412 
*END

*D_NET *356 0.293006
*CONN
*P la_data_out[60] O
*I *739:la_data_out_o[60] O *D ntt_wb_bridge
*CAP
1 la_data_out[60] 0.000657915
2 *739:la_data_out_o[60] 0.000676219
3 *356:41 0.00707163
4 *356:35 0.00949836
5 *356:31 0.0266955
6 *356:29 0.0263416
7 *356:19 0.0079213
8 *356:17 0.00586676
9 *356:17 *357:13 4.03973e-05
10 *356:19 *357:17 0.00132151
11 *356:19 *359:15 0.0317884
12 *356:19 *363:15 0.00500804
13 *356:19 *728:15 0.00732036
14 *356:29 *359:25 0.00265883
15 *356:29 *373:17 0.0119235
16 *356:29 *379:21 0.00605774
17 *356:29 *384:21 0.000176401
18 *356:29 *711:15 0.000511398
19 *356:31 *363:69 0
20 *356:31 *363:71 0
21 *356:31 *656:11 0.000426138
22 *356:31 *678:23 0
23 *356:31 *687:15 0
24 *356:31 *719:11 0
25 *356:31 *728:11 0.0444843
26 *356:31 *731:47 0
27 *356:35 *363:71 0
28 *356:41 *359:33 0.0258588
29 *356:41 *363:75 0.00429264
30 *356:41 *364:27 0.00399186
31 *114:17 *356:31 0
32 *114:17 *356:35 0
33 *277:17 *356:19 0.000249666
34 *282:17 *356:19 0.00235272
35 *352:9 *356:19 0.0283572
36 *353:13 *356:17 0.000126462
37 *354:15 *356:19 0.00105
38 *354:31 *356:41 0.0302802
*RES
1 *739:la_data_out_o[60] *356:17 7.51473 
2 *356:17 *356:19 49.7977 
3 *356:19 *356:29 29.9495 
4 *356:29 *356:31 593.61 
5 *356:31 *356:35 49.65 
6 *356:35 *356:41 47.1852 
7 *356:41 la_data_out[60] 11.7825 
*END

*D_NET *357 0.293308
*CONN
*P la_data_out[61] O
*I *739:la_data_out_o[61] O *D ntt_wb_bridge
*CAP
1 la_data_out[61] 0.00119446
2 *739:la_data_out_o[61] 0.000719793
3 *357:33 0.00579687
4 *357:27 0.0181663
5 *357:25 0.0182093
6 *357:17 0.0107697
7 *357:13 0.00684416
8 *357:17 *360:19 0.000219457
9 *357:17 *362:15 0.0139489
10 *357:17 *689:31 0.000535586
11 *357:17 *726:15 0.000306677
12 *357:17 *728:15 0.000228694
13 *357:17 *729:15 0.000320041
14 *357:17 *736:15 0.000306677
15 *357:25 *358:25 0.000619774
16 *357:25 *359:25 0.00115142
17 *357:25 *360:55 0.00193551
18 *357:25 *376:21 0.0101711
19 *357:25 *382:15 0
20 *357:25 *657:15 0.00301523
21 *357:25 *678:19 0.00328801
22 *357:25 *702:21 2.20023e-05
23 *357:25 *702:23 0.000572228
24 *357:25 *711:15 0.014493
25 *357:27 *367:19 0.0292698
26 *357:27 *370:19 0.0535361
27 *357:27 *647:27 0.00275102
28 *357:27 *733:19 0.000272457
29 *357:33 *358:33 0.0299751
30 *69:17 *357:33 0.0315315
31 *70:20 *357:33 0.000912862
32 *277:17 *357:17 0.00294937
33 *352:9 *357:17 0.0277648
34 *353:13 *357:13 0.00014794
35 *356:17 *357:13 4.03973e-05
36 *356:19 *357:17 0.00132151
*RES
1 *739:la_data_out_o[61] *357:13 7.0554 
2 *357:13 *357:17 45.112 
3 *357:17 *357:25 33.4398 
4 *357:25 *357:27 631.485 
5 *357:27 *357:33 47.6513 
6 *357:33 la_data_out[61] 20.9625 
*END

*D_NET *358 0.30576
*CONN
*P la_data_out[62] O
*I *739:la_data_out_o[62] O *D ntt_wb_bridge
*CAP
1 la_data_out[62] 0.00122903
2 *739:la_data_out_o[62] 0.00790796
3 *358:33 0.00698226
4 *358:27 0.0153616
5 *358:25 0.0142688
6 *358:9 0.0125684
7 *358:9 *359:13 0.000203895
8 *358:9 *360:17 0.000170646
9 *358:9 *361:13 0.000144617
10 *358:9 *362:13 0.00011029
11 *358:9 *363:13 8.53395e-05
12 *358:9 *364:17 3.12524e-05
13 *358:9 *364:19 0.00461631
14 *358:9 *365:17 8.68272e-06
15 *358:9 *365:19 0.00548519
16 *358:9 *367:13 0.000318918
17 *358:9 *368:17 0.000313368
18 *358:9 *368:19 0.00138338
19 *358:9 *369:7 0.000369523
20 *358:9 *370:15 0.00467365
21 *358:9 *371:21 0.00144607
22 *358:9 *372:15 0.00301284
23 *358:9 *375:13 0.000490193
24 *358:9 *380:13 0.0096212
25 *358:25 *739:mem_rdata_i[10] 4.36016e-05
26 *358:25 *740:mem_slot[0] 0.0038366
27 *358:25 *740:slot_b[1] 0.00137432
28 *358:25 *386:23 0.000126605
29 *358:25 *398:17 0.000689743
30 *358:25 *647:11 0.00901952
31 *358:25 *649:11 0.0155566
32 *358:25 *674:15 0.000770523
33 *358:25 *688:21 8.27944e-05
34 *358:27 *359:27 0.0561884
35 *358:27 *664:27 0
36 *358:27 *704:19 4.36441e-05
37 *69:17 *358:33 0.000936265
38 *70:20 *358:33 0.000342812
39 *102:27 *358:25 0.000563938
40 *279:17 *358:9 0.00115193
41 *281:17 *358:25 8.93633e-05
42 *281:23 *358:33 0.00195215
43 *352:21 *358:25 0.000156042
44 *352:23 *358:27 0.0565092
45 *352:27 *358:33 0.0169833
46 *353:13 *358:9 0.0151773
47 *354:15 *358:9 0.000962252
48 *354:25 *358:25 0.001805
49 *357:25 *358:25 0.000619774
50 *357:33 *358:33 0.0299751
*RES
1 *739:la_data_out_o[62] *358:9 45.6009 
2 *358:9 *358:25 45.6522 
3 *358:25 *358:27 638.115 
4 *358:27 *358:33 47.9427 
5 *358:33 la_data_out[62] 21.4725 
*END

*D_NET *359 0.29663
*CONN
*P la_data_out[63] O
*I *739:la_data_out_o[63] O *D ntt_wb_bridge
*CAP
1 la_data_out[63] 0.000692483
2 *739:la_data_out_o[63] 0.000564582
3 *359:33 0.00765579
4 *359:27 0.0305212
5 *359:25 0.0279758
6 *359:15 0.0104254
7 *359:13 0.00657207
8 *359:15 *363:15 0.000252041
9 *359:15 *391:15 0.00471077
10 *359:15 *397:15 0.000274976
11 *359:15 *728:15 0.000126053
12 *359:25 *373:17 0.00107816
13 *359:25 *376:21 0.000125033
14 *359:25 *376:23 0.000110525
15 *359:25 *379:23 0.00108624
16 *359:25 *382:15 0
17 *359:25 *384:23 0.000988653
18 *359:25 *386:25 0.000119831
19 *359:25 *711:15 0.00431221
20 *359:27 *378:19 0
21 *359:27 *383:29 0
22 *359:27 *664:27 0
23 *359:33 *360:85 0.000110612
24 *359:33 *361:25 0.0251315
25 *359:33 *362:25 0.000377423
26 *359:33 *364:27 0.00041403
27 *359:33 *365:27 0.00376029
28 *359:33 *368:49 0.00339261
29 *359:33 *373:31 0.00145683
30 *278:15 *359:15 0.00263638
31 *281:17 *359:15 0.000692737
32 *282:17 *359:15 0.00423347
33 *284:23 *359:33 0.000110612
34 *353:21 *359:25 0
35 *354:15 *359:15 0.0378494
36 *354:31 *359:33 0.00102292
37 *356:19 *359:15 0.0317884
38 *356:29 *359:25 0.00265883
39 *356:41 *359:33 0.0258588
40 *357:25 *359:25 0.00115142
41 *358:9 *359:13 0.000203895
42 *358:27 *359:27 0.0561884
*RES
1 *739:la_data_out_o[63] *359:13 5.37847 
2 *359:13 *359:15 57.8385 
3 *359:15 *359:25 24.0207 
4 *359:25 *359:27 641.175 
5 *359:27 *359:33 45.6703 
6 *359:33 la_data_out[63] 12.2925 
*END

*D_NET *360 0.243338
*CONN
*P la_data_out[64] O
*I *739:la_data_out_o[64] O *D ntt_wb_bridge
*CAP
1 la_data_out[64] 0.0006756
2 *739:la_data_out_o[64] 0.00071384
3 *360:87 0.00928273
4 *360:85 0.00890397
5 *360:79 0.0134924
6 *360:77 0.017816
7 *360:55 0.012828
8 *360:19 0.0200222
9 *360:17 0.0125284
10 *360:19 *362:15 0.00501215
11 *360:19 *689:31 0.0360613
12 *360:19 *728:15 0
13 *360:55 *363:65 0.0124527
14 *360:55 *376:21 0.00117199
15 *360:55 *382:15 0.000845105
16 *360:55 *389:23 0.00102523
17 *360:55 *394:15 0.00102523
18 *360:55 *716:15 0.00111852
19 *360:55 *731:47 0.00594942
20 *360:55 *733:23 0.00111852
21 *360:55 *737:32 0.000698723
22 *360:77 *363:65 0.00558309
23 *360:77 *363:69 1.79536e-05
24 *360:77 *671:21 0
25 *360:77 *719:11 1.92979e-05
26 *360:77 *737:32 0
27 *360:79 *364:23 0.0360859
28 *360:79 *369:15 0
29 *360:79 *709:11 0.00160638
30 *360:79 *716:11 0.00164171
31 *360:79 *729:11 0
32 *360:79 *731:11 0
33 *360:79 *733:17 4.01535e-05
34 *360:85 la_data_out[81] 0.000272903
35 *360:85 *364:27 0.000963407
36 *360:85 *378:25 0
37 *360:87 *363:75 0.019322
38 *360:87 *364:27 0.000136882
39 *360:87 *371:39 0
40 *360:87 *373:33 0
41 *360:87 *374:31 0
42 *360:87 *375:29 0
43 *360:87 *378:25 8.63572e-05
44 *277:17 *360:19 0.00271797
45 *354:25 *360:55 0.000465432
46 *354:31 *360:87 0.00920055
47 *357:17 *360:19 0.000219457
48 *357:25 *360:55 0.00193551
49 *358:9 *360:17 0.000170646
50 *359:33 *360:85 0.000110612
*RES
1 *739:la_data_out_o[64] *360:17 9.3035 
2 *360:17 *360:19 326.475 
3 *360:19 *360:55 47.5771 
4 *360:55 *360:77 30.0056 
5 *360:77 *360:79 406.32 
6 *360:79 *360:85 11.2625 
7 *360:85 *360:87 219.697 
8 *360:87 la_data_out[64] 13.655 
*END

*D_NET *361 0.299585
*CONN
*P la_data_out[65] O
*I *739:la_data_out_o[65] O *D ntt_wb_bridge
*CAP
1 la_data_out[65] 0.000754585
2 *739:la_data_out_o[65] 0.00170089
3 *361:25 0.00606602
4 *361:19 0.0184711
5 *361:17 0.0131597
6 *361:15 0.00831985
7 *361:13 0.0100207
8 *361:15 *740:slot_b[1] 0.00235691
9 *361:15 *367:15 0.0408012
10 *361:15 *398:17 0.000128543
11 *361:15 *664:15 0.0289641
12 *361:15 *668:15 0.000164409
13 *361:15 *677:27 2.38558e-05
14 *361:15 *695:23 0.0061715
15 *361:15 *704:23 0.00928679
16 *361:15 *712:15 0.000707255
17 *361:15 *717:15 0.00980764
18 *361:15 *727:31 0.00145053
19 *361:19 la_data_out[82] 0.023758
20 *361:19 *365:23 0
21 *361:19 *376:27 0.0568345
22 *361:19 *379:27 5.79066e-05
23 *361:19 *668:19 0.000226132
24 *361:19 *699:11 0.00363068
25 *361:19 *733:19 0
26 *361:25 *362:25 0.0236469
27 *361:25 *370:29 0.00246743
28 *361:25 *372:23 0.00199131
29 *354:25 *361:15 0.00334091
30 *358:9 *361:13 0.000144617
31 *359:33 *361:25 0.0251315
*RES
1 *739:la_data_out_o[65] *361:13 23.5915 
2 *361:13 *361:15 66.5203 
3 *361:15 *361:17 0.5 
4 *361:17 *361:19 648.825 
5 *361:19 *361:25 39.4357 
6 *361:25 la_data_out[65] 12.8025 
*END

*D_NET *362 0.295903
*CONN
*P la_data_out[66] O
*I *739:la_data_out_o[66] O *D ntt_wb_bridge
*CAP
1 la_data_out[66] 0.000765825
2 *739:la_data_out_o[66] 0.000821497
3 *362:25 0.0103025
4 *362:19 0.0188877
5 *362:17 0.00935104
6 *362:15 0.0101166
7 *362:13 0.0109381
8 *362:15 *374:15 0.00208001
9 *362:15 *385:15 0.000515589
10 *362:15 *387:15 0.000697403
11 *362:15 *390:15 0.0288546
12 *362:15 *689:31 0.00862579
13 *362:15 *726:15 0.00310203
14 *362:15 *729:15 0.00941073
15 *362:15 *736:15 0.00276562
16 *362:19 *373:21 1.40781e-05
17 *362:19 *374:19 0.0562068
18 *362:19 *375:17 0.055673
19 *362:19 *710:19 0.000232357
20 *362:25 *368:47 0.000101386
21 *362:25 *371:37 0.00133236
22 *362:25 *374:29 0.000935786
23 *362:25 *376:45 0.000430949
24 *137:13 *362:25 0
25 *277:17 *362:15 0.0206454
26 *357:17 *362:15 0.0139489
27 *358:9 *362:13 0.00011029
28 *359:33 *362:25 0.000377423
29 *360:19 *362:15 0.00501215
30 *361:25 *362:25 0.0236469
*RES
1 *739:la_data_out_o[66] *362:13 7.70807 
2 *362:13 *362:15 66.6951 
3 *362:15 *362:17 0.5 
4 *362:17 *362:19 632.505 
5 *362:19 *362:25 38.2121 
6 *362:25 la_data_out[66] 13.3125 
*END

*D_NET *363 0.241435
*CONN
*P la_data_out[67] O
*I *739:la_data_out_o[67] O *D ntt_wb_bridge
*CAP
1 la_data_out[67] 0.000673877
2 *739:la_data_out_o[67] 0.000491882
3 *363:75 0.00347515
4 *363:73 0.00280127
5 *363:71 0.012554
6 *363:69 0.0138046
7 *363:65 0.0115454
8 *363:15 0.0189355
9 *363:13 0.00913252
10 *363:15 *364:19 0
11 *363:15 *370:15 0
12 *363:15 *372:15 0.00152498
13 *363:15 *391:15 0.00470625
14 *363:15 *393:15 0.000611017
15 *363:15 *395:15 0.000824301
16 *363:15 *397:15 0.0190665
17 *363:15 *530:15 2.04328e-05
18 *363:15 *728:15 0.00644825
19 *363:65 *739:mem_rdata_i[13] 2.58975e-06
20 *363:65 *739:mem_rdata_i[2] 0
21 *363:65 *380:13 0.000231655
22 *363:65 *391:21 0
23 *363:65 *393:21 3.92916e-05
24 *363:65 *666:15 4.02448e-06
25 *363:65 *693:11 0.000574257
26 *363:65 *696:11 0.000334983
27 *363:65 *701:12 0.00106903
28 *363:65 *713:11 0.000106321
29 *363:65 *737:32 0.00509396
30 *363:69 *701:12 0.000454312
31 *363:69 *711:11 0.00035007
32 *363:69 *719:11 0.0011758
33 *363:71 *697:11 0
34 *363:71 *701:12 0.000605495
35 *363:71 *711:11 0.00163373
36 *363:71 *737:8 0.000112517
37 *363:75 *364:27 0.0178594
38 *76:19 *363:71 0.0270082
39 *79:23 *363:71 0.00455965
40 *114:17 *363:71 0.00762869
41 *278:15 *363:15 0.01557
42 *279:17 *363:65 0.000126314
43 *281:17 *363:15 0.000475621
44 *298:29 *363:65 4.83147e-05
45 *354:15 *363:15 0.00274122
46 *356:19 *363:15 0.00500804
47 *356:31 *363:69 0
48 *356:31 *363:71 0
49 *356:35 *363:71 0
50 *356:41 *363:75 0.00429264
51 *358:9 *363:13 8.53395e-05
52 *359:15 *363:15 0.000252041
53 *360:55 *363:65 0.0124527
54 *360:77 *363:65 0.00558309
55 *360:77 *363:69 1.79536e-05
56 *360:87 *363:75 0.019322
*RES
1 *739:la_data_out_o[67] *363:13 6.4571 
2 *363:13 *363:15 352.35 
3 *363:15 *363:65 49.8284 
4 *363:65 *363:69 32.415 
5 *363:69 *363:71 375.098 
6 *363:71 *363:73 2 
7 *363:73 *363:75 177.78 
8 *363:75 la_data_out[67] 13.91 
*END

*D_NET *364 0.25435
*CONN
*P la_data_out[68] O
*I *739:la_data_out_o[68] O *D ntt_wb_bridge
*CAP
1 la_data_out[68] 0.000695482
2 *739:la_data_out_o[68] 0.000440379
3 *364:27 0.00348424
4 *364:25 0.00278876
5 *364:23 0.016892
6 *364:21 0.016892
7 *364:19 0.00611028
8 *364:17 0.00655066
9 *364:19 *365:19 0.0398127
10 *364:19 *370:15 0.0369543
11 *364:23 *739:busy_i 7.69526e-05
12 *364:23 *739:done_i 0.000128387
13 *364:23 *739:mem_rdata_i[10] 0.000606578
14 *364:23 *739:mem_rdata_i[11] 0.000178632
15 *364:23 *739:mem_rdata_i[12] 6.08667e-05
16 *364:23 *739:mem_rdata_i[13] 4.64544e-05
17 *364:23 *739:mem_rdata_i[23] 5.24735e-05
18 *364:23 *739:mem_rdata_i[2] 4.64544e-05
19 *364:23 *739:mem_rdata_i[3] 2.43524e-05
20 *364:23 *372:19 0
21 *364:23 *689:35 0.00935763
22 *364:23 *716:11 0.0013613
23 *364:23 *734:11 0.0262984
24 *364:27 la_data_out[81] 2.21074e-05
25 *364:27 *365:27 0.0176664
26 *279:17 *364:19 0.00228629
27 *298:29 *364:19 0.000726692
28 *353:13 *364:19 0.000689796
29 *356:41 *364:27 0.00399186
30 *358:9 *364:17 3.12524e-05
31 *358:9 *364:19 0.00461631
32 *359:33 *364:27 0.00041403
33 *360:79 *364:23 0.0360859
34 *360:85 *364:27 0.000963407
35 *360:87 *364:27 0.000136882
36 *363:15 *364:19 0
37 *363:75 *364:27 0.0178594
*RES
1 *739:la_data_out_o[68] *364:17 4.67463 
2 *364:17 *364:19 366.495 
3 *364:19 *364:21 2 
4 *364:21 *364:23 629.19 
5 *364:23 *364:25 2 
6 *364:25 *364:27 175.71 
7 *364:27 la_data_out[68] 14.165 
*END

*D_NET *365 0.273396
*CONN
*P la_data_out[69] O
*I *739:la_data_out_o[69] O *D ntt_wb_bridge
*CAP
1 la_data_out[69] 0.000717086
2 *739:la_data_out_o[69] 0.000342392
3 *365:27 0.00378271
4 *365:25 0.00306563
5 *365:23 0.00963333
6 *365:21 0.00963333
7 *365:19 0.00666865
8 *365:17 0.00701104
9 *365:17 *367:13 0
10 *365:19 *368:19 0.019432
11 *365:19 *370:15 0.000463893
12 *365:19 *380:13 0.00105174
13 *365:19 *530:15 2.91667e-05
14 *365:23 *739:mem_rdata_i[30] 0.000965523
15 *365:23 *371:27 0.00388483
16 *365:23 *381:29 0.0557584
17 *365:23 *733:19 0.0489218
18 *365:27 la_data_out[81] 0.000185958
19 *365:27 *368:47 1.07593e-05
20 *365:27 *368:49 0.0151146
21 *102:23 *365:23 0.0109386
22 *284:23 *365:27 0.000530149
23 *288:21 *365:19 0.000863409
24 *292:23 *365:27 0.000458676
25 *298:29 *365:19 0.000364816
26 *299:15 *365:19 0.00643979
27 *301:21 *365:19 0.000394807
28 *358:9 *365:17 8.68272e-06
29 *358:9 *365:19 0.00548519
30 *359:33 *365:27 0.00376029
31 *361:19 *365:23 0
32 *364:19 *365:19 0.0398127
33 *364:27 *365:27 0.0176664
*RES
1 *739:la_data_out_o[69] *365:17 5.67603 
2 *365:17 *365:19 369.945 
3 *365:19 *365:21 2 
4 *365:21 *365:23 628.68 
5 *365:23 *365:25 2 
6 *365:25 *365:27 171.225 
7 *365:27 la_data_out[69] 14.42 
*END

*D_NET *366 0.136409
*CONN
*P la_data_out[6] O
*I *739:la_data_out_o[6] O *D ntt_wb_bridge
*CAP
1 la_data_out[6] 0.0351112
2 *739:la_data_out_o[6] 0.00329914
3 *366:29 0.0458216
4 *366:25 0.0140096
5 *366:25 *388:25 0.000629322
6 *366:25 *399:25 0.00298466
7 *126:29 *366:29 0.0257152
8 *272:25 *366:25 0.000303831
9 *294:19 *366:25 0.000173912
10 *310:31 *366:25 0.000389866
11 *313:23 *366:25 0.000101037
12 *316:19 *366:25 0.00087908
13 *317:15 *366:25 0.000817984
14 *318:15 *366:25 0.000333179
15 *320:15 *366:25 0.000334283
16 *324:19 *366:25 0.000165398
17 *327:33 *366:25 0
18 *333:15 *366:25 0.00360907
19 *335:23 *366:25 0.000147915
20 *337:19 *366:25 0.00142082
21 *351:33 *366:25 0.000161833
22 *355:17 *366:25 0
*RES
1 *739:la_data_out_o[6] *366:25 20.4775 
2 *366:25 *366:29 40.305 
3 *366:29 la_data_out[6] 622.763 
*END

*D_NET *367 0.230542
*CONN
*P la_data_out[70] O
*I *739:la_data_out_o[70] O *D ntt_wb_bridge
*CAP
1 la_data_out[70] 0.00774728
2 *739:la_data_out_o[70] 0.00197354
3 *367:19 0.0263753
4 *367:17 0.018628
5 *367:15 0.0079846
6 *367:13 0.00995814
7 la_data_out[70] la_data_out[72] 0.0137817
8 la_data_out[70] *371:39 0.00288457
9 la_data_out[70] *373:33 0.00107985
10 la_data_out[70] *374:31 0.000820459
11 la_data_out[70] *375:29 0.000152088
12 *367:15 *668:15 0.0134732
13 *367:15 *696:15 0.00897632
14 *367:15 *712:15 0.00823056
15 *367:15 *719:15 0.00460322
16 *367:15 *727:23 0.00248492
17 *367:15 *727:31 0.00515825
18 *367:19 *370:19 0.000217007
19 *367:19 *371:27 0
20 *367:19 *373:31 0
21 *367:19 *374:29 0
22 *367:19 *375:27 4.99785e-05
23 *367:19 *647:27 0.00317554
24 *367:19 *649:15 0
25 *281:19 *367:19 0
26 *282:19 *367:19 0.0205145
27 *292:17 *367:19 0
28 *354:31 la_data_out[70] 0.0018829
29 *357:27 *367:19 0.0292698
30 *358:9 *367:13 0.000318918
31 *361:15 *367:15 0.0408012
32 *365:17 *367:13 0
*RES
1 *739:la_data_out_o[70] *367:13 24.6082 
2 *367:13 *367:15 60.4023 
3 *367:15 *367:17 0.5 
4 *367:17 *367:19 651.885 
5 *367:19 la_data_out[70] 37.5688 
*END

*D_NET *368 0.223776
*CONN
*P la_data_out[71] O
*I *739:la_data_out_o[71] O *D ntt_wb_bridge
*CAP
1 la_data_out[71] 0.000745524
2 *739:la_data_out_o[71] 0.000465929
3 *368:49 0.00330673
4 *368:47 0.00315553
5 *368:39 0.0165918
6 *368:37 0.0170588
7 *368:33 0.00219931
8 *368:19 0.0131253
9 *368:17 0.0124533
10 *368:19 *371:21 0.00117302
11 *368:19 *380:13 0.0100111
12 *368:33 *391:25 5.74791e-05
13 *368:37 *391:25 0.004106
14 *368:39 *375:17 0.0553165
15 *368:39 *378:19 0
16 *368:39 *710:19 0.0254088
17 *368:47 *370:27 0.000259544
18 *368:47 *376:45 0.000133685
19 *368:49 *370:27 5.4799e-05
20 *368:49 *370:29 0.0120404
21 *284:13 *368:19 0
22 *284:23 *368:47 0.00092528
23 *293:13 *368:19 0
24 *297:13 *368:33 0.00149063
25 *297:13 *368:37 0.00209203
26 *298:29 *368:37 0.000349064
27 *299:15 *368:19 0.00118507
28 *301:21 *368:33 0.000322112
29 *358:9 *368:17 0.000313368
30 *358:9 *368:19 0.00138338
31 *359:33 *368:49 0.00339261
32 *362:25 *368:47 0.000101386
33 *365:19 *368:19 0.019432
34 *365:27 *368:47 1.07593e-05
35 *365:27 *368:49 0.0151146
*RES
1 *739:la_data_out_o[71] *368:17 4.56323 
2 *368:17 *368:19 305.775 
3 *368:19 *368:33 30.655 
4 *368:33 *368:37 40.745 
5 *368:37 *368:39 621.54 
6 *368:39 *368:47 18.26 
7 *368:47 *368:49 139.14 
8 *368:49 la_data_out[71] 14.675 
*END

*D_NET *369 0.250457
*CONN
*P la_data_out[72] O
*I *739:la_data_out_o[72] O *D ntt_wb_bridge
*CAP
1 la_data_out[72] 0.00305557
2 *739:la_data_out_o[72] 0.000157789
3 *369:15 0.014389
4 *369:13 0.0127467
5 *369:7 0.00847559
6 *369:5 0.00722017
7 la_data_out[72] *375:29 0.000646216
8 *369:7 *370:13 0.000414644
9 *369:7 *371:21 0.001391
10 *369:7 *371:23 0.000962407
11 *369:7 *372:13 0.000178696
12 *369:7 *373:15 0.000246619
13 *369:7 *374:13 0.00023774
14 *369:7 *375:11 2.6292e-05
15 *369:7 *375:13 0.0329648
16 *369:7 *376:13 0.000137018
17 *369:7 *378:13 8.32936e-05
18 *369:7 *381:23 0.00124602
19 *369:7 *383:19 0.0275339
20 *369:13 *371:23 0.00237778
21 *369:13 *375:13 0.000870357
22 *369:13 *392:21 0.000119831
23 *369:15 *739:mem_rdata_i[10] 0.00308218
24 *369:15 *372:19 0.0554931
25 *369:15 *373:31 0
26 *369:15 *735:11 0.0475934
27 la_data_out[70] la_data_out[72] 0.0137817
28 *284:17 *369:15 0
29 *288:23 *369:13 0.000109836
30 *293:13 *369:7 0.000760439
31 *302:17 *369:15 0
32 *354:31 la_data_out[72] 0.0137851
33 *358:9 *369:7 0.000369523
34 *360:79 *369:15 0
*RES
1 *739:la_data_out_o[72] *369:5 0.449667 
2 *369:5 *369:7 54.8188 
3 *369:7 *369:13 4.4482 
4 *369:13 *369:15 626.895 
5 *369:15 la_data_out[72] 32.7765 
*END

*D_NET *370 0.255095
*CONN
*P la_data_out[73] O
*I *739:la_data_out_o[73] O *D ntt_wb_bridge
*CAP
1 la_data_out[73] 0.000773979
2 *739:la_data_out_o[73] 0.000625899
3 *370:29 0.00292789
4 *370:27 0.00240504
5 *370:19 0.0116429
6 *370:17 0.0113918
7 *370:15 0.00528866
8 *370:13 0.00591456
9 *370:15 *372:15 0.0361211
10 *370:15 *530:15 0.000375638
11 *370:19 *371:27 0.0537518
12 *370:19 *733:19 0.000185072
13 *370:27 *376:45 0.00037968
14 *370:29 *372:23 0.00911671
15 *370:29 *376:45 2.63208e-06
16 *279:17 *370:15 0.00209708
17 *298:29 *370:15 0.000800437
18 *353:13 *370:15 0.000212565
19 *357:27 *370:19 0.0535361
20 *358:9 *370:15 0.00467365
21 *361:25 *370:29 0.00246743
22 *363:15 *370:15 0
23 *364:19 *370:15 0.0369543
24 *365:19 *370:15 0.000463893
25 *367:19 *370:19 0.000217007
26 *368:47 *370:27 0.000259544
27 *368:49 *370:27 5.4799e-05
28 *368:49 *370:29 0.0120404
29 *369:7 *370:13 0.000414644
*RES
1 *739:la_data_out_o[73] *370:13 7.05577 
2 *370:13 *370:15 343.035 
3 *370:15 *370:17 2 
4 *370:17 *370:19 627.405 
5 *370:19 *370:27 9.455 
6 *370:27 *370:29 110.85 
7 *370:29 la_data_out[73] 14.93 
*END

*D_NET *371 0.248542
*CONN
*P la_data_out[74] O
*I *739:la_data_out_o[74] O *D ntt_wb_bridge
*CAP
1 la_data_out[74] 0.000518504
2 *739:la_data_out_o[74] 0.00153348
3 *371:39 0.00435887
4 *371:37 0.00493328
5 *371:27 0.0115491
6 *371:25 0.0104562
7 *371:23 0.0133376
8 *371:21 0.0148711
9 *371:21 *375:13 0.00116315
10 *371:21 *378:13 0.000135708
11 *371:23 *375:13 0.000157602
12 *371:23 *378:13 1.53305e-05
13 *371:23 *379:13 9.01139e-05
14 *371:23 *380:11 0.000200523
15 *371:23 *381:23 0.029471
16 *371:23 *382:13 0.000487115
17 *371:23 *383:19 0.000183813
18 *371:23 *384:21 0.000386393
19 *371:23 *385:13 0.000336031
20 *371:23 *386:23 0.000245728
21 *371:23 *387:13 0.000235309
22 *371:23 *389:21 0.000184947
23 *371:23 *390:13 0.000134586
24 *371:23 *391:13 8.42249e-05
25 *371:23 *392:19 4.13796e-05
26 *371:23 *393:13 0.000303036
27 *371:23 *394:13 0.000506841
28 *371:23 *395:13 0.000481905
29 *371:23 *396:13 0.00041857
30 *371:23 *397:13 0.000381183
31 *371:23 *398:17 0.000330822
32 *371:23 *529:13 0.000143269
33 *371:23 *530:13 0.000113747
34 *371:23 *531:21 0.00054884
35 *371:27 *739:mem_rdata_i[30] 0.000855854
36 *371:27 *733:19 0.0485926
37 *371:37 la_data_out[81] 0
38 *371:39 *373:33 0.007093
39 la_data_out[70] *371:39 0.00288457
40 *102:23 *371:27 0.0113788
41 *137:13 *371:37 0
42 *273:13 *371:23 0.000259458
43 *274:13 *371:23 0.000150216
44 *275:13 *371:23 0.000179738
45 *276:13 *371:23 0.000129376
46 *277:15 *371:23 6.73718e-05
47 *278:13 *371:23 9.45549e-05
48 *279:17 *371:23 0.000577418
49 *280:13 *371:23 0.000284605
50 *281:17 *371:23 0.000476696
51 *282:17 *371:23 0.000426334
52 *284:11 *371:23 0.000182168
53 *285:11 *371:23 0.000167103
54 *285:13 *371:23 0.00146172
55 *286:11 *371:23 7.61246e-05
56 *286:13 *371:23 0.00161266
57 *287:11 *371:23 0.000113259
58 *287:13 *371:23 0.0014798
59 *288:21 *371:23 9.46445e-05
60 *289:11 *371:23 5.94143e-05
61 *289:13 *371:23 0.000365273
62 *290:11 *371:23 6.68411e-05
63 *290:13 *371:23 0.000442698
64 *291:11 *371:23 4.82353e-05
65 *291:13 *371:23 0.000117694
66 *292:11 *371:23 0.000149464
67 *292:13 *371:23 0.00147491
68 *293:11 *371:23 0.000186598
69 *295:13 *371:23 0.000271777
70 *296:13 *371:23 0.000421124
71 *297:11 *371:23 0.000116568
72 *298:29 *371:23 0.000320402
73 *298:31 *371:23 0.000517467
74 *299:13 *371:23 0.000267239
75 *300:13 *371:23 0.000219679
76 *301:21 *371:23 0.000169318
77 *302:15 *371:23 3.08905e-05
78 *358:9 *371:21 0.00144607
79 *360:87 *371:39 0
80 *362:25 *371:37 0.00133236
81 *365:23 *371:27 0.00388483
82 *367:19 *371:27 0
83 *368:19 *371:21 0.00117302
84 *369:7 *371:21 0.001391
85 *369:7 *371:23 0.000962407
86 *369:13 *371:23 0.00237778
87 *370:19 *371:27 0.0537518
*RES
1 *739:la_data_out_o[74] *371:21 14.556 
2 *371:21 *371:23 51.8953 
3 *371:23 *371:25 0.5 
4 *371:25 *371:27 623.325 
5 *371:27 *371:37 9.64483 
6 *371:37 *371:39 91.875 
7 *371:39 la_data_out[74] 11.36 
*END

*D_NET *372 0.2022
*CONN
*P la_data_out[75] O
*I *739:la_data_out_o[75] O *D ntt_wb_bridge
*CAP
1 la_data_out[75] 0.000800159
2 *739:la_data_out_o[75] 0.000444442
3 *372:23 0.00322194
4 *372:21 0.00242178
5 *372:19 0.0174038
6 *372:17 0.0174038
7 *372:15 0.00701401
8 *372:13 0.00745845
9 *372:15 *393:15 0.0127377
10 *372:15 *530:15 0.00290202
11 *372:19 *739:busy_i 0.000178632
12 *372:19 *739:mem_rdata_i[10] 0.00344647
13 *372:19 *739:mem_rdata_i[12] 0.000150547
14 *372:19 *739:mem_rdata_i[13] 0.000109393
15 *372:19 *739:mem_rdata_i[23] 0.000128798
16 *372:19 *739:mem_rdata_i[2] 0.000109393
17 *372:19 *739:mem_rdata_i[3] 6.19052e-05
18 *372:19 *658:17 0.000247871
19 *372:19 *695:17 0.000201712
20 *372:19 *704:17 0.000109393
21 *372:19 *710:17 8.40658e-05
22 *372:19 *714:17 0.000178288
23 *372:19 *715:13 0.000151878
24 *372:19 *734:11 0.0108553
25 *372:19 *735:11 0.000172713
26 *372:23 *376:45 0.00254999
27 *279:17 *372:15 0.00299129
28 *353:13 *372:15 0.00122599
29 *358:9 *372:15 0.00301284
30 *361:25 *372:23 0.00199131
31 *363:15 *372:15 0.00152498
32 *364:23 *372:19 0
33 *369:7 *372:13 0.000178696
34 *369:15 *372:19 0.0554931
35 *370:15 *372:15 0.0361211
36 *370:29 *372:23 0.00911671
*RES
1 *739:la_data_out_o[75] *372:13 6.93077 
2 *372:13 *372:15 327.855 
3 *372:15 *372:17 2 
4 *372:17 *372:19 628.68 
5 *372:19 *372:21 2 
6 *372:21 *372:23 83.94 
7 *372:23 la_data_out[75] 15.185 
*END

*D_NET *373 0.19063
*CONN
*P la_data_out[76] O
*I *739:la_data_out_o[76] O *D ntt_wb_bridge
*CAP
1 la_data_out[76] 0.000537038
2 *739:la_data_out_o[76] 0.00137247
3 *373:33 0.00206203
4 *373:31 0.00210291
5 *373:21 0.025312
6 *373:19 0.0247341
7 *373:17 0.00754894
8 *373:15 0.00892142
9 *373:15 *702:29 0.000107794
10 *373:17 *379:21 0.00453725
11 *373:17 *386:23 0.0129811
12 *373:17 *649:11 0.00187803
13 *373:17 *675:27 0.00405317
14 *373:17 *676:23 0.00178261
15 *373:17 *678:11 0.00117869
16 *373:17 *687:13 0.0211995
17 *373:17 *702:31 2.38557e-05
18 *373:17 *725:23 0.00295787
19 *373:21 *739:mem_rdata_i[22] 0.00177736
20 *373:21 *739:mem_rdata_i[8] 0.000697564
21 *373:21 *374:19 0.0325652
22 *373:21 *375:17 0
23 *373:21 *531:21 0
24 *373:21 *710:19 0
25 *373:31 la_data_out[83] 0.000101386
26 *373:33 *374:31 0.00649097
27 la_data_out[70] *373:33 0.00107985
28 *105:19 *373:21 0
29 *292:23 *373:31 0.000110612
30 *302:17 *373:31 3.85204e-05
31 *353:21 *373:17 0.00120327
32 *354:31 *373:31 0.00146236
33 *356:29 *373:17 0.0119235
34 *359:25 *373:17 0.00107816
35 *359:33 *373:31 0.00145683
36 *360:87 *373:33 0
37 *362:19 *373:21 1.40781e-05
38 *367:19 *373:31 0
39 *369:7 *373:15 0.000246619
40 *369:15 *373:31 0
41 *371:39 *373:33 0.007093
*RES
1 *739:la_data_out_o[76] *373:15 19.1146 
2 *373:15 *373:17 56.9063 
3 *373:17 *373:19 0.5 
4 *373:19 *373:21 643.215 
5 *373:21 *373:31 7.52463 
6 *373:31 *373:33 73.245 
7 *373:33 la_data_out[76] 11.615 
*END

*D_NET *374 0.227514
*CONN
*P la_data_out[77] O
*I *739:la_data_out_o[77] O *D ntt_wb_bridge
*CAP
1 la_data_out[77] 0.000555571
2 *739:la_data_out_o[77] 0.000873352
3 *374:31 0.00191999
4 *374:29 0.00203305
5 *374:19 0.0117665
6 *374:17 0.0110978
7 *374:15 0.00810085
8 *374:13 0.00897421
9 *374:15 *378:15 0.0349201
10 *374:15 *385:15 0.030317
11 *374:15 *657:23 0
12 *374:15 *716:23 0
13 *374:15 *737:34 0.00784367
14 *374:29 la_data_out[82] 0
15 *374:29 *375:27 0
16 *374:29 *381:29 0.000161608
17 *374:31 *375:29 0.00540406
18 *374:31 *378:25 0.000152585
19 la_data_out[70] *374:31 0.000820459
20 *275:15 *374:15 0.00385875
21 *354:31 *374:31 0.000197928
22 *360:87 *374:31 0
23 *362:15 *374:15 0.00208001
24 *362:19 *374:19 0.0562068
25 *362:25 *374:29 0.000935786
26 *367:19 *374:29 0
27 *369:7 *374:13 0.00023774
28 *373:21 *374:19 0.0325652
29 *373:33 *374:31 0.00649097
*RES
1 *739:la_data_out_o[77] *374:13 11.5094 
2 *374:13 *374:15 56.1488 
3 *374:15 *374:17 0.5 
4 *374:17 *374:19 634.035 
5 *374:19 *374:29 8.4939 
6 *374:29 *374:31 65.31 
7 *374:31 la_data_out[77] 11.87 
*END

*D_NET *375 0.228779
*CONN
*P la_data_out[78] O
*I *739:la_data_out_o[78] O *D ntt_wb_bridge
*CAP
1 la_data_out[78] 0.000576259
2 *739:la_data_out_o[78] 0.000314651
3 *375:29 0.00188184
4 *375:27 0.00190505
5 *375:17 0.00998855
6 *375:15 0.00938908
7 *375:13 0.00766381
8 *375:11 0.00797846
9 *375:13 *380:13 0.00434828
10 *375:13 *381:27 0.00329964
11 *375:13 *392:19 0.0227655
12 *375:13 *531:21 0.000102798
13 *375:17 *378:19 0
14 *375:17 *710:19 0.000184135
15 *375:27 *378:25 0.000402443
16 *375:29 *378:25 0.00247999
17 la_data_out[70] *375:29 0.000152088
18 la_data_out[72] *375:29 0.000646216
19 *279:17 *375:13 7.8999e-05
20 *284:13 *375:13 0.00122444
21 *298:31 *375:13 0
22 *354:31 *375:27 0.00128045
23 *358:9 *375:13 0.000490193
24 *360:87 *375:29 0
25 *362:19 *375:17 0.055673
26 *367:19 *375:27 4.99785e-05
27 *368:39 *375:17 0.0553165
28 *369:7 *375:11 2.6292e-05
29 *369:7 *375:13 0.0329648
30 *369:13 *375:13 0.000870357
31 *371:21 *375:13 0.00116315
32 *371:23 *375:13 0.000157602
33 *373:21 *375:17 0
34 *374:29 *375:27 0
35 *374:31 *375:29 0.00540406
*RES
1 *739:la_data_out_o[78] *375:11 4.4234 
2 *375:11 *375:13 55.3913 
3 *375:13 *375:15 0.5 
4 *375:15 *375:17 628.425 
5 *375:17 *375:27 5.7033 
6 *375:27 *375:29 49.785 
7 *375:29 la_data_out[78] 12.125 
*END

*D_NET *376 0.232708
*CONN
*P la_data_out[79] O
*I *739:la_data_out_o[79] O *D ntt_wb_bridge
*CAP
1 la_data_out[79] 0.000835402
2 *739:la_data_out_o[79] 0.00109084
3 *376:45 0.00265567
4 *376:27 0.0113783
5 *376:25 0.00955804
6 *376:23 0.00237995
7 *376:21 0.00968863
8 *376:13 0.00839952
9 *376:21 *378:15 0
10 *376:21 *382:15 0
11 *376:21 *384:21 0.016614
12 *376:21 *389:23 0.00138288
13 *376:21 *394:15 0.00127696
14 *376:21 *657:23 0.00598152
15 *376:21 *676:31 0.00530694
16 *376:21 *711:15 0.00744533
17 *376:21 *716:15 0.00202808
18 *376:21 *725:15 0.00522764
19 *376:21 *733:23 0.00210216
20 *376:23 *379:23 0.00685425
21 *376:23 *675:27 0
22 *376:27 *379:27 0.0568138
23 *376:27 *668:19 1.07797e-05
24 *376:27 *699:11 0.00363068
25 *357:25 *376:21 0.0101711
26 *359:25 *376:21 0.000125033
27 *359:25 *376:23 0.000110525
28 *360:55 *376:21 0.00117199
29 *361:19 *376:27 0.0568345
30 *362:25 *376:45 0.000430949
31 *368:47 *376:45 0.000133685
32 *369:7 *376:13 0.000137018
33 *370:27 *376:45 0.00037968
34 *370:29 *376:45 2.63208e-06
35 *372:23 *376:45 0.00254999
*RES
1 *739:la_data_out_o[79] *376:13 15.4425 
2 *376:13 *376:21 47.6948 
3 *376:21 *376:23 62.55 
4 *376:23 *376:25 2 
5 *376:25 *376:27 639.9 
6 *376:27 *376:45 47.41 
7 *376:45 la_data_out[79] 13.44 
*END

*D_NET *377 0.116817
*CONN
*P la_data_out[7] O
*I *739:la_data_out_o[7] O *D ntt_wb_bridge
*CAP
1 la_data_out[7] 0.0356351
2 *739:la_data_out_o[7] 0.00184557
3 *377:29 0.0450143
4 *377:25 0.0116433
5 *377:17 0.00410961
6 *118:71 la_data_out[7] 0.00137316
7 *283:13 *377:25 0
8 *294:13 *377:17 0
9 *294:13 *377:25 0
10 *305:23 *377:29 0.00543882
11 *308:15 *377:29 0.00263402
12 *310:31 *377:17 0.000419217
13 *312:15 *377:17 0.00058234
14 *312:15 *377:25 0.000363346
15 *314:13 *377:29 0.000862054
16 *326:15 *377:25 0.000268848
17 *328:15 *377:17 0.00286315
18 *328:15 *377:25 0.00141786
19 *333:15 *377:29 0
20 *338:37 *377:25 0
21 *344:31 *377:29 0.00234653
*RES
1 *739:la_data_out_o[7] *377:17 33.6448 
2 *377:17 *377:25 46.7875 
3 *377:25 *377:29 35.498 
4 *377:29 la_data_out[7] 637.552 
*END

*D_NET *378 0.18715
*CONN
*P la_data_out[80] O
*I *739:la_data_out_o[80] O *D ntt_wb_bridge
*CAP
1 la_data_out[80] 0.000597864
2 *739:la_data_out_o[80] 0.000838401
3 *378:25 0.00185105
4 *378:19 0.0327648
5 *378:17 0.0315117
6 *378:15 0.00831595
7 *378:13 0.00915435
8 *378:15 *382:15 0.0323108
9 *378:15 *385:15 0.000127319
10 *378:15 *396:15 0.00399688
11 *378:19 *662:31 0.000511018
12 *378:19 *664:27 0.0136082
13 *378:19 *710:19 0.00443214
14 *378:25 la_data_out[81] 8.60819e-05
15 *274:15 *378:15 0.00407482
16 *276:15 *378:15 0.00375836
17 *302:23 *378:25 0.000534504
18 *354:31 *378:25 0.000399754
19 *359:27 *378:19 0
20 *360:85 *378:25 0
21 *360:87 *378:25 8.63572e-05
22 *368:39 *378:19 0
23 *369:7 *378:13 8.32936e-05
24 *371:21 *378:13 0.000135708
25 *371:23 *378:13 1.53305e-05
26 *374:15 *378:15 0.0349201
27 *374:31 *378:25 0.000152585
28 *375:17 *378:19 0
29 *375:27 *378:25 0.000402443
30 *375:29 *378:25 0.00247999
31 *376:21 *378:15 0
*RES
1 *739:la_data_out_o[80] *378:13 11.799 
2 *378:13 *378:15 53.9347 
3 *378:15 *378:17 0.5 
4 *378:17 *378:19 637.987 
5 *378:19 *378:25 39.985 
6 *378:25 la_data_out[80] 10.38 
*END

*D_NET *379 0.197021
*CONN
*P la_data_out[81] O
*I *739:la_data_out_o[81] O *D ntt_wb_bridge
*CAP
1 la_data_out[81] 0.00108219
2 *739:la_data_out_o[81] 0.00120851
3 *379:27 0.0210838
4 *379:25 0.0200016
5 *379:23 0.00137686
6 *379:21 0.00582646
7 *379:13 0.00565811
8 la_data_out[81] la_data_out[83] 0.000381903
9 *379:13 *725:21 8.51932e-05
10 *379:21 *386:23 0.0129811
11 *379:21 *389:21 0.00477672
12 *379:21 *678:11 0.00579993
13 *379:21 *702:23 0.00268842
14 *379:21 *711:15 0.00939242
15 *379:23 *384:23 0.00803308
16 *379:23 *675:27 0
17 *379:23 *711:15 0.000219474
18 *379:27 *668:19 0.0124221
19 *379:27 *699:11 0.00673207
20 *105:19 *379:27 0
21 *292:23 la_data_out[81] 0.000283721
22 *302:23 la_data_out[81] 0.000905363
23 *354:25 *379:21 1.79536e-05
24 *356:29 *379:21 0.00605774
25 *359:25 *379:23 0.00108624
26 *360:85 la_data_out[81] 0.000272903
27 *361:19 *379:27 5.79066e-05
28 *364:27 la_data_out[81] 2.21074e-05
29 *365:27 la_data_out[81] 0.000185958
30 *371:23 *379:13 9.01139e-05
31 *371:37 la_data_out[81] 0
32 *373:17 *379:21 0.00453725
33 *376:23 *379:23 0.00685425
34 *376:27 *379:27 0.0568138
35 *378:25 la_data_out[81] 8.60819e-05
*RES
1 *739:la_data_out_o[81] *379:13 18.6857 
2 *379:13 *379:21 42.2753 
3 *379:21 *379:23 73.245 
4 *379:23 *379:25 2 
5 *379:25 *379:27 642.195 
6 *379:27 la_data_out[81] 30.94 
*END

*D_NET *380 0.159862
*CONN
*P la_data_out[82] O
*I *739:la_data_out_o[82] O *D ntt_wb_bridge
*CAP
1 la_data_out[82] 0.025803
2 *739:la_data_out_o[82] 0.000403541
3 *380:15 0.025803
4 *380:13 0.00722701
5 *380:11 0.00763055
6 la_data_out[82] *381:29 0
7 *380:13 *381:27 0.00329964
8 *380:13 *392:19 0.0227655
9 *380:13 *529:15 0.00026732
10 *380:13 *531:21 0.00144119
11 *102:23 la_data_out[82] 0.00636285
12 *279:17 *380:13 0.00258838
13 *288:21 *380:13 0.00373508
14 *298:29 *380:13 0.00104733
15 *301:21 *380:13 0.00226527
16 *358:9 *380:13 0.0096212
17 *361:19 la_data_out[82] 0.023758
18 *363:65 *380:13 0.000231655
19 *365:19 *380:13 0.00105174
20 *368:19 *380:13 0.0100111
21 *371:23 *380:11 0.000200523
22 *374:29 la_data_out[82] 0
23 *375:13 *380:13 0.00434828
*RES
1 *739:la_data_out_o[82] *380:11 5.7322 
2 *380:11 *380:13 50.0308 
3 *380:13 *380:15 0.5 
4 *380:15 la_data_out[82] 640.102 
*END

*D_NET *381 0.193994
*CONN
*P la_data_out[83] O
*I *739:la_data_out_o[83] O *D ntt_wb_bridge
*CAP
1 la_data_out[83] 0.000950112
2 *739:la_data_out_o[83] 0.00503843
3 *381:29 0.0231531
4 *381:27 0.0232793
5 *381:23 0.00611474
6 *381:23 *383:19 0.0275401
7 *381:23 *391:21 6.34586e-05
8 *381:23 *397:23 0
9 la_data_out[81] la_data_out[83] 0.000381903
10 la_data_out[82] *381:29 0
11 *102:23 *381:29 0.0118021
12 *292:23 la_data_out[83] 0.00161174
13 *302:23 la_data_out[83] 0.000721011
14 *354:27 la_data_out[83] 0
15 *365:23 *381:29 0.0557584
16 *369:7 *381:23 0.00124602
17 *371:23 *381:23 0.029471
18 *373:31 la_data_out[83] 0.000101386
19 *374:29 *381:29 0.000161608
20 *375:13 *381:27 0.00329964
21 *380:13 *381:27 0.00329964
*RES
1 *739:la_data_out_o[83] *381:23 49.5856 
2 *381:23 *381:27 5.72373 
3 *381:27 *381:29 627.787 
4 *381:29 la_data_out[83] 30.85 
*END

*D_NET *382 0.138398
*CONN
*P la_data_out[84] O
*I *739:la_data_out_o[84] O *D ntt_wb_bridge
*CAP
1 la_data_out[84] 0.0361309
2 *739:la_data_out_o[84] 0.00102972
3 *382:17 0.0361309
4 *382:15 0.0128961
5 *382:13 0.0139258
6 la_data_out[84] *739:mem_rdata_i[21] 0
7 la_data_out[84] *646:61 0
8 la_data_out[84] *658:27 0
9 la_data_out[84] *663:95 0.000687131
10 la_data_out[84] *682:105 0
11 *382:15 *384:21 0.00299088
12 *382:15 *385:15 0.000670001
13 *382:15 *396:15 0.00012905
14 *382:15 *702:21 6.83077e-06
15 *382:15 *737:32 3.92756e-05
16 *274:15 *382:15 0.000118286
17 *357:25 *382:15 0
18 *359:25 *382:15 0
19 *360:55 *382:15 0.000845105
20 *371:23 *382:13 0.000487115
21 *376:21 *382:15 0
22 *378:15 *382:15 0.0323108
*RES
1 *739:la_data_out_o[84] *382:13 14.1607 
2 *382:13 *382:15 52.478 
3 *382:15 *382:17 0.5 
4 *382:17 la_data_out[84] 648.773 
*END

*D_NET *383 0.164909
*CONN
*P la_data_out[85] O
*I *739:la_data_out_o[85] O *D ntt_wb_bridge
*CAP
1 la_data_out[85] 0.00163143
2 *739:la_data_out_o[85] 0.00451113
3 *383:29 0.0045441
4 *383:25 0.0287503
5 *383:23 0.0258376
6 *383:21 0.0012511
7 *383:19 0.00576222
8 *383:19 *392:19 1.88656e-05
9 *383:21 *392:21 0.00553972
10 *383:25 *688:27 0.0168285
11 *383:25 *704:19 0.000372743
12 *383:25 *706:11 0.00618699
13 *383:25 *707:11 0
14 *284:13 *383:19 0.00118316
15 *284:13 *383:21 0.0033356
16 *284:25 la_data_out[85] 0.00266085
17 *293:13 *383:21 0.00123693
18 *352:23 *383:29 0
19 *353:23 *383:25 0
20 *353:23 *383:29 0
21 *354:27 *383:25 0
22 *354:27 *383:29 0
23 *359:27 *383:29 0
24 *369:7 *383:19 0.0275339
25 *371:23 *383:19 0.000183813
26 *381:23 *383:19 0.0275401
*RES
1 *739:la_data_out_o[85] *383:19 47.2038 
2 *383:19 *383:21 51.855 
3 *383:21 *383:23 2 
4 *383:23 *383:25 577.417 
5 *383:25 *383:29 49.1025 
6 *383:29 la_data_out[85] 42.175 
*END

*D_NET *384 0.156257
*CONN
*P la_data_out[86] O
*I *739:la_data_out_o[86] O *D ntt_wb_bridge
*CAP
1 la_data_out[86] 0.0365253
2 *739:la_data_out_o[86] 0.00660482
3 *384:25 0.0365253
4 *384:23 0.00518576
5 *384:21 0.0117906
6 la_data_out[86] *673:47 0
7 *384:21 *389:23 0.00208714
8 *384:21 *394:15 0.00209265
9 *384:21 *676:31 0.00022595
10 *384:21 *716:15 0.00392566
11 *384:21 *733:23 0.00418861
12 *384:23 *386:25 0.00436025
13 *384:23 *675:27 0
14 *384:23 *702:23 0.0120389
15 *384:23 *711:15 0.00151653
16 *115:27 la_data_out[86] 0
17 *279:19 la_data_out[86] 0
18 *356:29 *384:21 0.000176401
19 *359:25 *384:23 0.000988653
20 *371:23 *384:21 0.000386393
21 *376:21 *384:21 0.016614
22 *379:23 *384:23 0.00803308
23 *382:15 *384:21 0.00299088
*RES
1 *739:la_data_out_o[86] *384:21 46.7203 
2 *384:21 *384:23 176.745 
3 *384:23 *384:25 2 
4 *384:25 la_data_out[86] 653.49 
*END

*D_NET *385 0.1772
*CONN
*P la_data_out[87] O
*I *739:la_data_out_o[87] O *D ntt_wb_bridge
*CAP
1 la_data_out[87] 0.0313217
2 *739:la_data_out_o[87] 0.000888501
3 *385:17 0.0313217
4 *385:15 0.00956999
5 *385:13 0.0104585
6 la_data_out[87] *660:15 0.0105053
7 la_data_out[87] *663:89 0.00302175
8 la_data_out[87] *715:21 0.00121975
9 *385:15 *387:15 0.0356922
10 *385:15 *396:15 0.000246056
11 *273:15 *385:15 0.00527323
12 *274:15 *385:15 0.000106983
13 *275:15 *385:15 0.000977809
14 *276:15 *385:15 0.000481853
15 *280:15 *385:15 0.00414895
16 *362:15 *385:15 0.000515589
17 *371:23 *385:13 0.000336031
18 *374:15 *385:15 0.030317
19 *378:15 *385:15 0.000127319
20 *382:15 *385:15 0.000670001
*RES
1 *739:la_data_out_o[87] *385:13 12.4103 
2 *385:13 *385:15 56.5567 
3 *385:15 *385:17 0.5 
4 *385:17 la_data_out[87] 647.242 
*END

*D_NET *386 0.156455
*CONN
*P la_data_out[88] O
*I *739:la_data_out_o[88] O *D ntt_wb_bridge
*CAP
1 la_data_out[88] 0.0362319
2 *739:la_data_out_o[88] 0.00341537
3 *386:27 0.0362319
4 *386:25 0.00619668
5 *386:23 0.00961205
6 la_data_out[88] *684:15 0
7 la_data_out[88] *692:11 0
8 *386:23 *657:21 1.88656e-05
9 *386:25 *389:23 0
10 *386:25 *657:15 0.00019362
11 *386:25 *673:45 0.000313417
12 *386:25 *676:31 0.000455104
13 *386:25 *678:19 0.0141159
14 *386:25 *702:23 0.0149003
15 *386:25 *711:15 0.00300825
16 *114:35 la_data_out[88] 0.000946467
17 *358:25 *386:23 0.000126605
18 *359:25 *386:25 0.000119831
19 *371:23 *386:23 0.000245728
20 *373:17 *386:23 0.0129811
21 *379:21 *386:23 0.0129811
22 *384:23 *386:25 0.00436025
*RES
1 *739:la_data_out_o[88] *386:23 43.1421 
2 *386:23 *386:25 229.185 
3 *386:25 *386:27 2 
4 *386:27 la_data_out[88] 652.98 
*END

*D_NET *387 0.176063
*CONN
*P la_data_out[89] O
*I *739:la_data_out_o[89] O *D ntt_wb_bridge
*CAP
1 la_data_out[89] 0.0360459
2 *739:la_data_out_o[89] 0.000829328
3 *387:17 0.0360459
4 *387:15 0.0094628
5 *387:13 0.0102921
6 *387:15 *390:15 0.0385957
7 *387:15 *726:15 0.000258101
8 *387:15 *736:15 0.000238061
9 *273:15 *387:15 0.000367035
10 *275:15 *387:15 0.000338889
11 *280:15 *387:15 0.000279113
12 *296:15 *387:15 0.00297603
13 *300:15 *387:15 0.00370939
14 *362:15 *387:15 0.000697403
15 *371:23 *387:13 0.000235309
16 *385:15 *387:15 0.0356922
*RES
1 *739:la_data_out_o[89] *387:13 11.7534 
2 *387:13 *387:15 59.2952 
3 *387:15 *387:17 0.5 
4 *387:17 la_data_out[89] 646.732 
*END

*D_NET *388 0.125431
*CONN
*P la_data_out[8] O
*I *739:la_data_out_o[8] O *D ntt_wb_bridge
*CAP
1 la_data_out[8] 0.0342033
2 *739:la_data_out_o[8] 0.00475967
3 *388:29 0.0465762
4 *388:25 0.0171326
5 *388:25 *399:25 0.000202727
6 *388:29 *632:7 0.00409414
7 *126:25 *388:25 0.00146405
8 *272:25 *388:25 0
9 *306:13 *388:25 0.000105621
10 *307:13 *388:25 0.000106603
11 *310:31 *388:25 0.000490588
12 *312:15 *388:25 0.00217657
13 *317:19 *388:25 0.00054017
14 *318:19 *388:25 0.000475461
15 *319:19 *388:25 0.000467769
16 *321:15 *388:25 0.000869582
17 *321:19 *388:25 0.000502653
18 *324:15 *388:25 0.0010211
19 *324:19 *388:25 0.000233601
20 *325:15 *388:25 0.000787296
21 *326:15 *388:25 0.000274976
22 *326:19 *388:25 0.000147915
23 *327:15 *388:25 0.00111256
24 *328:15 *388:25 0.000245041
25 *333:15 *388:25 0.00184191
26 *335:23 *388:25 0.000233601
27 *337:19 *388:25 0.00269061
28 *344:27 *388:25 0.00204524
29 *366:25 *388:25 0.000629322
*RES
1 *739:la_data_out_o[8] *388:25 23.266 
2 *388:25 *388:29 35.4689 
3 *388:29 la_data_out[8] 606.443 
*END

*D_NET *389 0.166784
*CONN
*P la_data_out[90] O
*I *739:la_data_out_o[90] O *D ntt_wb_bridge
*CAP
1 la_data_out[90] 0.0309286
2 *739:la_data_out_o[90] 0.00215222
3 *389:25 0.0309286
4 *389:23 0.00729827
5 *389:21 0.00945049
6 *389:21 *711:15 0.00477672
7 *389:23 *394:15 0.0344068
8 *389:23 *676:31 0.000162976
9 *389:23 *716:15 0.0216399
10 *76:35 la_data_out[90] 0.00374984
11 *78:57 la_data_out[90] 0.0118323
12 *360:55 *389:23 0.00102523
13 *371:23 *389:21 0.000184947
14 *376:21 *389:23 0.00138288
15 *379:21 *389:21 0.00477672
16 *384:21 *389:23 0.00208714
17 *386:25 *389:23 0
*RES
1 *739:la_data_out_o[90] *389:21 29.9157 
2 *389:21 *389:23 317.505 
3 *389:23 *389:25 2 
4 *389:25 la_data_out[90] 651.45 
*END

*D_NET *390 0.180039
*CONN
*P la_data_out[91] O
*I *739:la_data_out_o[91] O *D ntt_wb_bridge
*CAP
1 la_data_out[91] 0.0371708
2 *739:la_data_out_o[91] 0.000761992
3 *390:17 0.0371708
4 *390:15 0.00801595
5 *390:13 0.00877794
6 la_data_out[91] *658:53 0
7 la_data_out[91] *663:69 0.000891479
8 *390:15 *726:15 0.00530652
9 *390:15 *736:15 0.00579702
10 *115:43 la_data_out[91] 0
11 *273:15 *390:15 0.000207709
12 *275:15 *390:15 0.000394716
13 *277:17 *390:15 0.00737348
14 *280:15 *390:15 0.000281018
15 *296:15 *390:15 0.000304357
16 *362:15 *390:15 0.0288546
17 *371:23 *390:13 0.000134586
18 *387:15 *390:15 0.0385957
*RES
1 *739:la_data_out_o[91] *390:13 11.0965 
2 *390:13 *390:15 62.092 
3 *390:15 *390:17 0.5 
4 *390:17 la_data_out[91] 646.222 
*END

*D_NET *391 0.162038
*CONN
*P la_data_out[92] O
*I *739:la_data_out_o[92] O *D ntt_wb_bridge
*CAP
1 la_data_out[92] 0.0353243
2 *739:la_data_out_o[92] 0.000556394
3 *391:29 0.0353243
4 *391:27 0.00392738
5 *391:25 0.00563661
6 *391:21 0.00221385
7 *391:15 0.00363606
8 *391:13 0.00368783
9 la_data_out[92] *663:55 0.00577758
10 *391:15 *728:15 0.0232886
11 *391:21 *395:21 0.000630824
12 *391:21 *397:23 0
13 *391:25 *393:23 0.00138933
14 *391:25 *395:23 6.75158e-06
15 *391:27 *393:23 0.00145601
16 *114:59 la_data_out[92] 0
17 *278:15 *391:15 0.0153801
18 *297:13 *391:25 0.000326963
19 *297:13 *391:27 0.00739771
20 *298:31 *391:27 0.00234896
21 *359:15 *391:15 0.00471077
22 *363:15 *391:15 0.00470625
23 *363:65 *391:21 0
24 *368:33 *391:25 5.74791e-05
25 *368:37 *391:25 0.004106
26 *371:23 *391:13 8.42249e-05
27 *381:23 *391:21 6.34586e-05
*RES
1 *739:la_data_out_o[92] *391:13 9.8455 
2 *391:13 *391:15 210.9 
3 *391:15 *391:21 13.03 
4 *391:21 *391:25 48.5925 
5 *391:25 *391:27 116.543 
6 *391:27 *391:29 2 
7 *391:29 la_data_out[92] 634.875 
*END

*D_NET *392 0.166943
*CONN
*P la_data_out[93] O
*I *739:la_data_out_o[93] O *D ntt_wb_bridge
*CAP
1 la_data_out[93] 0.0365528
2 *739:la_data_out_o[93] 0.00386609
3 *392:23 0.0365528
4 *392:21 0.00373251
5 *392:19 0.0075986
6 la_data_out[93] *682:81 0.000713302
7 la_data_out[93] *714:53 0
8 *77:65 la_data_out[93] 0.000404341
9 *284:13 *392:21 2.0514e-05
10 *288:23 *392:21 0.0201851
11 *293:13 *392:21 0.00606579
12 *369:13 *392:21 0.000119831
13 *371:23 *392:19 4.13796e-05
14 *375:13 *392:19 0.0227655
15 *380:13 *392:19 0.0227655
16 *383:19 *392:19 1.88656e-05
17 *383:21 *392:21 0.00553972
*RES
1 *739:la_data_out_o[93] *392:19 42.836 
2 *392:19 *392:21 184.68 
3 *392:21 *392:23 2 
4 *392:23 la_data_out[93] 637.935 
*END

*D_NET *393 0.159541
*CONN
*P la_data_out[94] O
*I *739:la_data_out_o[94] O *D ntt_wb_bridge
*CAP
1 la_data_out[94] 0.0365805
2 *739:la_data_out_o[94] 0.000539789
3 *393:25 0.0365805
4 *393:23 0.00610118
5 *393:21 0.00645225
6 *393:15 0.00374829
7 *393:13 0.00393701
8 *393:15 *395:15 0.0204682
9 *393:15 *530:15 0.000609526
10 *393:21 *395:21 5.67545e-05
11 *393:23 *395:23 0.0205052
12 *393:23 *667:41 0.00104216
13 *281:17 *393:15 0.0027955
14 *297:13 *393:23 0
15 *298:29 *393:21 0.000485874
16 *298:31 *393:23 0.000599134
17 *301:21 *393:21 0.000577393
18 *353:13 *393:15 0.000828005
19 *354:15 *393:15 0.00109698
20 *363:15 *393:15 0.000611017
21 *363:65 *393:21 3.92916e-05
22 *371:23 *393:13 0.000303036
23 *372:15 *393:15 0.0127377
24 *391:25 *393:23 0.00138933
25 *391:27 *393:23 0.00145601
*RES
1 *739:la_data_out_o[94] *393:13 8.8897 
2 *393:13 *393:15 198.825 
3 *393:15 *393:21 12.775 
4 *393:21 *393:23 190.2 
5 *393:23 *393:25 2 
6 *393:25 la_data_out[94] 633.6 
*END

*D_NET *394 0.161231
*CONN
*P la_data_out[95] O
*I *739:la_data_out_o[95] O *D ntt_wb_bridge
*CAP
1 la_data_out[95] 0.0362928
2 *739:la_data_out_o[95] 0.0013131
3 *394:17 0.0362928
4 *394:15 0.0111104
5 *394:13 0.0124235
6 la_data_out[95] *685:109 0
7 *394:15 *663:53 0
8 *394:15 *716:15 0.000682956
9 *394:15 *733:23 0.0238071
10 *274:15 *394:15 0
11 *276:15 *394:15 0
12 *360:55 *394:15 0.00102523
13 *371:23 *394:13 0.000506841
14 *376:21 *394:15 0.00127696
15 *384:21 *394:15 0.00209265
16 *389:23 *394:15 0.0344068
*RES
1 *739:la_data_out_o[95] *394:13 18.1491 
2 *394:13 *394:15 394.785 
3 *394:15 *394:17 2 
4 *394:17 la_data_out[95] 651.195 
*END

*D_NET *395 0.180934
*CONN
*P la_data_out[96] O
*I *739:la_data_out_o[96] O *D ntt_wb_bridge
*CAP
1 la_data_out[96] 0.0325134
2 *739:la_data_out_o[96] 0.000616601
3 *395:25 0.0325134
4 *395:23 0.00421143
5 *395:21 0.00456413
6 *395:15 0.0029716
7 *395:13 0.0032355
8 la_data_out[96] *658:59 0.00177926
9 la_data_out[96] *685:101 0.00268609
10 la_data_out[96] *714:61 0.00348481
11 la_data_out[96] *715:43 0
12 *395:15 *397:15 0.0190707
13 *395:23 *397:25 0.0234603
14 *395:23 *667:41 0.00112871
15 *77:73 la_data_out[96] 0.000488679
16 *281:17 *395:15 0.00304989
17 *297:13 *395:23 0
18 *301:21 *395:21 0.000594195
19 *353:13 *395:15 0.000645252
20 *354:15 *395:15 0.000946328
21 *363:15 *395:15 0.000824301
22 *371:23 *395:13 0.000481905
23 *391:21 *395:21 0.000630824
24 *391:25 *395:23 6.75158e-06
25 *393:15 *395:15 0.0204682
26 *393:21 *395:21 5.67545e-05
27 *393:23 *395:23 0.0205052
*RES
1 *739:la_data_out_o[96] *395:13 9.40563 
2 *395:13 *395:15 185.37 
3 *395:15 *395:21 13.285 
4 *395:21 *395:23 217.455 
5 *395:23 *395:25 2 
6 *395:25 la_data_out[96] 633.345 
*END

*D_NET *396 0.179082
*CONN
*P la_data_out[97] O
*I *739:la_data_out_o[97] O *D ntt_wb_bridge
*CAP
1 la_data_out[97] 0.0248744
2 *739:la_data_out_o[97] 0.0010725
3 *396:17 0.0248744
4 *396:15 0.00777242
5 *396:13 0.00884492
6 *396:15 *733:23 0
7 *396:15 *737:34 0.0202874
8 *274:15 *396:15 0.0402051
9 *275:15 *396:15 0.0141511
10 *286:17 la_data_out[97] 0.0322093
11 *371:23 *396:13 0.00041857
12 *378:15 *396:15 0.00399688
13 *382:15 *396:15 0.00012905
14 *385:15 *396:15 0.000246056
*RES
1 *739:la_data_out_o[97] *396:13 15.1972 
2 *396:13 *396:15 411 
3 *396:15 *396:17 2 
4 *396:17 la_data_out[97] 648.39 
*END

*D_NET *397 0.181669
*CONN
*P la_data_out[98] O
*I *739:la_data_out_o[98] O *D ntt_wb_bridge
*CAP
1 la_data_out[98] 0.0347783
2 *739:la_data_out_o[98] 0.000607118
3 *397:27 0.0347783
4 *397:25 0.00474526
5 *397:23 0.00547821
6 *397:15 0.00311603
7 *397:13 0.00299019
8 la_data_out[98] *714:77 0.00182416
9 *397:23 *530:13 0
10 *397:25 *667:41 0.00122437
11 *114:73 la_data_out[98] 0
12 *278:23 *397:25 0.0257086
13 *281:17 *397:15 0.000619431
14 *297:13 *397:25 0
15 *301:23 *397:25 0.000351177
16 *354:15 *397:15 0.00319399
17 *359:15 *397:15 0.000274976
18 *363:15 *397:15 0.0190665
19 *371:23 *397:13 0.000381183
20 *381:23 *397:23 0
21 *391:21 *397:23 0
22 *395:15 *397:15 0.0190707
23 *395:23 *397:25 0.0234603
*RES
1 *739:la_data_out_o[98] *397:13 9.5137 
2 *397:13 *397:15 172.605 
3 *397:15 *397:23 13.9 
4 *397:23 *397:25 246.435 
5 *397:25 *397:27 2 
6 *397:27 la_data_out[98] 633.09 
*END

*D_NET *398 0.156835
*CONN
*P la_data_out[99] O
*I *739:la_data_out_o[99] O *D ntt_wb_bridge
*CAP
1 la_data_out[99] 0.0359065
2 *739:la_data_out_o[99] 0.00432973
3 *398:25 0.0359065
4 *398:23 0.0135093
5 *398:21 0.0137216
6 *398:17 0.00454203
7 la_data_out[99] *685:87 0.00278093
8 la_data_out[99] *714:89 0
9 *398:17 *740:slot_b[1] 0.00840818
10 *398:17 *647:11 0.0148454
11 *398:17 *661:23 0.00068042
12 *398:17 *661:31 0.000258121
13 *398:17 *664:15 0.000370493
14 *398:17 *688:15 0.000962424
15 *398:17 *710:31 0.00239592
16 *398:21 *740:mem_slot[0] 0
17 *398:23 *646:57 0.000902434
18 *398:23 *662:27 0.00764798
19 *398:23 *663:45 0
20 *398:23 *675:27 0.00697209
21 *398:23 *679:61 0.000136666
22 *398:23 *688:23 0.000192503
23 *353:21 *398:23 0.00121678
24 *358:25 *398:17 0.000689743
25 *361:15 *398:17 0.000128543
26 *371:23 *398:17 0.000330822
*RES
1 *739:la_data_out_o[99] *398:17 48.327 
2 *398:17 *398:21 4.7825 
3 *398:21 *398:23 287.145 
4 *398:23 *398:25 2 
5 *398:25 la_data_out[99] 656.295 
*END

*D_NET *399 0.129488
*CONN
*P la_data_out[9] O
*I *739:la_data_out_o[9] O *D ntt_wb_bridge
*CAP
1 la_data_out[9] 0.0348332
2 *739:la_data_out_o[9] 0.00493982
3 *399:29 0.0429513
4 *399:25 0.0130579
5 *399:25 *728:15 0.000245118
6 *126:25 *399:25 0.00013922
7 *126:29 *399:29 0
8 *129:23 *399:29 0.0202408
9 *305:13 *399:25 0.000101753
10 *306:13 *399:25 0.000117246
11 *307:13 *399:25 0.000118628
12 *309:13 *399:25 0.000108734
13 *310:31 *399:25 0.00054095
14 *313:13 *399:25 0.000109416
15 *316:19 *399:25 0.000348731
16 *317:15 *399:25 0.000422373
17 *330:13 *399:25 0.000212334
18 *331:17 *399:25 0.000103095
19 *333:15 *399:25 0.00022073
20 *337:19 *399:25 0.000148545
21 *338:21 *399:25 0.000923904
22 *339:25 *399:25 0.00151116
23 *339:37 *399:25 0.00228162
24 *341:29 *399:25 0.00115446
25 *343:31 *399:25 0.000143229
26 *346:37 *399:25 0.000103095
27 *348:39 *399:25 0.00015391
28 *350:31 *399:25 0.000165398
29 *355:17 *399:25 0.000903473
30 *366:25 *399:25 0.00298466
31 *388:25 *399:25 0.000202727
*RES
1 *739:la_data_out_o[9] *399:25 25.7653 
2 *399:25 *399:29 32.7886 
3 *399:29 la_data_out[9] 617.662 
*END

*D_NET *529 0.167724
*CONN
*P user_irq[0] O
*I *739:user_irq_o[0] O *D ntt_wb_bridge
*CAP
1 user_irq[0] 0.00217762
2 *739:user_irq_o[0] 0.000482982
3 *529:23 0.0314697
4 *529:21 0.0292921
5 *529:19 0.0302527
6 *529:17 0.0302527
7 *529:15 0.00610318
8 *529:13 0.00658616
9 *529:19 *682:87 0.00741421
10 *529:19 *715:27 0.00507978
11 *100:31 user_irq[0] 0.000760324
12 *114:51 *529:19 0
13 *128:25 user_irq[0] 0
14 *279:17 *529:15 0.000586236
15 *293:13 *529:15 0
16 *299:15 *529:15 0.0168558
17 *371:23 *529:13 0.000143269
18 *380:13 *529:15 0.00026732
*RES
1 *739:user_irq_o[0] *529:13 6.87163 
2 *529:13 *529:15 154.32 
3 *529:15 *529:17 2 
4 *529:17 *529:19 597.825 
5 *529:19 *529:21 2 
6 *529:21 *529:23 499.665 
7 *529:23 user_irq[0] 44.765 
*END

*D_NET *530 0.159598
*CONN
*P user_irq[1] O
*I *739:user_irq_o[1] O *D ntt_wb_bridge
*CAP
1 user_irq[1] 0.00262873
2 *739:user_irq_o[1] 0.000583054
3 *530:23 0.0346132
4 *530:21 0.0319844
5 *530:19 0.030134
6 *530:17 0.030134
7 *530:15 0.00538044
8 *530:13 0.00596349
9 *530:15 *728:15 0
10 *530:19 *670:15 0.010376
11 *530:19 *682:97 0.00184121
12 *278:15 *530:15 6.24064e-05
13 *279:17 *530:15 0.000857336
14 *299:15 *530:15 0.000988717
15 *363:15 *530:15 2.04328e-05
16 *365:19 *530:15 2.91667e-05
17 *370:15 *530:15 0.000375638
18 *371:23 *530:13 0.000113747
19 *372:15 *530:15 0.00290202
20 *393:15 *530:15 0.000609526
21 *397:23 *530:13 0
*RES
1 *739:user_irq_o[1] *530:13 8.35857 
2 *530:13 *530:15 107.055 
3 *530:15 *530:17 2 
4 *530:17 *530:19 594.255 
5 *530:19 *530:21 2 
6 *530:21 *530:23 545.55 
7 *530:23 user_irq[1] 49.865 
*END

*D_NET *531 0.163856
*CONN
*P user_irq[2] O
*I *739:user_irq_o[2] O *D ntt_wb_bridge
*CAP
1 user_irq[2] 0.0336123
2 *739:user_irq_o[2] 0.00350956
3 *531:25 0.0336123
4 *531:23 0.0399845
5 *531:21 0.043494
6 *531:21 *693:11 0.000187125
7 *531:21 *703:11 0.000475476
8 *531:23 *655:121 0.00033905
9 *531:23 *721:117 0.000142886
10 *105:19 *531:21 0.00259639
11 *278:21 *531:21 0.000377001
12 *279:17 *531:21 0.00311803
13 *286:13 *531:21 0.000114019
14 *290:13 *531:21 0.000107806
15 *298:31 *531:21 9.22365e-05
16 *371:23 *531:21 0.00054884
17 *373:21 *531:21 0
18 *375:13 *531:21 0.000102798
19 *380:13 *531:21 0.00144119
*RES
1 *739:user_irq_o[2] *531:21 42.2447 
2 *531:21 *531:23 104.219 
3 *531:23 *531:25 0.5 
4 *531:25 user_irq[2] 611.542 
*END

*D_NET *540 0.744134
*CONN
*P wb_clk_i I
*I *739:wb_clk_i I *D ntt_wb_bridge
*I *740:clk I *D ntt_engine_256
*CAP
1 wb_clk_i 0.00376108
2 *739:wb_clk_i 3.93458e-05
3 *740:clk 0.00140709
4 *540:215 0.022159
5 *540:193 0.0800538
6 *540:191 0.0786467
7 *540:189 0.0615751
8 *540:187 0.0615751
9 *540:185 0.00498303
10 *540:149 0.00871351
11 *540:135 0.00749591
12 *540:107 0.0072531
13 *540:85 0.00753419
14 *540:83 0.00523145
15 *540:77 0.00699191
16 *540:75 0.00754521
17 *540:67 0.00451581
18 *540:51 0.00571863
19 *540:25 0.008133
20 *540:23 0.00746914
21 *540:9 0.0577145
22 *540:7 0.0333176
23 *540:5 0.00376108
24 *740:clk *658:135 0.000432191
25 *740:clk *663:11 0.00203318
26 *740:clk *685:21 0.000474594
27 *740:clk *714:147 0.000858995
28 *540:9 *541:9 0
29 *540:23 *548:13 0
30 *540:23 *578:13 0
31 *540:23 *641:9 0
32 *540:23 *642:9 0.000292919
33 *540:25 wbs_dat_o[31] 0.00691859
34 *540:51 wbs_dat_o[29] 0.00188978
35 *540:51 wbs_dat_o[30] 0
36 *540:51 *559:9 0.00145111
37 *540:51 *560:9 0
38 *540:51 *562:11 0.00154487
39 *540:51 *563:11 0
40 *540:51 *567:5 0
41 *540:51 *576:9 0
42 *540:67 wbs_dat_o[28] 0
43 *540:67 *597:5 0.00171928
44 *540:67 *604:9 0.000890412
45 *540:67 *605:9 0.000838779
46 *540:67 *606:9 0
47 *540:75 wbs_dat_o[27] 0
48 *540:75 *579:9 0.000200421
49 *540:75 *580:9 0
50 *540:77 wbs_dat_o[27] 0
51 *540:77 *595:5 0
52 *540:83 *542:7 0
53 *540:83 *608:7 0.000853039
54 *540:85 wbs_dat_o[25] 0
55 *540:107 wbs_dat_o[25] 0
56 *540:107 *613:7 0.000324461
57 *540:107 *618:7 0
58 *540:107 *620:13 0.00275038
59 *540:135 *622:7 0
60 *540:185 *656:25 0.000109394
61 *540:185 *675:19 0.000396327
62 *540:185 *676:21 0.00121946
63 *540:185 *691:23 0.000340779
64 *540:185 *709:15 0.00064677
65 *540:185 *734:39 0.000579495
66 *540:185 *737:42 0.00401033
67 *540:189 *717:35 0.00900528
68 *540:189 *736:27 0.0116677
69 *540:193 *734:65 0.00154377
70 *540:215 *541:9 0
71 io_out[37] *540:9 0
72 *80:133 *540:107 0.00205913
73 *116:47 *540:23 0
74 *116:131 *540:185 0.000651132
75 *116:149 *540:193 0.0389055
76 *118:47 *540:215 0
77 *118:129 *540:135 0.00121557
78 *118:147 *540:135 0.000874867
79 *119:25 *540:189 0.160177
80 *120:23 *540:193 0.00166319
*RES
1 wb_clk_i *540:5 68.3925 
2 *540:5 *540:7 0.5 
3 *540:7 *540:9 80.0964 
4 *540:9 *540:23 37.1399 
5 *540:23 *540:25 135.255 
6 *540:25 *540:51 44.4301 
7 *540:51 *540:67 46.582 
8 *540:67 *540:75 28.537 
9 *540:75 *540:77 103.635 
10 *540:77 *540:83 4.534 
11 *540:83 *540:85 72.015 
12 *540:85 *540:107 49.35 
13 *540:107 *540:135 46.2976 
14 *540:135 *540:149 49.6646 
15 *540:149 *540:185 49.8455 
16 *540:185 *540:187 0.5 
17 *540:187 *540:189 1791.73 
18 *540:189 *540:191 0.5 
19 *540:191 *540:193 199.951 
20 *540:193 *740:clk 16.4646 
21 *540:9 *540:215 53.9055 
22 *540:215 *739:wb_clk_i 0.0620667 
*END

*D_NET *541 0.116241
*CONN
*P wb_rst_i I
*I *739:wb_rst_i I *D ntt_wb_bridge
*CAP
1 wb_rst_i 0.00418515
2 *739:wb_rst_i 3.74357e-05
3 *541:9 0.0530821
4 *541:7 0.0530447
5 *541:5 0.00418515
6 io_out[37] *541:9 0.000243111
7 *118:47 *541:9 0.00146385
8 *130:41 *541:9 0
9 *540:9 *541:9 0
10 *540:215 *541:9 0
*RES
1 wb_rst_i *541:5 72.9825 
2 *541:5 *541:7 0.5 
3 *541:7 *541:9 133.265 
4 *541:9 *739:wb_rst_i 0.0620667 
*END

*D_NET *542 0.165677
*CONN
*P wbs_ack_o O
*I *739:wbs_ack_o O *D ntt_wb_bridge
*CAP
1 wbs_ack_o 0.00109666
2 *739:wbs_ack_o 3.93458e-05
3 *542:11 0.0235296
4 *542:9 0.022433
5 *542:7 0.052797
6 *542:5 0.0528364
7 wbs_ack_o *575:11 0.000330938
8 *542:7 *600:9 0
9 *542:7 *608:7 0
10 *542:11 *575:13 0.00339837
11 *542:11 *644:5 0
12 *122:25 *542:11 0
13 *123:27 *542:11 0.00921587
14 *540:83 *542:7 0
*RES
1 *739:wbs_ack_o *542:5 0.0620667 
2 *542:5 *542:7 131.284 
3 *542:7 *542:9 0.5 
4 *542:9 *542:11 428.505 
5 *542:11 wbs_ack_o 14.5541 
*END

*D_NET *543 0.115973
*CONN
*P wbs_adr_i[0] I
*I *739:wbs_adr_i[0] I *D ntt_wb_bridge
*CAP
1 wbs_adr_i[0] 0.00637004
2 *739:wbs_adr_i[0] 3.74357e-05
3 *543:9 0.0516165
4 *543:7 0.051579
5 *543:5 0.00637004
6 *543:9 *554:9 0
7 *543:9 *643:9 0
*RES
1 wbs_adr_i[0] *543:5 114.293 
2 *543:5 *543:7 0.5 
3 *543:7 *543:9 129.477 
4 *543:9 *739:wbs_adr_i[0] 0.0620667 
*END

*D_NET *544 0.103336
*CONN
*P wbs_adr_i[10] I
*I *739:wbs_adr_i[10] I *D ntt_wb_bridge
*CAP
1 wbs_adr_i[10] 0.0092898
2 *739:wbs_adr_i[10] 3.74357e-05
3 *544:9 0.0416212
4 *544:7 0.0415838
5 *544:5 0.0092898
6 *544:9 *545:9 0
7 *544:9 *574:9 0
8 io_oeb[36] *544:9 0
9 *125:25 *544:5 0.00151423
*RES
1 wbs_adr_i[10] *544:5 165.292 
2 *544:5 *544:7 0.5 
3 *544:7 *544:9 104.015 
4 *544:9 *739:wbs_adr_i[10] 0.0620667 
*END

*D_NET *545 0.113025
*CONN
*P wbs_adr_i[11] I
*I *739:wbs_adr_i[11] I *D ntt_wb_bridge
*CAP
1 wbs_adr_i[11] 0.00959012
2 *739:wbs_adr_i[11] 3.74357e-05
3 *545:9 0.0277288
4 *545:7 0.0276914
5 *545:5 0.00959012
6 *545:9 *546:9 0
7 io_oeb[36] *545:9 0.0383871
8 *83:25 *545:5 0
9 *544:9 *545:9 0
*RES
1 wbs_adr_i[11] *545:5 170.393 
2 *545:5 *545:7 0.5 
3 *545:7 *545:9 101.801 
4 *545:9 *739:wbs_adr_i[11] 0.0620667 
*END

*D_NET *546 0.100159
*CONN
*P wbs_adr_i[12] I
*I *739:wbs_adr_i[12] I *D ntt_wb_bridge
*CAP
1 wbs_adr_i[12] 0.00990229
2 *739:wbs_adr_i[12] 3.93458e-05
3 *546:9 0.0397502
4 *546:7 0.0397108
5 *546:5 0.00990229
6 *546:9 *547:9 0
7 *85:25 *546:5 0.00085428
8 *545:9 *546:9 0
*RES
1 wbs_adr_i[12] *546:5 175.492 
2 *546:5 *546:7 0.5 
3 *546:7 *546:9 99.5283 
4 *546:9 *739:wbs_adr_i[12] 0.0620667 
*END

*D_NET *547 0.103686
*CONN
*P wbs_adr_i[13] I
*I *739:wbs_adr_i[13] I *D ntt_wb_bridge
*CAP
1 wbs_adr_i[13] 0.0101886
2 *739:wbs_adr_i[13] 3.74357e-05
3 *547:9 0.0388453
4 *547:7 0.0388079
5 *547:5 0.0101886
6 *547:9 *548:17 0
7 *84:27 *547:5 0
8 *84:29 *547:5 0
9 *86:33 *547:5 0
10 *87:57 *547:5 0.00561869
11 *121:31 *547:5 0
12 *546:9 *547:9 0
*RES
1 wbs_adr_i[13] *547:5 180.592 
2 *547:5 *547:7 0.5 
3 *547:7 *547:9 97.3142 
4 *547:9 *739:wbs_adr_i[13] 0.0620667 
*END

*D_NET *548 0.0986897
*CONN
*P wbs_adr_i[14] I
*I *739:wbs_adr_i[14] I *D ntt_wb_bridge
*CAP
1 wbs_adr_i[14] 0.000623347
2 *739:wbs_adr_i[14] 3.93458e-05
3 *548:17 0.0216113
4 *548:15 0.021572
5 *548:13 0.00952324
6 *548:11 0.0261952
7 *548:7 0.0172953
8 *548:17 *549:9 0
9 *116:47 *548:13 0.00183003
10 *540:23 *548:13 0
11 *547:9 *548:17 0
*RES
1 wbs_adr_i[14] *548:7 11.7725 
2 *548:7 *548:11 41.2664 
3 *548:11 *548:13 174.525 
4 *548:13 *548:15 0.5 
5 *548:15 *548:17 54.3134 
6 *548:17 *739:wbs_adr_i[14] 0.0620667 
*END

*D_NET *549 0.0947406
*CONN
*P wbs_adr_i[15] I
*I *739:wbs_adr_i[15] I *D ntt_wb_bridge
*CAP
1 wbs_adr_i[15] 0.0108252
2 *739:wbs_adr_i[15] 3.74357e-05
3 *549:9 0.0349801
4 *549:7 0.0349427
5 *549:5 0.0108252
6 *549:9 *550:9 0
7 *118:71 *549:9 0.00313004
8 *548:17 *549:9 0
*RES
1 wbs_adr_i[15] *549:5 190.792 
2 *549:5 *549:7 0.5 
3 *549:7 *549:9 92.8277 
4 *549:9 *739:wbs_adr_i[15] 0.0620667 
*END

*D_NET *550 0.091714
*CONN
*P wbs_adr_i[16] I
*I *739:wbs_adr_i[16] I *D ntt_wb_bridge
*CAP
1 wbs_adr_i[16] 0.0111126
2 *739:wbs_adr_i[16] 3.74357e-05
3 *550:9 0.0347444
4 *550:7 0.034707
5 *550:5 0.0111126
6 *550:9 *551:9 0
7 *118:71 *550:9 0
8 *549:9 *550:9 0
*RES
1 wbs_adr_i[16] *550:5 195.893 
2 *550:5 *550:7 0.5 
3 *550:7 *550:9 90.5553 
4 *550:9 *739:wbs_adr_i[16] 0.0620667 
*END

*D_NET *551 0.0928258
*CONN
*P wbs_adr_i[17] I
*I *739:wbs_adr_i[17] I *D ntt_wb_bridge
*CAP
1 wbs_adr_i[17] 0.0113996
2 *739:wbs_adr_i[17] 3.93458e-05
3 *551:9 0.0350133
4 *551:7 0.0349739
5 *551:5 0.0113996
6 *551:9 *552:9 0
7 *550:9 *551:9 0
*RES
1 wbs_adr_i[17] *551:5 200.992 
2 *551:5 *551:7 0.5 
3 *551:7 *551:9 88.3411 
4 *551:9 *739:wbs_adr_i[17] 0.0620667 
*END

*D_NET *552 0.0918129
*CONN
*P wbs_adr_i[18] I
*I *739:wbs_adr_i[18] I *D ntt_wb_bridge
*CAP
1 wbs_adr_i[18] 0.0116859
2 *739:wbs_adr_i[18] 3.74357e-05
3 *552:9 0.0337522
4 *552:7 0.0337147
5 *552:5 0.0116859
6 *552:9 *553:9 0
7 *118:71 *552:9 0.000936767
8 *551:9 *552:9 0
*RES
1 wbs_adr_i[18] *552:5 206.092 
2 *552:5 *552:7 0.5 
3 *552:7 *552:9 86.0687 
4 *552:9 *739:wbs_adr_i[18] 0.0620667 
*END

*D_NET *553 0.0884421
*CONN
*P wbs_adr_i[19] I
*I *739:wbs_adr_i[19] I *D ntt_wb_bridge
*CAP
1 wbs_adr_i[19] 0.0119733
2 *739:wbs_adr_i[19] 3.74357e-05
3 *553:9 0.0322478
4 *553:7 0.0322103
5 *553:5 0.0119733
6 *553:9 *555:9 0
7 *118:71 *553:9 0
8 *552:9 *553:9 0
*RES
1 wbs_adr_i[19] *553:5 211.193 
2 *553:5 *553:7 0.5 
3 *553:7 *553:9 83.8546 
4 *553:9 *739:wbs_adr_i[19] 0.0620667 
*END

*D_NET *554 0.111243
*CONN
*P wbs_adr_i[1] I
*I *739:wbs_adr_i[1] I *D ntt_wb_bridge
*CAP
1 wbs_adr_i[1] 0.00666426
2 *739:wbs_adr_i[1] 3.74357e-05
3 *554:9 0.0489572
4 *554:7 0.0489197
5 *554:5 0.00666426
6 *554:9 *565:9 0
7 *80:57 *554:9 0
8 *543:9 *554:9 0
*RES
1 wbs_adr_i[1] *554:5 119.393 
2 *554:5 *554:7 0.5 
3 *554:7 *554:9 126.506 
4 *554:9 *739:wbs_adr_i[1] 0.0620667 
*END

*D_NET *555 0.0901054
*CONN
*P wbs_adr_i[20] I
*I *739:wbs_adr_i[20] I *D ntt_wb_bridge
*CAP
1 wbs_adr_i[20] 0.0122353
2 *739:wbs_adr_i[20] 3.93458e-05
3 *555:9 0.0280647
4 *555:7 0.0280253
5 *555:5 0.0122353
6 io_out[36] *555:9 0.00950547
7 *553:9 *555:9 0
*RES
1 wbs_adr_i[20] *555:5 215.783 
2 *555:5 *555:7 0.5 
3 *555:7 *555:9 81.5822 
4 *555:9 *739:wbs_adr_i[20] 0.0620667 
*END

*D_NET *556 0.0886643
*CONN
*P wbs_adr_i[21] I
*I *739:wbs_adr_i[21] I *D ntt_wb_bridge
*CAP
1 wbs_adr_i[21] 0.0125277
2 *739:wbs_adr_i[21] 3.74357e-05
3 *556:9 0.0247564
4 *556:7 0.024719
5 *556:5 0.0125277
6 *556:9 *557:9 0
7 io_out[36] *556:9 0.00966949
8 *80:73 *556:9 0.00335737
9 *116:71 *556:9 0.00106924
10 *118:79 *556:9 0
*RES
1 wbs_adr_i[21] *556:5 220.883 
2 *556:5 *556:7 0.5 
3 *556:7 *556:9 79.3098 
4 *556:9 *739:wbs_adr_i[21] 0.0620667 
*END

*D_NET *557 0.08877
*CONN
*P wbs_adr_i[22] I
*I *739:wbs_adr_i[22] I *D ntt_wb_bridge
*CAP
1 wbs_adr_i[22] 0.0132449
2 *739:wbs_adr_i[22] 3.93458e-05
3 *557:9 0.0304022
4 *557:7 0.0303628
5 *557:5 0.0132449
6 *118:79 *557:9 0.00147599
7 *556:9 *557:9 0
*RES
1 wbs_adr_i[22] *557:5 225.982 
2 *557:5 *557:7 0.5 
3 *557:7 *557:9 77.0957 
4 *557:9 *739:wbs_adr_i[22] 0.0620667 
*END

*D_NET *558 0.0848093
*CONN
*P wbs_adr_i[23] I
*I *739:wbs_adr_i[23] I *D ntt_wb_bridge
*CAP
1 wbs_adr_i[23] 0.0135705
2 *739:wbs_adr_i[23] 3.74357e-05
3 *558:9 0.0288341
4 *558:7 0.0287967
5 *558:5 0.0135705
6 *558:9 *559:9 0
*RES
1 wbs_adr_i[23] *558:5 231.592 
2 *558:5 *558:7 0.5 
3 *558:7 *558:9 74.8233 
4 *558:9 *739:wbs_adr_i[23] 0.0620667 
*END

*D_NET *559 0.0845528
*CONN
*P wbs_adr_i[24] I
*I *739:wbs_adr_i[24] I *D ntt_wb_bridge
*CAP
1 wbs_adr_i[24] 0.013867
2 *739:wbs_adr_i[24] 3.74357e-05
3 *559:9 0.0276838
4 *559:7 0.0276464
5 *559:5 0.013867
6 *559:9 *560:9 0
7 *540:51 *559:9 0.00145111
8 *558:9 *559:9 0
*RES
1 wbs_adr_i[24] *559:5 236.693 
2 *559:5 *559:7 0.5 
3 *559:7 *559:9 72.6091 
4 *559:9 *739:wbs_adr_i[24] 0.0620667 
*END

*D_NET *560 0.0843153
*CONN
*P wbs_adr_i[25] I
*I *739:wbs_adr_i[25] I *D ntt_wb_bridge
*CAP
1 wbs_adr_i[25] 0.0141636
2 *739:wbs_adr_i[25] 3.93458e-05
3 *560:9 0.0279941
4 *560:7 0.0279547
5 *560:5 0.0141636
6 *560:9 *561:9 0
7 *540:51 *560:9 0
8 *559:9 *560:9 0
*RES
1 wbs_adr_i[25] *560:5 241.792 
2 *560:5 *560:7 0.5 
3 *560:7 *560:9 70.3367 
4 *560:9 *739:wbs_adr_i[25] 0.0620667 
*END

*D_NET *561 0.0830985
*CONN
*P wbs_adr_i[26] I
*I *739:wbs_adr_i[26] I *D ntt_wb_bridge
*CAP
1 wbs_adr_i[26] 0.0144601
2 *739:wbs_adr_i[26] 3.74357e-05
3 *561:9 0.0270891
4 *561:7 0.0270517
5 *561:5 0.0144601
6 *561:9 *562:11 0
7 *561:9 *562:13 0
8 *560:9 *561:9 0
*RES
1 wbs_adr_i[26] *561:5 246.893 
2 *561:5 *561:7 0.5 
3 *561:7 *561:9 68.1226 
4 *561:9 *739:wbs_adr_i[26] 0.0620667 
*END

*D_NET *562 0.0800267
*CONN
*P wbs_adr_i[27] I
*I *739:wbs_adr_i[27] I *D ntt_wb_bridge
*CAP
1 wbs_adr_i[27] 0.01425
2 *739:wbs_adr_i[27] 3.74357e-05
3 *562:13 0.0216866
4 *562:11 0.0249535
5 *562:5 0.0175543
6 *562:11 *563:11 0
7 *562:13 *563:11 0
8 *562:13 *563:13 0
9 *540:51 *562:11 0.00154487
10 *561:9 *562:11 0
11 *561:9 *562:13 0
*RES
1 wbs_adr_i[27] *562:5 251.482 
2 *562:5 *562:11 9.95567 
3 *562:11 *562:13 56.5567 
4 *562:13 *739:wbs_adr_i[27] 0.0620667 
*END

*D_NET *563 0.0780806
*CONN
*P wbs_adr_i[28] I
*I *739:wbs_adr_i[28] I *D ntt_wb_bridge
*CAP
1 wbs_adr_i[28] 0.0145373
2 *739:wbs_adr_i[28] 3.74357e-05
3 *563:13 0.0211873
4 *563:11 0.0239246
5 *563:5 0.017312
6 *563:13 *564:9 0
7 *118:87 *563:13 0.00108186
8 *540:51 *563:11 0
9 *562:11 *563:11 0
10 *562:13 *563:11 0
11 *562:13 *563:13 0
*RES
1 wbs_adr_i[28] *563:5 256.582 
2 *563:5 *563:11 7.74153 
3 *563:11 *563:13 56.5567 
4 *563:13 *739:wbs_adr_i[28] 0.0620667 
*END

*D_NET *564 0.0768277
*CONN
*P wbs_adr_i[29] I
*I *739:wbs_adr_i[29] I *D ntt_wb_bridge
*CAP
1 wbs_adr_i[29] 0.0148528
2 *739:wbs_adr_i[29] 3.74357e-05
3 *564:9 0.0230213
4 *564:7 0.0229839
5 *564:5 0.0148528
6 *564:9 *566:9 0
7 *118:87 *564:9 0.00107941
8 *563:13 *564:9 0
*RES
1 wbs_adr_i[29] *564:5 262.193 
2 *564:5 *564:7 0.5 
3 *564:7 *564:9 61.3637 
4 *564:9 *739:wbs_adr_i[29] 0.0620667 
*END

*D_NET *565 0.110688
*CONN
*P wbs_adr_i[2] I
*I *739:wbs_adr_i[2] I *D ntt_wb_bridge
*CAP
1 wbs_adr_i[2] 0.00721782
2 *739:wbs_adr_i[2] 3.74357e-05
3 *565:9 0.0479255
4 *565:7 0.047888
5 *565:5 0.00721782
6 *565:9 *568:9 0
7 *80:57 *565:9 0.00040155
8 *554:9 *565:9 0
*RES
1 wbs_adr_i[2] *565:5 124.493 
2 *565:5 *565:7 0.5 
3 *565:7 *565:9 123.534 
4 *565:9 *739:wbs_adr_i[2] 0.0620667 
*END

*D_NET *566 0.0755274
*CONN
*P wbs_adr_i[30] I
*I *739:wbs_adr_i[30] I *D ntt_wb_bridge
*CAP
1 wbs_adr_i[30] 0.0151531
2 *739:wbs_adr_i[30] 3.74357e-05
3 *566:9 0.0226106
4 *566:7 0.0225731
5 *566:5 0.0151531
6 *566:9 *567:9 0
7 *564:9 *566:9 0
*RES
1 wbs_adr_i[30] *566:5 267.293 
2 *566:5 *566:7 0.5 
3 *566:7 *566:9 59.0913 
4 *566:9 *739:wbs_adr_i[30] 0.0620667 
*END

*D_NET *567 0.0744983
*CONN
*P wbs_adr_i[31] I
*I *739:wbs_adr_i[31] I *D ntt_wb_bridge
*CAP
1 wbs_adr_i[31] 0.015436
2 *739:wbs_adr_i[31] 3.74357e-05
3 *567:9 0.0218132
4 *567:7 0.0217757
5 *567:5 0.015436
6 *567:9 *576:9 0
7 *540:51 *567:5 0
8 *566:9 *567:9 0
*RES
1 wbs_adr_i[31] *567:5 272.392 
2 *567:5 *567:7 0.5 
3 *567:7 *567:9 56.8771 
4 *567:9 *739:wbs_adr_i[31] 0.0620667 
*END

*D_NET *568 0.108894
*CONN
*P wbs_adr_i[3] I
*I *739:wbs_adr_i[3] I *D ntt_wb_bridge
*CAP
1 wbs_adr_i[3] 0.00725843
2 *739:wbs_adr_i[3] 3.74357e-05
3 *568:9 0.0455501
4 *568:7 0.0455126
5 *568:5 0.00725843
6 *568:9 *569:9 0
7 *80:65 *568:9 0.00327677
8 *565:9 *568:9 0
*RES
1 wbs_adr_i[3] *568:5 129.592 
2 *568:5 *568:7 0.5 
3 *568:7 *568:9 120.504 
4 *568:9 *739:wbs_adr_i[3] 0.0620667 
*END

*D_NET *569 0.105895
*CONN
*P wbs_adr_i[4] I
*I *739:wbs_adr_i[4] I *D ntt_wb_bridge
*CAP
1 wbs_adr_i[4] 0.00755912
2 *739:wbs_adr_i[4] 3.74357e-05
3 *569:9 0.0453883
4 *569:7 0.0453509
5 *569:5 0.00755912
6 *569:9 *570:9 0
7 *80:65 *569:9 0
8 *568:9 *569:9 0
*RES
1 wbs_adr_i[4] *569:5 134.693 
2 *569:5 *569:7 0.5 
3 *569:7 *569:9 117.533 
4 *569:9 *739:wbs_adr_i[4] 0.0620667 
*END

*D_NET *570 0.104675
*CONN
*P wbs_adr_i[5] I
*I *739:wbs_adr_i[5] I *D ntt_wb_bridge
*CAP
1 wbs_adr_i[5] 0.00784661
2 *739:wbs_adr_i[5] 3.74357e-05
3 *570:9 0.0444911
4 *570:7 0.0444537
5 *570:5 0.00784661
6 *570:5 *602:13 0
7 *570:9 *571:9 0
8 *569:9 *570:9 0
*RES
1 wbs_adr_i[5] *570:5 139.792 
2 *570:5 *570:7 0.5 
3 *570:7 *570:9 115.26 
4 *570:9 *739:wbs_adr_i[5] 0.0620667 
*END

*D_NET *571 0.106543
*CONN
*P wbs_adr_i[6] I
*I *739:wbs_adr_i[6] I *D ntt_wb_bridge
*CAP
1 wbs_adr_i[6] 0.00813352
2 *739:wbs_adr_i[6] 3.93458e-05
3 *571:9 0.0451379
4 *571:7 0.0450985
5 *571:5 0.00813352
6 *571:9 *572:9 0
7 *570:9 *571:9 0
*RES
1 wbs_adr_i[6] *571:5 144.893 
2 *571:5 *571:7 0.5 
3 *571:7 *571:9 113.046 
4 *571:9 *739:wbs_adr_i[6] 0.0620667 
*END

*D_NET *572 0.105404
*CONN
*P wbs_adr_i[7] I
*I *739:wbs_adr_i[7] I *D ntt_wb_bridge
*CAP
1 wbs_adr_i[7] 0.00841798
2 *739:wbs_adr_i[7] 3.74357e-05
3 *572:9 0.0442838
4 *572:7 0.0442464
5 *572:5 0.00841798
6 *572:9 *573:9 0
7 *571:9 *572:9 0
*RES
1 wbs_adr_i[7] *572:5 149.992 
2 *572:5 *572:7 0.5 
3 *572:7 *572:9 110.774 
4 *572:9 *739:wbs_adr_i[7] 0.0620667 
*END

*D_NET *573 0.106479
*CONN
*P wbs_adr_i[8] I
*I *739:wbs_adr_i[8] I *D ntt_wb_bridge
*CAP
1 wbs_adr_i[8] 0.00871184
2 *739:wbs_adr_i[8] 3.74357e-05
3 *573:9 0.0420586
4 *573:7 0.0420212
5 *573:5 0.00871184
6 *573:9 *574:9 0
7 *127:19 *573:5 0.00493823
8 *572:9 *573:9 0
*RES
1 wbs_adr_i[8] *573:5 155.092 
2 *573:5 *573:7 0.5 
3 *573:7 *573:9 108.56 
4 *573:9 *739:wbs_adr_i[8] 0.0620667 
*END

*D_NET *574 0.103163
*CONN
*P wbs_adr_i[9] I
*I *739:wbs_adr_i[9] I *D ntt_wb_bridge
*CAP
1 wbs_adr_i[9] 0.00899703
2 *739:wbs_adr_i[9] 3.93458e-05
3 *574:9 0.0425845
4 *574:7 0.0425451
5 *574:5 0.00899703
6 *544:9 *574:9 0
7 *573:9 *574:9 0
*RES
1 wbs_adr_i[9] *574:5 160.193 
2 *574:5 *574:7 0.5 
3 *574:7 *574:9 106.287 
4 *574:9 *739:wbs_adr_i[9] 0.0620667 
*END

*D_NET *575 0.123025
*CONN
*P wbs_cyc_i I
*I *739:wbs_cyc_i I *D ntt_wb_bridge
*CAP
1 wbs_cyc_i 0.000820831
2 *739:wbs_cyc_i 3.93458e-05
3 *575:17 0.0530589
4 *575:15 0.0530195
5 *575:13 0.00150415
6 *575:11 0.00232498
7 *575:13 *644:5 0.00250217
8 *575:17 *644:9 0
9 wbs_ack_o *575:11 0.000330938
10 *80:49 *575:17 0.00515144
11 *88:29 *575:13 0.000874301
12 *542:11 *575:13 0.00339837
*RES
1 wbs_cyc_i *575:11 13.4032 
2 *575:11 *575:13 66.915 
3 *575:13 *575:15 0.5 
4 *575:15 *575:17 131.167 
5 *575:17 *739:wbs_cyc_i 0.0620667 
*END

*D_NET *576 0.130122
*CONN
*P wbs_dat_i[0] I
*I *739:wbs_dat_i[0] I *D ntt_wb_bridge
*CAP
1 wbs_dat_i[0] 0.0153513
2 *739:wbs_dat_i[0] 3.74357e-05
3 *576:9 0.0492882
4 *576:7 0.0492508
5 *576:5 0.0153513
6 *576:9 *587:9 0
7 *80:89 *576:9 0.000843131
8 *540:51 *576:9 0
9 *567:9 *576:9 0
*RES
1 wbs_dat_i[0] *576:5 277.492 
2 *576:5 *576:7 0.5 
3 *576:7 *576:9 128.778 
4 *576:9 *739:wbs_dat_i[0] 0.0620667 
*END

*D_NET *577 0.132181
*CONN
*P wbs_dat_i[10] I
*I *739:wbs_dat_i[10] I *D ntt_wb_bridge
*CAP
1 wbs_dat_i[10] 0.0183447
2 *739:wbs_dat_i[10] 3.74357e-05
3 *577:9 0.0412788
4 *577:7 0.0412414
5 *577:5 0.0183447
6 *577:9 *578:17 0
7 *577:9 *607:9 0
8 *116:79 *577:9 0.000694772
9 *124:27 *577:5 0.0122397
*RES
1 wbs_dat_i[10] *577:5 328.492 
2 *577:5 *577:7 0.5 
3 *577:7 *577:9 103.316 
4 *577:9 *739:wbs_dat_i[10] 0.0620667 
*END

*D_NET *578 0.118881
*CONN
*P wbs_dat_i[11] I
*I *739:wbs_dat_i[11] I *D ntt_wb_bridge
*CAP
1 wbs_dat_i[11] 0.000930162
2 *739:wbs_dat_i[11] 3.93458e-05
3 *578:17 0.021295
4 *578:15 0.0212557
5 *578:13 0.0171108
6 *578:11 0.0354216
7 *578:7 0.0192409
8 *578:17 *579:9 0
9 *116:39 *578:13 0
10 *118:97 *578:13 0.00358734
11 *540:23 *578:13 0
12 *577:9 *578:17 0
*RES
1 wbs_dat_i[11] *578:7 17.3825 
2 *578:7 *578:11 48.0836 
3 *578:11 *578:13 316.815 
4 *578:13 *578:15 0.5 
5 *578:15 *578:17 53.4977 
6 *578:17 *739:wbs_dat_i[11] 0.0620667 
*END

*D_NET *579 0.115339
*CONN
*P wbs_dat_i[12] I
*I *739:wbs_dat_i[12] I *D ntt_wb_bridge
*CAP
1 wbs_dat_i[12] 0.0189496
2 *739:wbs_dat_i[12] 3.74357e-05
3 *579:9 0.0386195
4 *579:7 0.038582
5 *579:5 0.0189496
6 *579:9 *580:9 0
7 *80:105 *579:9 0
8 *540:75 *579:9 0.000200421
9 *578:17 *579:9 0
*RES
1 wbs_dat_i[12] *579:5 338.693 
2 *579:5 *579:7 0.5 
3 *579:7 *579:9 98.8291 
4 *579:9 *739:wbs_dat_i[12] 0.0620667 
*END

*D_NET *580 0.115565
*CONN
*P wbs_dat_i[13] I
*I *739:wbs_dat_i[13] I *D ntt_wb_bridge
*CAP
1 wbs_dat_i[13] 0.0192802
2 *739:wbs_dat_i[13] 3.74357e-05
3 *580:9 0.0362969
4 *580:7 0.0362595
5 *580:5 0.0192802
6 *580:9 *581:9 0
7 *80:105 *580:9 0.0024811
8 *84:29 *580:5 0
9 *93:23 *580:5 0.0019295
10 *120:17 *580:5 0
11 *540:75 *580:9 0
12 *579:9 *580:9 0
*RES
1 wbs_dat_i[13] *580:5 343.793 
2 *580:5 *580:7 0.5 
3 *580:7 *580:9 96.5567 
4 *580:9 *739:wbs_dat_i[13] 0.0620667 
*END

*D_NET *581 0.122597
*CONN
*P wbs_dat_i[14] I
*I *739:wbs_dat_i[14] I *D ntt_wb_bridge
*CAP
1 wbs_dat_i[14] 0.0138573
2 *739:wbs_dat_i[14] 3.93458e-05
3 *581:9 0.0373127
4 *581:7 0.0372733
5 *581:5 0.0138573
6 *581:9 *582:9 0
7 *80:113 *581:9 0
8 *81:21 *581:5 0
9 *81:23 *581:5 0.0163975
10 *94:85 *581:5 0.003859
11 *119:25 *581:5 0
12 *580:9 *581:9 0
*RES
1 wbs_dat_i[14] *581:5 348.892 
2 *581:5 *581:7 0.5 
3 *581:7 *581:9 94.2843 
4 *581:9 *739:wbs_dat_i[14] 0.0620667 
*END

*D_NET *582 0.113075
*CONN
*P wbs_dat_i[15] I
*I *739:wbs_dat_i[15] I *D ntt_wb_bridge
*CAP
1 wbs_dat_i[15] 0.0198934
2 *739:wbs_dat_i[15] 3.74357e-05
3 *582:9 0.0359451
4 *582:7 0.0359077
5 *582:5 0.0198934
6 *582:9 *583:9 0
7 *80:113 *582:9 0.00139848
8 *581:9 *582:9 0
*RES
1 wbs_dat_i[15] *582:5 353.992 
2 *582:5 *582:7 0.5 
3 *582:7 *582:9 92.0702 
4 *582:9 *739:wbs_dat_i[15] 0.0620667 
*END

*D_NET *583 0.109185
*CONN
*P wbs_dat_i[16] I
*I *739:wbs_dat_i[16] I *D ntt_wb_bridge
*CAP
1 wbs_dat_i[16] 0.0201872
2 *739:wbs_dat_i[16] 3.74357e-05
3 *583:9 0.0340104
4 *583:7 0.0339729
5 *583:5 0.0201872
6 *583:9 *584:9 0
7 *118:111 *583:9 0.000789378
8 *582:9 *583:9 0
*RES
1 wbs_dat_i[16] *583:5 359.092 
2 *583:5 *583:7 0.5 
3 *583:7 *583:9 89.7978 
4 *583:9 *739:wbs_dat_i[16] 0.0620667 
*END

*D_NET *584 0.141902
*CONN
*P wbs_dat_i[17] I
*I *739:wbs_dat_i[17] I *D ntt_wb_bridge
*CAP
1 wbs_dat_i[17] 0.0204792
2 *739:wbs_dat_i[17] 3.93458e-05
3 *584:9 0.0224335
4 *584:7 0.0223941
5 *584:5 0.0204792
6 *584:9 *585:9 0
7 io_out[35] *584:9 0.0560764
8 *118:111 *584:9 0
9 *583:9 *584:9 0
*RES
1 wbs_dat_i[17] *584:5 364.193 
2 *584:5 *584:7 0.5 
3 *584:7 *584:9 87.5837 
4 *584:9 *739:wbs_dat_i[17] 0.0620667 
*END

*D_NET *585 0.108991
*CONN
*P wbs_dat_i[18] I
*I *739:wbs_dat_i[18] I *D ntt_wb_bridge
*CAP
1 wbs_dat_i[18] 0.0207788
2 *739:wbs_dat_i[18] 3.74357e-05
3 *585:9 0.0337165
4 *585:7 0.0336791
5 *585:5 0.0207788
6 *585:9 *586:9 0
7 io_out[35] *585:9 0
8 *584:9 *585:9 0
*RES
1 wbs_dat_i[18] *585:5 369.293 
2 *585:5 *585:7 0.5 
3 *585:7 *585:9 85.3113 
4 *585:9 *739:wbs_dat_i[18] 0.0620667 
*END

*D_NET *586 0.110431
*CONN
*P wbs_dat_i[19] I
*I *739:wbs_dat_i[19] I *D ntt_wb_bridge
*CAP
1 wbs_dat_i[19] 0.0210725
2 *739:wbs_dat_i[19] 3.74357e-05
3 *586:9 0.0318123
4 *586:7 0.0317749
5 *586:5 0.0210725
6 *586:9 *588:9 0
7 *96:29 *586:5 0.0046616
8 *585:9 *586:9 0
*RES
1 wbs_dat_i[19] *586:5 374.392 
2 *586:5 *586:7 0.5 
3 *586:7 *586:9 83.0971 
4 *586:9 *739:wbs_dat_i[19] 0.0620667 
*END

*D_NET *587 0.13236
*CONN
*P wbs_dat_i[1] I
*I *739:wbs_dat_i[1] I *D ntt_wb_bridge
*CAP
1 wbs_dat_i[1] 0.0162469
2 *739:wbs_dat_i[1] 3.93458e-05
3 *587:9 0.0499333
4 *587:7 0.0498939
5 *587:5 0.0162469
6 *587:9 *598:9 0
7 *80:89 *587:9 0
8 *576:9 *587:9 0
*RES
1 wbs_dat_i[1] *587:5 282.592 
2 *587:5 *587:7 0.5 
3 *587:7 *587:9 125.748 
4 *587:9 *739:wbs_dat_i[1] 0.0620667 
*END

*D_NET *588 0.106816
*CONN
*P wbs_dat_i[20] I
*I *739:wbs_dat_i[20] I *D ntt_wb_bridge
*CAP
1 wbs_dat_i[20] 0.0213628
2 *739:wbs_dat_i[20] 3.93458e-05
3 *588:9 0.0320454
4 *588:7 0.032006
5 *588:5 0.0213628
6 *588:9 *589:9 0
7 *586:9 *588:9 0
*RES
1 wbs_dat_i[20] *588:5 379.492 
2 *588:5 *588:7 0.5 
3 *588:7 *588:9 80.8247 
4 *588:9 *739:wbs_dat_i[20] 0.0620667 
*END

*D_NET *589 0.105754
*CONN
*P wbs_dat_i[21] I
*I *739:wbs_dat_i[21] I *D ntt_wb_bridge
*CAP
1 wbs_dat_i[21] 0.0216555
2 *739:wbs_dat_i[21] 3.74357e-05
3 *589:9 0.0312213
4 *589:7 0.0311839
5 *589:5 0.0216555
6 *589:9 *590:9 0
7 *588:9 *589:9 0
*RES
1 wbs_dat_i[21] *589:5 384.592 
2 *589:5 *589:7 0.5 
3 *589:7 *589:9 78.6106 
4 *589:9 *739:wbs_dat_i[21] 0.0620667 
*END

*D_NET *590 0.102553
*CONN
*P wbs_dat_i[22] I
*I *739:wbs_dat_i[22] I *D ntt_wb_bridge
*CAP
1 wbs_dat_i[22] 0.0219498
2 *739:wbs_dat_i[22] 3.74357e-05
3 *590:9 0.0293269
4 *590:7 0.0292895
5 *590:5 0.0219498
6 *590:9 *591:9 0
7 *589:9 *590:9 0
*RES
1 wbs_dat_i[22] *590:5 389.693 
2 *590:5 *590:7 0.5 
3 *590:7 *590:9 76.3382 
4 *590:9 *739:wbs_dat_i[22] 0.0620667 
*END

*D_NET *591 0.101364
*CONN
*P wbs_dat_i[23] I
*I *739:wbs_dat_i[23] I *D ntt_wb_bridge
*CAP
1 wbs_dat_i[23] 0.0222436
2 *739:wbs_dat_i[23] 3.74357e-05
3 *591:9 0.0284386
4 *591:7 0.0284012
5 *591:5 0.0222436
6 *591:9 *592:9 0
7 *116:89 *591:5 0
8 *590:9 *591:9 0
*RES
1 wbs_dat_i[23] *591:5 394.793 
2 *591:5 *591:7 0.5 
3 *591:7 *591:9 74.0658 
4 *591:9 *739:wbs_dat_i[23] 0.0620667 
*END

*D_NET *592 0.100314
*CONN
*P wbs_dat_i[24] I
*I *739:wbs_dat_i[24] I *D ntt_wb_bridge
*CAP
1 wbs_dat_i[24] 0.022542
2 *739:wbs_dat_i[24] 3.74357e-05
3 *592:9 0.0272144
4 *592:7 0.0271769
5 *592:5 0.022542
6 *592:9 *593:9 0
7 *118:111 *592:9 0.000801249
8 *591:9 *592:9 0
*RES
1 wbs_dat_i[24] *592:5 399.892 
2 *592:5 *592:7 0.5 
3 *592:7 *592:9 71.8517 
4 *592:9 *739:wbs_dat_i[24] 0.0620667 
*END

*D_NET *593 0.0989775
*CONN
*P wbs_dat_i[25] I
*I *739:wbs_dat_i[25] I *D ntt_wb_bridge
*CAP
1 wbs_dat_i[25] 0.0228362
2 *739:wbs_dat_i[25] 3.74357e-05
3 *593:9 0.0266525
4 *593:7 0.0266151
5 *593:5 0.0228362
6 *593:9 *594:9 0
7 *118:111 *593:9 0
8 *592:9 *593:9 0
*RES
1 wbs_dat_i[25] *593:5 404.992 
2 *593:5 *593:7 0.5 
3 *593:7 *593:9 69.5793 
4 *593:9 *739:wbs_dat_i[25] 0.0620667 
*END

*D_NET *594 0.0977965
*CONN
*P wbs_dat_i[26] I
*I *739:wbs_dat_i[26] I *D ntt_wb_bridge
*CAP
1 wbs_dat_i[26] 0.0231301
2 *739:wbs_dat_i[26] 3.74357e-05
3 *594:9 0.0257047
4 *594:7 0.0256673
5 *594:5 0.0231301
6 *594:9 *595:9 0
7 *341:53 *594:9 0.000126939
8 *593:9 *594:9 0
*RES
1 wbs_dat_i[26] *594:5 410.092 
2 *594:5 *594:7 0.5 
3 *594:7 *594:9 67.3651 
4 *594:9 *739:wbs_dat_i[26] 0.0620667 
*END

*D_NET *595 0.0982949
*CONN
*P wbs_dat_i[27] I
*I *739:wbs_dat_i[27] I *D ntt_wb_bridge
*CAP
1 wbs_dat_i[27] 0.0234236
2 *739:wbs_dat_i[27] 3.93458e-05
3 *595:9 0.0256605
4 *595:7 0.0256211
5 *595:5 0.0234236
6 *595:9 *596:9 0
7 *283:23 *595:9 0
8 *341:53 *595:9 0.000126939
9 *342:45 *595:9 0
10 *540:77 *595:5 0
11 *594:9 *595:9 0
*RES
1 wbs_dat_i[27] *595:5 415.193 
2 *595:5 *595:7 0.5 
3 *595:7 *595:9 65.0927 
4 *595:9 *739:wbs_dat_i[27] 0.0620667 
*END

*D_NET *596 0.0971614
*CONN
*P wbs_dat_i[28] I
*I *739:wbs_dat_i[28] I *D ntt_wb_bridge
*CAP
1 wbs_dat_i[28] 0.0237913
2 *739:wbs_dat_i[28] 3.74357e-05
3 *596:9 0.0247362
4 *596:7 0.0246987
5 *596:5 0.0237913
6 *596:9 *597:9 0
7 *80:115 *596:5 0
8 *283:23 *596:9 3.14408e-05
9 *342:45 *596:9 7.50295e-05
10 *595:9 *596:9 0
*RES
1 wbs_dat_i[28] *596:5 420.293 
2 *596:5 *596:7 0.5 
3 *596:7 *596:9 62.8786 
4 *596:9 *739:wbs_dat_i[28] 0.0620667 
*END

*D_NET *597 0.0963738
*CONN
*P wbs_dat_i[29] I
*I *739:wbs_dat_i[29] I *D ntt_wb_bridge
*CAP
1 wbs_dat_i[29] 0.0242549
2 *739:wbs_dat_i[29] 3.74357e-05
3 *597:9 0.0230724
4 *597:7 0.023035
5 *597:5 0.0242549
6 *597:9 *599:9 0
7 *540:67 *597:5 0.00171928
8 *596:9 *597:9 0
*RES
1 wbs_dat_i[29] *597:5 425.392 
2 *597:5 *597:7 0.5 
3 *597:7 *597:9 60.6062 
4 *597:9 *739:wbs_dat_i[29] 0.0620667 
*END

*D_NET *598 0.129376
*CONN
*P wbs_dat_i[2] I
*I *739:wbs_dat_i[2] I *D ntt_wb_bridge
*CAP
1 wbs_dat_i[2] 0.0159555
2 *739:wbs_dat_i[2] 3.74357e-05
3 *598:9 0.0487324
4 *598:7 0.0486949
5 *598:5 0.0159555
6 *598:9 *601:9 0
7 *587:9 *598:9 0
*RES
1 wbs_dat_i[2] *598:5 287.693 
2 *598:5 *598:7 0.5 
3 *598:7 *598:9 122.777 
4 *598:9 *739:wbs_dat_i[2] 0.0620667 
*END

*D_NET *599 0.0948697
*CONN
*P wbs_dat_i[30] I
*I *739:wbs_dat_i[30] I *D ntt_wb_bridge
*CAP
1 wbs_dat_i[30] 0.0241237
2 *739:wbs_dat_i[30] 3.93458e-05
3 *599:9 0.0230319
4 *599:7 0.0229926
5 *599:5 0.0241237
6 *599:9 *600:9 0
7 *116:59 *599:5 0.000558525
8 *597:9 *599:9 0
*RES
1 wbs_dat_i[30] *599:5 430.492 
2 *599:5 *599:7 0.5 
3 *599:7 *599:9 58.3921 
4 *599:9 *739:wbs_dat_i[30] 0.0620667 
*END

*D_NET *600 0.0972929
*CONN
*P wbs_dat_i[31] I
*I *739:wbs_dat_i[31] I *D ntt_wb_bridge
*CAP
1 wbs_dat_i[31] 0.0230106
2 *739:wbs_dat_i[31] 3.74357e-05
3 *600:9 0.0221867
4 *600:7 0.0221493
5 *600:5 0.0230106
6 *116:51 *600:5 0.00321797
7 *118:111 *600:5 0.00368046
8 *542:7 *600:9 0
9 *599:9 *600:9 0
*RES
1 wbs_dat_i[31] *600:5 435.592 
2 *600:5 *600:7 0.5 
3 *600:7 *600:9 56.1197 
4 *600:9 *739:wbs_dat_i[31] 0.0620667 
*END

*D_NET *601 0.128214
*CONN
*P wbs_dat_i[3] I
*I *739:wbs_dat_i[3] I *D ntt_wb_bridge
*CAP
1 wbs_dat_i[3] 0.0162554
2 *739:wbs_dat_i[3] 3.93458e-05
3 *601:9 0.0472832
4 *601:7 0.0472438
5 *601:5 0.0162554
6 *601:9 *602:17 0
7 *118:95 *601:9 0.00113689
8 *598:9 *601:9 0
*RES
1 wbs_dat_i[3] *601:5 292.793 
2 *601:5 *601:7 0.5 
3 *601:7 *601:9 119.747 
4 *601:9 *739:wbs_dat_i[3] 0.0620667 
*END

*D_NET *602 0.1259
*CONN
*P wbs_dat_i[4] I
*I *739:wbs_dat_i[4] I *D ntt_wb_bridge
*CAP
1 wbs_dat_i[4] 0.00121038
2 *739:wbs_dat_i[4] 3.74357e-05
3 *602:17 0.0458191
4 *602:15 0.0457816
5 *602:13 0.0159206
6 *602:11 0.017131
7 *602:13 wbs_dat_o[4] 0
8 *602:17 *603:9 0
9 *570:5 *602:13 0
10 *601:9 *602:17 0
*RES
1 wbs_dat_i[4] *602:11 14.0441 
2 *602:11 *602:13 286.215 
3 *602:13 *602:15 0.5 
4 *602:15 *602:17 115.552 
5 *602:17 *739:wbs_dat_i[4] 0.0620667 
*END

*D_NET *603 0.121624
*CONN
*P wbs_dat_i[5] I
*I *739:wbs_dat_i[5] I *D ntt_wb_bridge
*CAP
1 wbs_dat_i[5] 0.0168535
2 *739:wbs_dat_i[5] 3.74357e-05
3 *603:9 0.0439585
4 *603:7 0.0439211
5 *603:5 0.0168535
6 *603:9 *604:9 0
7 *602:17 *603:9 0
*RES
1 wbs_dat_i[5] *603:5 302.992 
2 *603:5 *603:7 0.5 
3 *603:7 *603:9 114.503 
4 *603:9 *739:wbs_dat_i[5] 0.0620667 
*END

*D_NET *604 0.124286
*CONN
*P wbs_dat_i[6] I
*I *739:wbs_dat_i[6] I *D ntt_wb_bridge
*CAP
1 wbs_dat_i[6] 0.0171474
2 *739:wbs_dat_i[6] 3.93458e-05
3 *604:9 0.0440107
4 *604:7 0.0439714
5 *604:5 0.0171474
6 *604:9 *605:9 0
7 *80:89 *604:9 0.00107901
8 *540:67 *604:9 0.000890412
9 *603:9 *604:9 0
*RES
1 wbs_dat_i[6] *604:5 308.092 
2 *604:5 *604:7 0.5 
3 *604:7 *604:9 112.289 
4 *604:9 *739:wbs_dat_i[6] 0.0620667 
*END

*D_NET *605 0.122738
*CONN
*P wbs_dat_i[7] I
*I *739:wbs_dat_i[7] I *D ntt_wb_bridge
*CAP
1 wbs_dat_i[7] 0.0174401
2 *739:wbs_dat_i[7] 3.74357e-05
3 *605:9 0.0435093
4 *605:7 0.0434719
5 *605:5 0.0174401
6 *605:9 *606:9 0
7 io_oeb[35] *605:9 0
8 *80:89 *605:9 0
9 *540:67 *605:9 0.000838779
10 *604:9 *605:9 0
*RES
1 wbs_dat_i[7] *605:5 313.193 
2 *605:5 *605:7 0.5 
3 *605:7 *605:9 110.016 
4 *605:9 *739:wbs_dat_i[7] 0.0620667 
*END

*D_NET *606 0.119539
*CONN
*P wbs_dat_i[8] I
*I *739:wbs_dat_i[8] I *D ntt_wb_bridge
*CAP
1 wbs_dat_i[8] 0.0177469
2 *739:wbs_dat_i[8] 3.74357e-05
3 *606:9 0.0389521
4 *606:7 0.0389147
5 *606:5 0.0177469
6 *606:9 *607:9 0
7 io_oeb[35] *606:9 0.0051016
8 *80:105 *606:9 0.00103901
9 *540:67 *606:9 0
10 *605:9 *606:9 0
*RES
1 wbs_dat_i[8] *606:5 318.293 
2 *606:5 *606:7 0.5 
3 *606:7 *606:9 107.802 
4 *606:9 *739:wbs_dat_i[8] 0.0620667 
*END

*D_NET *607 0.120205
*CONN
*P wbs_dat_i[9] I
*I *739:wbs_dat_i[9] I *D ntt_wb_bridge
*CAP
1 wbs_dat_i[9] 0.018039
2 *739:wbs_dat_i[9] 3.93458e-05
3 *607:9 0.0420634
4 *607:7 0.042024
5 *607:5 0.018039
6 *80:105 *607:9 0
7 *577:9 *607:9 0
8 *606:9 *607:9 0
*RES
1 wbs_dat_i[9] *607:5 323.392 
2 *607:5 *607:7 0.5 
3 *607:7 *607:9 105.53 
4 *607:9 *739:wbs_dat_i[9] 0.0620667 
*END

*D_NET *608 0.150414
*CONN
*P wbs_dat_o[0] O
*I *739:wbs_dat_o[0] O *D ntt_wb_bridge
*CAP
1 wbs_dat_o[0] 0.0246116
2 *739:wbs_dat_o[0] 3.74357e-05
3 *608:9 0.0246116
4 *608:7 0.0501317
5 *608:5 0.0501691
6 *608:7 *619:7 0
7 *540:83 *608:7 0.000853039
8 *542:7 *608:7 0
*RES
1 *739:wbs_dat_o[0] *608:5 0.0620667 
2 *608:5 *608:7 128.021 
3 *608:7 *608:9 0.5 
4 *608:9 wbs_dat_o[0] 445.793 
*END

*D_NET *609 0.138448
*CONN
*P wbs_dat_o[10] O
*I *739:wbs_dat_o[10] O *D ntt_wb_bridge
*CAP
1 wbs_dat_o[10] 0.0286905
2 *739:wbs_dat_o[10] 3.93458e-05
3 *609:9 0.0286905
4 *609:7 0.0404943
5 *609:5 0.0405336
6 *609:7 *610:7 0
7 *609:7 *639:7 0
8 *80:129 *609:7 0
9 *118:127 *609:7 0
*RES
1 *739:wbs_dat_o[10] *609:5 0.0620667 
2 *609:5 *609:7 102.558 
3 *609:7 *609:9 0.5 
4 *609:9 wbs_dat_o[10] 496.793 
*END

*D_NET *610 0.170203
*CONN
*P wbs_dat_o[11] O
*I *739:wbs_dat_o[11] O *D ntt_wb_bridge
*CAP
1 wbs_dat_o[11] 0.00228218
2 *739:wbs_dat_o[11] 3.74357e-05
3 *610:17 0.00934494
4 *610:11 0.0331238
5 *610:9 0.0260611
6 *610:7 0.0208613
7 *610:5 0.0208988
8 *610:7 *611:7 0
9 *80:105 *610:11 0
10 *82:21 *610:17 0.0282635
11 *86:29 *610:17 0.000222569
12 *87:53 *610:17 0.0291076
13 *95:79 *610:17 0
14 *116:39 *610:11 0
15 *609:7 *610:7 0
*RES
1 *739:wbs_dat_o[11] *610:5 0.0620667 
2 *610:5 *610:7 52.6237 
3 *610:7 *610:9 0.5 
4 *610:9 *610:11 463.695 
5 *610:11 *610:17 48.7001 
6 *610:17 wbs_dat_o[11] 38.3025 
*END

*D_NET *611 0.133584
*CONN
*P wbs_dat_o[12] O
*I *739:wbs_dat_o[12] O *D ntt_wb_bridge
*CAP
1 wbs_dat_o[12] 0.0293163
2 *739:wbs_dat_o[12] 3.74357e-05
3 *611:9 0.0293163
4 *611:7 0.0374383
5 *611:5 0.0374757
6 *611:7 *612:7 0
7 *610:7 *611:7 0
*RES
1 *739:wbs_dat_o[12] *611:5 0.0620667 
2 *611:5 *611:7 98.0717 
3 *611:7 *611:9 0.5 
4 *611:9 wbs_dat_o[12] 506.992 
*END

*D_NET *612 0.142177
*CONN
*P wbs_dat_o[13] O
*I *739:wbs_dat_o[13] O *D ntt_wb_bridge
*CAP
1 wbs_dat_o[13] 0.0216882
2 *739:wbs_dat_o[13] 3.93458e-05
3 *612:9 0.0216882
4 *612:7 0.0376953
5 *612:5 0.0377346
6 *612:7 *613:7 0
7 *82:25 wbs_dat_o[13] 0.0232028
8 *120:17 wbs_dat_o[13] 0.000128451
9 *611:7 *612:7 0
*RES
1 *739:wbs_dat_o[13] *612:5 0.0620667 
2 *612:5 *612:7 95.7993 
3 *612:7 *612:9 0.5 
4 *612:9 wbs_dat_o[13] 512.093 
*END

*D_NET *613 0.132719
*CONN
*P wbs_dat_o[14] O
*I *739:wbs_dat_o[14] O *D ntt_wb_bridge
*CAP
1 wbs_dat_o[14] 0.0294869
2 *739:wbs_dat_o[14] 3.74357e-05
3 *613:9 0.0294869
4 *613:7 0.0366729
5 *613:5 0.0367103
6 *613:7 *614:7 0
7 *119:25 wbs_dat_o[14] 0
8 *540:107 *613:7 0.000324461
9 *612:7 *613:7 0
*RES
1 *739:wbs_dat_o[14] *613:5 0.0620667 
2 *613:5 *613:7 93.5851 
3 *613:7 *613:9 0.5 
4 *613:9 wbs_dat_o[14] 517.193 
*END

*D_NET *614 0.127896
*CONN
*P wbs_dat_o[15] O
*I *739:wbs_dat_o[15] O *D ntt_wb_bridge
*CAP
1 wbs_dat_o[15] 0.0292413
2 *739:wbs_dat_o[15] 3.74357e-05
3 *614:9 0.0292413
4 *614:7 0.034669
5 *614:5 0.0347064
6 *614:7 *615:7 0
7 *613:7 *614:7 0
*RES
1 *739:wbs_dat_o[15] *614:5 0.0620667 
2 *614:5 *614:7 91.3127 
3 *614:7 *614:9 0.5 
4 *614:9 wbs_dat_o[15] 522.292 
*END

*D_NET *615 0.127864
*CONN
*P wbs_dat_o[16] O
*I *739:wbs_dat_o[16] O *D ntt_wb_bridge
*CAP
1 wbs_dat_o[16] 0.0295417
2 *739:wbs_dat_o[16] 3.74357e-05
3 *615:9 0.0295417
4 *615:7 0.0322493
5 *615:5 0.0322867
6 *615:7 *616:7 0
7 *118:127 *615:7 0.00420745
8 *614:7 *615:7 0
*RES
1 *739:wbs_dat_o[16] *615:5 0.0620667 
2 *615:5 *615:7 89.0403 
3 *615:7 *615:9 0.5 
4 *615:9 wbs_dat_o[16] 527.393 
*END

*D_NET *616 0.12562
*CONN
*P wbs_dat_o[17] O
*I *739:wbs_dat_o[17] O *D ntt_wb_bridge
*CAP
1 wbs_dat_o[17] 0.0298427
2 *739:wbs_dat_o[17] 3.74357e-05
3 *616:9 0.0298427
4 *616:7 0.0329299
5 *616:5 0.0329673
6 *616:7 *617:7 0
7 *118:127 *616:7 0
8 *615:7 *616:7 0
*RES
1 *739:wbs_dat_o[17] *616:5 0.0620667 
2 *616:5 *616:7 86.8262 
3 *616:7 *616:9 0.5 
4 *616:9 wbs_dat_o[17] 532.492 
*END

*D_NET *617 0.125666
*CONN
*P wbs_dat_o[18] O
*I *739:wbs_dat_o[18] O *D ntt_wb_bridge
*CAP
1 wbs_dat_o[18] 0.030143
2 *739:wbs_dat_o[18] 3.74357e-05
3 *617:9 0.030143
4 *617:7 0.0313748
5 *617:5 0.0314122
6 *617:7 *618:7 0
7 *80:149 *617:7 0.00206219
8 *116:111 *617:7 0.000493156
9 *616:7 *617:7 0
*RES
1 *739:wbs_dat_o[18] *617:5 0.0620667 
2 *617:5 *617:7 84.5538 
3 *617:7 *617:9 0.5 
4 *617:9 wbs_dat_o[18] 537.593 
*END

*D_NET *618 0.123667
*CONN
*P wbs_dat_o[19] O
*I *739:wbs_dat_o[19] O *D ntt_wb_bridge
*CAP
1 wbs_dat_o[19] 0.0304414
2 *739:wbs_dat_o[19] 3.74357e-05
3 *618:9 0.0304414
4 *618:7 0.0313545
5 *618:5 0.0313919
6 *618:7 *620:7 0
7 *80:149 *618:7 0
8 *540:107 *618:7 0
9 *617:7 *618:7 0
*RES
1 *739:wbs_dat_o[19] *618:5 0.0620667 
2 *618:5 *618:7 82.3397 
3 *618:7 *618:9 0.5 
4 *618:9 wbs_dat_o[19] 542.693 
*END

*D_NET *619 0.145225
*CONN
*P wbs_dat_o[1] O
*I *739:wbs_dat_o[1] O *D ntt_wb_bridge
*CAP
1 wbs_dat_o[1] 0.0249191
2 *739:wbs_dat_o[1] 3.74357e-05
3 *619:9 0.0249191
4 *619:7 0.047656
5 *619:5 0.0476934
6 *619:7 *630:7 0
7 *608:7 *619:7 0
*RES
1 *739:wbs_dat_o[1] *619:5 0.0620667 
2 *619:5 *619:7 124.991 
3 *619:7 *619:9 0.5 
4 *619:9 wbs_dat_o[1] 450.892 
*END

*D_NET *620 0.12666
*CONN
*P wbs_dat_o[20] O
*I *739:wbs_dat_o[20] O *D ntt_wb_bridge
*CAP
1 wbs_dat_o[20] 0.0307698
2 *739:wbs_dat_o[20] 3.93458e-05
3 *620:13 0.0348303
4 *620:7 0.0311457
5 *620:5 0.0271246
6 *620:7 *621:7 0
7 *620:13 *621:7 0
8 *116:113 wbs_dat_o[20] 0
9 *540:107 *620:13 0.00275038
10 *618:7 *620:7 0
*RES
1 *739:wbs_dat_o[20] *620:5 0.0620667 
2 *620:5 *620:7 68.7927 
3 *620:7 *620:13 11.9367 
4 *620:13 wbs_dat_o[20] 548.302 
*END

*D_NET *621 0.124719
*CONN
*P wbs_dat_o[21] O
*I *739:wbs_dat_o[21] O *D ntt_wb_bridge
*CAP
1 wbs_dat_o[21] 0.030388
2 *739:wbs_dat_o[21] 3.74357e-05
3 *621:9 0.030388
4 *621:7 0.0305813
5 *621:5 0.0306188
6 *621:7 *622:7 0
7 *80:149 *621:7 0.000834925
8 *116:105 wbs_dat_o[21] 0.00187087
9 *620:7 *621:7 0
10 *620:13 *621:7 0
*RES
1 *739:wbs_dat_o[21] *621:5 0.0620667 
2 *621:5 *621:7 77.8531 
3 *621:7 *621:9 0.5 
4 *621:9 wbs_dat_o[21] 552.893 
*END

*D_NET *622 0.120547
*CONN
*P wbs_dat_o[22] O
*I *739:wbs_dat_o[22] O *D ntt_wb_bridge
*CAP
1 wbs_dat_o[22] 0.0313557
2 *739:wbs_dat_o[22] 3.74357e-05
3 *622:9 0.0313557
4 *622:7 0.0288804
5 *622:5 0.0289179
6 *622:7 *623:7 0
7 *118:129 wbs_dat_o[22] 0
8 *540:135 *622:7 0
9 *621:7 *622:7 0
*RES
1 *739:wbs_dat_o[22] *622:5 0.0620667 
2 *622:5 *622:7 75.5807 
3 *622:7 *622:9 0.5 
4 *622:9 wbs_dat_o[22] 557.992 
*END

*D_NET *623 0.121295
*CONN
*P wbs_dat_o[23] O
*I *739:wbs_dat_o[23] O *D ntt_wb_bridge
*CAP
1 wbs_dat_o[23] 0.0316661
2 *739:wbs_dat_o[23] 3.93458e-05
3 *623:9 0.0316661
4 *623:7 0.0289422
5 *623:5 0.0289815
6 *623:7 *624:7 0
7 *116:89 wbs_dat_o[23] 0
8 *622:7 *623:7 0
*RES
1 *739:wbs_dat_o[23] *623:5 0.0620667 
2 *623:5 *623:7 73.3666 
3 *623:7 *623:9 0.5 
4 *623:9 wbs_dat_o[23] 563.093 
*END

*D_NET *624 0.120612
*CONN
*P wbs_dat_o[24] O
*I *739:wbs_dat_o[24] O *D ntt_wb_bridge
*CAP
1 wbs_dat_o[24] 0.0312442
2 *739:wbs_dat_o[24] 3.74357e-05
3 *624:9 0.0312442
4 *624:7 0.0280348
5 *624:5 0.0280723
6 *624:7 *625:7 0
7 *116:83 wbs_dat_o[24] 0.00197918
8 *623:7 *624:7 0
*RES
1 *739:wbs_dat_o[24] *624:5 0.0620667 
2 *624:5 *624:7 71.0942 
3 *624:7 *624:9 0.5 
4 *624:9 wbs_dat_o[24] 567.682 
*END

*D_NET *625 0.117029
*CONN
*P wbs_dat_o[25] O
*I *739:wbs_dat_o[25] O *D ntt_wb_bridge
*CAP
1 wbs_dat_o[25] 0.0322397
2 *739:wbs_dat_o[25] 3.74357e-05
3 *625:9 0.0322397
4 *625:7 0.0262374
5 *625:5 0.0262749
6 *625:7 *626:7 0
7 *80:133 wbs_dat_o[25] 0
8 *540:85 wbs_dat_o[25] 0
9 *540:107 wbs_dat_o[25] 0
10 *624:7 *625:7 0
*RES
1 *739:wbs_dat_o[25] *625:5 0.0620667 
2 *625:5 *625:7 68.8801 
3 *625:7 *625:9 0.5 
4 *625:9 wbs_dat_o[25] 572.782 
*END

*D_NET *626 0.122631
*CONN
*P wbs_dat_o[26] O
*I *739:wbs_dat_o[26] O *D ntt_wb_bridge
*CAP
1 wbs_dat_o[26] 0.0303403
2 *739:wbs_dat_o[26] 3.93458e-05
3 *626:9 0.0303403
4 *626:7 0.026205
5 *626:5 0.0262443
6 *116:73 wbs_dat_o[26] 0.00946161
7 *625:7 *626:7 0
*RES
1 *739:wbs_dat_o[26] *626:5 0.0620667 
2 *626:5 *626:7 66.6077 
3 *626:7 *626:9 0.5 
4 *626:9 wbs_dat_o[26] 577.883 
*END

*D_NET *627 0.114716
*CONN
*P wbs_dat_o[27] O
*I *739:wbs_dat_o[27] O *D ntt_wb_bridge
*CAP
1 wbs_dat_o[27] 0.0328623
2 *739:wbs_dat_o[27] 3.74357e-05
3 *627:9 0.0328623
4 *627:7 0.024458
5 *627:5 0.0244955
6 *627:7 *628:7 0
7 *540:75 wbs_dat_o[27] 0
8 *540:77 wbs_dat_o[27] 0
*RES
1 *739:wbs_dat_o[27] *627:5 0.0620667 
2 *627:5 *627:7 64.3353 
3 *627:7 *627:9 0.5 
4 *627:9 wbs_dat_o[27] 583.492 
*END

*D_NET *628 0.115105
*CONN
*P wbs_dat_o[28] O
*I *739:wbs_dat_o[28] O *D ntt_wb_bridge
*CAP
1 wbs_dat_o[28] 0.0314054
2 *739:wbs_dat_o[28] 3.74357e-05
3 *628:9 0.0314054
4 *628:7 0.0235986
5 *628:5 0.0236361
6 *628:7 *629:7 0
7 *116:65 wbs_dat_o[28] 0.00502185
8 *540:67 wbs_dat_o[28] 0
9 *627:7 *628:7 0
*RES
1 *739:wbs_dat_o[28] *628:5 0.0620667 
2 *628:5 *628:7 62.1211 
3 *628:7 *628:9 0.5 
4 *628:9 wbs_dat_o[28] 588.593 
*END

*D_NET *629 0.115021
*CONN
*P wbs_dat_o[29] O
*I *739:wbs_dat_o[29] O *D ntt_wb_bridge
*CAP
1 wbs_dat_o[29] 0.0330219
2 *739:wbs_dat_o[29] 3.93458e-05
3 *629:9 0.0330219
4 *629:7 0.0235042
5 *629:5 0.0235436
6 *629:7 *631:7 0
7 *118:113 wbs_dat_o[29] 0
8 *540:51 wbs_dat_o[29] 0.00188978
9 *628:7 *629:7 0
*RES
1 *739:wbs_dat_o[29] *629:5 0.0620667 
2 *629:5 *629:7 59.8487 
3 *629:7 *629:9 0.5 
4 *629:9 wbs_dat_o[29] 593.693 
*END

*D_NET *630 0.146716
*CONN
*P wbs_dat_o[2] O
*I *739:wbs_dat_o[2] O *D ntt_wb_bridge
*CAP
1 wbs_dat_o[2] 0.025232
2 *739:wbs_dat_o[2] 3.93458e-05
3 *630:9 0.025232
4 *630:7 0.0480867
5 *630:5 0.048126
6 *630:7 *633:7 0
7 *619:7 *630:7 0
*RES
1 *739:wbs_dat_o[2] *630:5 0.0620667 
2 *630:5 *630:7 122.019 
3 *630:7 *630:9 0.5 
4 *630:9 wbs_dat_o[2] 455.992 
*END

*D_NET *631 0.112972
*CONN
*P wbs_dat_o[30] O
*I *739:wbs_dat_o[30] O *D ntt_wb_bridge
*CAP
1 wbs_dat_o[30] 0.0337579
2 *739:wbs_dat_o[30] 3.74357e-05
3 *631:9 0.0337579
4 *631:7 0.0226909
5 *631:5 0.0227283
6 *631:7 *632:7 0
7 *540:51 wbs_dat_o[30] 0
8 *629:7 *631:7 0
*RES
1 *739:wbs_dat_o[30] *631:5 0.0620667 
2 *631:5 *631:7 57.6346 
3 *631:7 *631:9 0.5 
4 *631:9 wbs_dat_o[30] 598.792 
*END

*D_NET *632 0.114439
*CONN
*P wbs_dat_o[31] O
*I *739:wbs_dat_o[31] O *D ntt_wb_bridge
*CAP
1 wbs_dat_o[31] 0.0316377
2 *739:wbs_dat_o[31] 3.93458e-05
3 *632:9 0.0316377
4 *632:7 0.0200359
5 *632:5 0.0200752
6 *388:29 *632:7 0.00409414
7 *540:25 wbs_dat_o[31] 0.00691859
8 *631:7 *632:7 0
*RES
1 *739:wbs_dat_o[31] *632:5 0.0620667 
2 *632:5 *632:7 55.3622 
3 *632:7 *632:9 0.5 
4 *632:9 wbs_dat_o[31] 603.893 
*END

*D_NET *633 0.166807
*CONN
*P wbs_dat_o[3] O
*I *739:wbs_dat_o[3] O *D ntt_wb_bridge
*CAP
1 wbs_dat_o[3] 0.0179117
2 *739:wbs_dat_o[3] 3.74357e-05
3 *633:9 0.0179117
4 *633:7 0.0468754
5 *633:5 0.0469128
6 *633:7 *634:7 0
7 io_out[23] wbs_dat_o[3] 0.0371583
8 *630:7 *633:7 0
*RES
1 *739:wbs_dat_o[3] *633:5 0.0620667 
2 *633:5 *633:7 118.989 
3 *633:7 *633:9 0.5 
4 *633:9 wbs_dat_o[3] 461.092 
*END

*D_NET *634 0.140054
*CONN
*P wbs_dat_o[4] O
*I *739:wbs_dat_o[4] O *D ntt_wb_bridge
*CAP
1 wbs_dat_o[4] 0.0258502
2 *739:wbs_dat_o[4] 3.74357e-05
3 *634:9 0.0258502
4 *634:7 0.0441396
5 *634:5 0.044177
6 *634:7 *635:7 0
7 *602:13 wbs_dat_o[4] 0
8 *633:7 *634:7 0
*RES
1 *739:wbs_dat_o[4] *634:5 0.0620667 
2 *634:5 *634:7 116.018 
3 *634:7 *634:9 0.5 
4 *634:9 wbs_dat_o[4] 466.193 
*END

*D_NET *635 0.142037
*CONN
*P wbs_dat_o[5] O
*I *739:wbs_dat_o[5] O *D ntt_wb_bridge
*CAP
1 wbs_dat_o[5] 0.0261479
2 *739:wbs_dat_o[5] 3.93458e-05
3 *635:9 0.0261479
4 *635:7 0.0448311
5 *635:5 0.0448704
6 *635:7 *636:7 0
7 *634:7 *635:7 0
*RES
1 *739:wbs_dat_o[5] *635:5 0.0620667 
2 *635:5 *635:7 113.804 
3 *635:7 *635:9 0.5 
4 *635:9 wbs_dat_o[5] 471.293 
*END

*D_NET *636 0.140964
*CONN
*P wbs_dat_o[6] O
*I *739:wbs_dat_o[6] O *D ntt_wb_bridge
*CAP
1 wbs_dat_o[6] 0.0264479
2 *739:wbs_dat_o[6] 3.74357e-05
3 *636:9 0.0264479
4 *636:7 0.0439966
5 *636:5 0.044034
6 *636:7 *637:7 0
7 *635:7 *636:7 0
*RES
1 *739:wbs_dat_o[6] *636:5 0.0620667 
2 *636:5 *636:7 111.531 
3 *636:7 *636:9 0.5 
4 *636:9 wbs_dat_o[6] 476.392 
*END

*D_NET *637 0.137093
*CONN
*P wbs_dat_o[7] O
*I *739:wbs_dat_o[7] O *D ntt_wb_bridge
*CAP
1 wbs_dat_o[7] 0.0267482
2 *739:wbs_dat_o[7] 3.74357e-05
3 *637:9 0.0267482
4 *637:7 0.0417608
5 *637:5 0.0417982
6 *637:7 *638:7 0
7 *80:129 *637:7 0
8 *636:7 *637:7 0
*RES
1 *739:wbs_dat_o[7] *637:5 0.0620667 
2 *637:5 *637:7 109.259 
3 *637:7 *637:9 0.5 
4 *637:9 wbs_dat_o[7] 481.492 
*END

*D_NET *638 0.13905
*CONN
*P wbs_dat_o[8] O
*I *739:wbs_dat_o[8] O *D ntt_wb_bridge
*CAP
1 wbs_dat_o[8] 0.0270528
2 *739:wbs_dat_o[8] 3.93458e-05
3 *638:9 0.0270528
4 *638:7 0.0421644
5 *638:5 0.0422037
6 *638:7 *639:7 0
7 *80:129 *638:7 0.000536657
8 *637:7 *638:7 0
*RES
1 *739:wbs_dat_o[8] *638:5 0.0620667 
2 *638:5 *638:7 107.045 
3 *638:7 *638:9 0.5 
4 *638:9 wbs_dat_o[8] 486.592 
*END

*D_NET *639 0.138167
*CONN
*P wbs_dat_o[9] O
*I *739:wbs_dat_o[9] O *D ntt_wb_bridge
*CAP
1 wbs_dat_o[9] 0.0273528
2 *739:wbs_dat_o[9] 3.74357e-05
3 *639:9 0.0273528
4 *639:7 0.0409445
5 *639:5 0.0409819
6 *80:129 *639:7 0.00149715
7 *609:7 *639:7 0
8 *638:7 *639:7 0
*RES
1 *739:wbs_dat_o[9] *639:5 0.0620667 
2 *639:5 *639:7 104.772 
3 *639:7 *639:9 0.5 
4 *639:9 wbs_dat_o[9] 491.693 
*END

*D_NET *640 0.112256
*CONN
*P wbs_sel_i[0] I
*I *739:wbs_sel_i[0] I *D ntt_wb_bridge
*CAP
1 wbs_sel_i[0] 0.0052515
2 *739:wbs_sel_i[0] 3.93458e-05
3 *640:9 0.0508767
4 *640:7 0.0508373
5 *640:5 0.0052515
6 *640:9 *641:9 0
7 *640:9 *645:9 0
*RES
1 wbs_sel_i[0] *640:5 93.8925 
2 *640:5 *640:7 0.5 
3 *640:7 *640:9 127.263 
4 *640:9 *739:wbs_sel_i[0] 0.0620667 
*END

*D_NET *641 0.112012
*CONN
*P wbs_sel_i[1] I
*I *739:wbs_sel_i[1] I *D ntt_wb_bridge
*CAP
1 wbs_sel_i[1] 0.00554426
2 *739:wbs_sel_i[1] 3.74357e-05
3 *641:9 0.0496483
4 *641:7 0.0496109
5 *641:5 0.00554426
6 *641:9 *642:9 0
7 *132:23 *641:5 0.00162715
8 *540:23 *641:9 0
9 *640:9 *641:9 0
*RES
1 wbs_sel_i[1] *641:5 98.9925 
2 *641:5 *641:7 0.5 
3 *641:7 *641:9 124.233 
4 *641:9 *739:wbs_sel_i[1] 0.0620667 
*END

*D_NET *642 0.105876
*CONN
*P wbs_sel_i[2] I
*I *739:wbs_sel_i[2] I *D ntt_wb_bridge
*CAP
1 wbs_sel_i[2] 0.00604258
2 *739:wbs_sel_i[2] 3.74357e-05
3 *642:9 0.0467491
4 *642:7 0.0467117
5 *642:5 0.00604258
6 *642:9 *643:9 0
7 *118:55 *642:9 0
8 *540:23 *642:9 0.000292919
9 *641:9 *642:9 0
*RES
1 wbs_sel_i[2] *642:5 104.092 
2 *642:5 *642:7 0.5 
3 *642:7 *642:9 121.262 
4 *642:9 *739:wbs_sel_i[2] 0.0620667 
*END

*D_NET *643 0.106703
*CONN
*P wbs_sel_i[3] I
*I *739:wbs_sel_i[3] I *D ntt_wb_bridge
*CAP
1 wbs_sel_i[3] 0.00612331
2 *739:wbs_sel_i[3] 3.93458e-05
3 *643:9 0.0470796
4 *643:7 0.0470403
5 *643:5 0.00612331
6 *118:55 *643:9 0.00029742
7 *543:9 *643:9 0
8 *642:9 *643:9 0
*RES
1 wbs_sel_i[3] *643:5 109.192 
2 *643:5 *643:7 0.5 
3 *643:7 *643:9 118.29 
4 *643:9 *739:wbs_sel_i[3] 0.0620667 
*END

*D_NET *644 0.116565
*CONN
*P wbs_stb_i I
*I *739:wbs_stb_i I *D ntt_wb_bridge
*CAP
1 wbs_stb_i 0.0036143
2 *739:wbs_stb_i 3.74357e-05
3 *644:9 0.0517386
4 *644:7 0.0517011
5 *644:5 0.0036143
6 *644:9 *645:9 0
7 *80:49 *644:9 0
8 *118:47 *644:9 0.00335736
9 *542:11 *644:5 0
10 *575:13 *644:5 0.00250217
11 *575:17 *644:9 0
*RES
1 wbs_stb_i *644:5 83.6925 
2 *644:5 *644:7 0.5 
3 *644:7 *644:9 130.992 
4 *644:9 *739:wbs_stb_i 0.0620667 
*END

*D_NET *645 0.11074
*CONN
*P wbs_we_i I
*I *739:wbs_we_i I *D ntt_wb_bridge
*CAP
1 wbs_we_i 0.00496448
2 *739:wbs_we_i 3.74357e-05
3 *645:9 0.0504057
4 *645:7 0.0503683
5 *645:5 0.00496448
6 *118:47 *645:9 0
7 *640:9 *645:9 0
8 *644:9 *645:9 0
*RES
1 wbs_we_i *645:5 88.7925 
2 *645:5 *645:7 0.5 
3 *645:7 *645:9 130.235 
4 *645:9 *739:wbs_we_i 0.0620667 
*END

*D_NET *646 0.654754
*CONN
*I *739:busy_i I *D ntt_wb_bridge
*I *740:busy O *D ntt_engine_256
*CAP
1 *739:busy_i 0.00377291
2 *740:busy 0.000552384
3 *646:61 0.00642483
4 *646:57 0.00462517
5 *646:47 0.0211221
6 *646:45 0.0191488
7 *646:43 0.0172844
8 *646:41 0.0183443
9 *646:35 0.0418851
10 *646:33 0.0414019
11 *646:19 0.00705404
12 *646:17 0.00670047
13 *646:11 0.0410354
14 *646:9 0.0413646
15 *739:busy_i *734:25 0
16 *646:11 *679:11 0.0665613
17 *646:11 *685:13 0
18 *646:11 *714:155 0
19 *646:17 *740:slot_a[0] 0
20 *646:19 *648:23 0.0320806
21 *646:19 *658:135 0.0400825
22 *646:19 *663:11 0.00391815
23 *646:19 *671:15 0.00366764
24 *646:19 *732:15 0.0017661
25 *646:35 *658:123 0.0215447
26 *646:35 *673:15 0
27 *646:35 *685:37 0
28 *646:47 *655:129 0
29 *646:47 *663:35 0.0327927
30 *646:47 *694:165 0
31 *646:47 *703:15 0.0189024
32 *646:47 *715:63 0.000310328
33 *646:47 *723:131 0
34 *646:57 *679:61 0.000127963
35 la_data_out[84] *646:61 0
36 *76:95 *646:33 0.000903598
37 *76:105 *646:19 0
38 *77:171 *646:35 0.119117
39 *77:193 *646:33 0.000274449
40 *78:151 *646:33 0.000328733
41 *115:137 *646:43 0.0403494
42 *115:149 *646:33 0.000152088
43 *364:23 *739:busy_i 7.69526e-05
44 *372:19 *739:busy_i 0.000178632
45 *398:23 *646:57 0.000902434
*RES
1 *740:busy *646:9 10.025 
2 *646:9 *646:11 139.179 
3 *646:11 *646:17 5.7925 
4 *646:17 *646:19 362.355 
5 *646:19 *646:33 21.675 
6 *646:33 *646:35 1332.22 
7 *646:35 *646:41 18.94 
8 *646:41 *646:43 465.735 
9 *646:43 *646:45 2 
10 *646:45 *646:47 442.395 
11 *646:47 *646:57 46.5 
12 *646:57 *646:61 44.945 
13 *646:61 *739:busy_i 40.976 
*END

*D_NET *647 0.281843
*CONN
*I *739:done_i I *D ntt_wb_bridge
*I *740:done O *D ntt_engine_256
*CAP
1 *739:done_i 0.00126981
2 *740:done 0.00106843
3 *647:27 0.0028332
4 *647:19 0.00314573
5 *647:17 0.00163291
6 *647:11 0.0180952
7 *647:9 0.0191131
8 *739:done_i *689:35 0.000129814
9 *647:11 *649:11 0.028508
10 *647:11 *661:31 0.00238294
11 *647:11 *662:19 0.102712
12 *647:11 *675:19 0.0598035
13 *647:11 *710:31 0.000312413
14 *647:19 *649:11 0.00112386
15 *647:19 *661:31 0.00227269
16 *647:19 *664:23 0.00743879
17 *354:25 *647:17 8.10123e-05
18 *357:27 *647:27 0.00275102
19 *358:25 *647:11 0.00901952
20 *364:23 *739:done_i 0.000128387
21 *367:19 *647:27 0.00317554
22 *398:17 *647:11 0.0148454
*RES
1 *740:done *647:9 17.675 
2 *647:9 *647:11 174.372 
3 *647:11 *647:17 3.4975 
4 *647:17 *647:19 67.725 
5 *647:19 *647:27 49.45 
6 *647:27 *739:done_i 6.23177 
*END

*D_NET *648 0.680916
*CONN
*I *740:rst_n I *D ntt_engine_256
*I *739:engine_rst_n_o O *D ntt_wb_bridge
*CAP
1 *740:rst_n 0.000420632
2 *739:engine_rst_n_o 2.1597e-05
3 *648:23 0.00597887
4 *648:21 0.00617939
5 *648:11 0.0345131
6 *648:9 0.0338919
7 *648:7 0.0326703
8 *648:5 0.0326919
9 *648:11 *659:111 0.0286843
10 *648:11 *705:11 0.00667831
11 *648:11 *732:11 0.213936
12 *648:21 *671:15 0.00123423
13 *648:21 *679:21 0.000332013
14 *648:21 *715:93 0
15 *648:23 *653:23 0.0243887
16 *648:23 *658:135 0.000358692
17 *648:23 *732:15 0.00710662
18 *76:105 *648:23 0.000225914
19 *77:41 *648:7 0
20 *78:151 *648:21 0
21 *104:23 *648:11 0.00341923
22 *113:17 *648:11 0.216104
23 *142:19 *648:11 0
24 *646:19 *648:23 0.0320806
*RES
1 *739:engine_rst_n_o *648:5 0.0620667 
2 *648:5 *648:7 85.4278 
3 *648:7 *648:9 0.5 
4 *648:9 *648:11 2417.5 
5 *648:11 *648:21 6.15503 
6 *648:21 *648:23 295.425 
7 *648:23 *740:rst_n 8.9375 
*END

*D_NET *649 0.129546
*CONN
*I *739:mem_rvalid_i I *D ntt_wb_bridge
*I *740:mem_rvalid O *D ntt_engine_256
*CAP
1 *739:mem_rvalid_i 0.00137071
2 *740:mem_rvalid 0.00114354
3 *649:15 0.00300479
4 *649:13 0.00163408
5 *649:11 0.0140802
6 *649:9 0.0152238
7 *739:mem_rvalid_i *734:25 0
8 *649:9 *675:25 2.67006e-05
9 *649:11 *739:mem_rdata_i[10] 8.05822e-05
10 *649:11 *662:27 0.000573592
11 *649:11 *675:19 0.000103154
12 *649:11 *675:27 0.00386875
13 *649:11 *676:23 0.0147184
14 *649:11 *687:13 0.000972822
15 *649:15 *739:mem_rdata_i[10] 0.000593423
16 *649:15 *676:35 0.00408246
17 *649:15 *735:11 0.000151881
18 *281:19 *649:15 0
19 *282:19 *649:15 0
20 *284:17 *649:15 0.00167808
21 *352:21 *649:11 0.0184895
22 *353:21 *649:11 0.000682945
23 *358:25 *649:11 0.0155566
24 *367:19 *649:15 0
25 *373:17 *649:11 0.00187803
26 *647:11 *649:11 0.028508
27 *647:19 *649:11 0.00112386
*RES
1 *740:mem_rvalid *649:9 18.695 
2 *649:9 *649:11 97.052 
3 *649:11 *649:13 0.5 
4 *649:13 *649:15 52.635 
5 *649:15 *739:mem_rvalid_i 3.13467 
*END

*D_NET *650 0.513911
*CONN
*I *740:mac_init I *D ntt_engine_256
*I *739:mac_init_o O *D ntt_wb_bridge
*CAP
1 *740:mac_init 0.0118633
2 *739:mac_init_o 0.0007214
3 *650:15 0.0334126
4 *650:13 0.0215493
5 *650:11 0.0383936
6 *650:9 0.039115
7 *740:mac_init *656:27 0.00477307
8 *740:mac_init *701:22 0.0217308
9 *740:mac_init *706:19 0.00497314
10 *740:mac_init *718:19 0.0053372
11 *740:mac_init *734:43 0.00522233
12 *740:mac_init *736:27 0.000262458
13 *740:mac_init *737:46 0.00467671
14 *650:9 *728:9 0
15 *650:11 *702:11 0.0123464
16 *650:11 *727:11 0.000316659
17 *650:11 *729:11 0.00270147
18 *650:11 *734:27 0.000602531
19 *650:11 *736:11 0.0016054
20 *650:15 *683:15 0.150781
21 *650:15 *709:15 0.150277
22 *650:15 *718:15 0
23 *79:23 *650:9 0.000206859
24 *116:137 *740:mac_init 0.00304284
*RES
1 *739:mac_init_o *650:9 1.90727 
2 *650:9 *650:11 92.5452 
3 *650:11 *650:13 0.5 
4 *650:13 *650:15 222.85 
5 *650:15 *740:mac_init 42.7911 
*END

*D_NET *651 0.147111
*CONN
*I *740:mem_addr[0] I *D ntt_engine_256
*I *739:mem_addr_o[0] O *D ntt_wb_bridge
*CAP
1 *740:mem_addr[0] 0.00080816
2 *739:mem_addr_o[0] 0.00608642
3 *651:15 0.0181556
4 *651:13 0.0173474
5 *651:11 0.0265473
6 *651:9 0.0326337
7 *651:15 *652:121 0.000428085
8 *651:15 *660:11 0.0366557
9 *651:15 *670:13 0.000603053
10 *651:15 *674:15 0
11 *651:15 *699:15 0
12 *651:15 *723:131 0.00024757
13 *76:27 *651:11 0.00697324
14 *114:143 *651:15 0.000625288
*RES
1 *739:mem_addr_o[0] *651:9 14.6132 
2 *651:9 *651:11 505.515 
3 *651:11 *651:13 0.5 
4 *651:13 *651:15 67.8021 
5 *651:15 *740:mem_addr[0] 12.23 
*END

*D_NET *652 0.309953
*CONN
*I *740:mem_addr[1] I *D ntt_engine_256
*I *739:mem_addr_o[1] O *D ntt_wb_bridge
*CAP
1 *740:mem_addr[1] 0.00128271
2 *739:mem_addr_o[1] 2.1597e-05
3 *652:123 0.0131616
4 *652:121 0.0200182
5 *652:83 0.024026
6 *652:57 0.0296175
7 *652:7 0.0371164
8 *652:5 0.0234071
9 *740:mem_addr[1] *654:11 0.000318057
10 *652:7 *694:17 0.00267493
11 *652:57 *659:61 0.00462058
12 *652:57 *705:7 0.000576148
13 *652:57 *723:67 0.000435046
14 *652:57 *724:7 0.000346285
15 *652:83 *655:99 0.000260965
16 *652:83 *659:93 0.00568455
17 *652:83 *669:63 0.000204807
18 *652:83 *694:79 0.00176511
19 *652:83 *721:63 0.00209988
20 *652:83 *721:77 0.000717184
21 *652:83 *723:67 0
22 *652:83 *723:95 0.00108626
23 *652:121 *659:109 0.000460887
24 *652:121 *674:15 0.000476315
25 *652:121 *681:23 0.000105534
26 *652:121 *690:17 0.00070964
27 *652:121 *703:15 0.00204603
28 *652:121 *708:17 8.72438e-06
29 *652:121 *721:141 0.00112507
30 *652:121 *723:95 6.3525e-05
31 *652:121 *723:131 0
32 *652:123 *653:11 0.0140806
33 *652:123 *659:111 0.0568455
34 *652:123 *681:13 0.0422722
35 *652:123 *732:11 0.0125923
36 io_oeb[1] *652:57 0
37 la_data_out[114] *652:83 0.000309305
38 la_data_out[115] *652:121 0.000505837
39 *77:97 *652:57 6.35749e-05
40 *104:23 *652:123 0.0084189
41 *651:15 *652:121 0.000428085
*RES
1 *739:mem_addr_o[1] *652:5 0.0620667 
2 *652:5 *652:7 62.0337 
3 *652:7 *652:57 45.3297 
4 *652:57 *652:83 49.8717 
5 *652:83 *652:121 26.0508 
6 *652:121 *652:123 103.829 
7 *652:123 *740:mem_addr[1] 3.0194 
*END

*D_NET *653 0.612858
*CONN
*I *740:mem_addr[2] I *D ntt_engine_256
*I *739:mem_addr_o[2] O *D ntt_wb_bridge
*CAP
1 *740:mem_addr[2] 0.000440862
2 *739:mem_addr_o[2] 2.1597e-05
3 *653:23 0.00508806
4 *653:21 0.00498846
5 *653:11 0.0333142
6 *653:9 0.0329729
7 *653:7 0.0329827
8 *653:5 0.0330043
9 *653:11 *659:111 0.00156259
10 *653:11 *671:17 0.184403
11 *653:11 *732:11 0.206336
12 *653:21 *740:mem_wdata[31] 0.000187686
13 *653:21 *663:29 2.73058e-05
14 *653:21 *667:15 6.02846e-05
15 *653:21 *671:15 1.35034e-05
16 *653:21 *673:11 0.000437404
17 *653:21 *679:21 1.37635e-05
18 *653:21 *682:11 0.000589141
19 *653:21 *732:15 0.000397988
20 *653:23 *740:mem_slot[1] 4.80285e-05
21 *653:23 *658:135 2.03356e-05
22 *653:23 *663:19 0.0164547
23 *653:23 *732:15 0.00578043
24 *104:23 *653:11 0.0052114
25 *113:17 *653:11 3.48887e-05
26 *115:49 *653:7 0.000533094
27 *142:19 *653:11 0.00946455
28 *648:23 *653:23 0.0243887
29 *652:123 *653:11 0.0140806
*RES
1 *739:mem_addr_o[2] *653:5 0.0620667 
2 *653:5 *653:7 85.5443 
3 *653:7 *653:9 0.5 
4 *653:9 *653:11 2309.39 
5 *653:11 *653:21 5.5285 
6 *653:21 *653:23 221.94 
7 *653:23 *740:mem_addr[2] 9.1925 
*END

*D_NET *654 0.372684
*CONN
*I *740:mem_addr[3] I *D ntt_engine_256
*I *739:mem_addr_o[3] O *D ntt_wb_bridge
*CAP
1 *740:mem_addr[3] 0
2 *739:mem_addr_o[3] 2.35071e-05
3 *654:11 0.0514552
4 *654:9 0.0514552
5 *654:7 0.0336654
6 *654:5 0.0336889
7 *654:11 *740:mem_wdata[18] 0.000262458
8 *654:11 *740:mem_wdata[6] 0.000262458
9 *654:11 *740:start 0.000318057
10 *654:11 *663:31 0.0424455
11 *654:11 *666:9 0.000318057
12 *654:11 *666:11 0.0507909
13 *654:11 *667:19 0.0162343
14 *654:11 *672:21 0.000262458
15 *654:11 *700:11 0.0439979
16 *740:mem_addr[1] *654:11 0.000318057
17 *78:55 *654:7 0.00229383
18 *112:69 *654:11 0.0448923
19 *137:17 *654:11 0
*RES
1 *739:mem_addr_o[3] *654:5 0.0620667 
2 *654:5 *654:7 83.5924 
3 *654:7 *654:9 0.5 
4 *654:9 *654:11 241.685 
5 *654:11 *740:mem_addr[3] 0.5 
*END

*D_NET *655 0.463648
*CONN
*I *740:mem_addr[4] I *D ntt_engine_256
*I *739:mem_addr_o[4] O *D ntt_wb_bridge
*CAP
1 *740:mem_addr[4] 0.00171656
2 *739:mem_addr_o[4] 2.1597e-05
3 *655:131 0.0258586
4 *655:129 0.0258443
5 *655:121 0.00657566
6 *655:99 0.0205146
7 *655:41 0.0328084
8 *655:7 0.0404294
9 *655:5 0.0232838
10 *740:mem_addr[4] *682:15 4.01548e-05
11 *740:mem_addr[4] *715:83 2.22382e-05
12 *655:41 *671:21 5.60659e-05
13 *655:41 *721:17 0
14 *655:41 *723:67 0
15 *655:99 *672:27 0
16 *655:99 *681:25 0.00204747
17 *655:99 *721:117 0.000357479
18 *655:121 *659:109 0.000930957
19 *655:121 *680:37 0.00269282
20 *655:121 *694:161 0.00079585
21 *655:121 *721:133 0.000158482
22 *655:121 *721:141 0
23 *655:121 *723:95 0
24 *655:129 *694:165 0.00175469
25 *655:129 *700:11 0.000330795
26 *655:129 *721:141 0.000387596
27 *655:129 *723:131 0.000462952
28 *655:131 *679:39 0.11639
29 *655:131 *723:133 0.132416
30 la_data_out[107] *655:41 0.00238605
31 la_data_out[113] *655:99 0.00111998
32 *69:21 *655:131 0.0229504
33 *77:97 *655:7 0
34 *77:153 *655:121 0.000173489
35 *114:145 *655:131 0.000198892
36 *298:31 *655:121 0.000322041
37 *531:23 *655:121 0.00033905
38 *646:47 *655:129 0
39 *652:83 *655:99 0.000260965
*RES
1 *739:mem_addr_o[4] *655:5 0.0620667 
2 *655:5 *655:7 60.2857 
3 *655:7 *655:41 47.9936 
4 *655:41 *655:99 49.8555 
5 *655:99 *655:121 36.4739 
6 *655:121 *655:129 41.3725 
7 *655:129 *655:131 1484.46 
8 *655:131 *740:mem_addr[4] 22.7984 
*END

*D_NET *656 0.628433
*CONN
*I *740:mem_addr[5] I *D ntt_engine_256
*I *739:mem_addr_o[5] O *D ntt_wb_bridge
*CAP
1 *740:mem_addr[5] 0.000763261
2 *739:mem_addr_o[5] 0.000446201
3 *656:35 0.0218182
4 *656:33 0.0210993
5 *656:27 0.0258114
6 *656:25 0.0268012
7 *656:15 0.0758166
8 *656:13 0.0747825
9 *656:11 0.00937399
10 *656:9 0.00982019
11 *656:11 *657:11 0.0393675
12 *656:11 *718:11 0.000612251
13 *656:11 *719:11 0
14 *656:11 *728:11 0.039154
15 *656:15 *712:23 0.0484345
16 *656:15 *713:17 0.01174
17 *656:15 *719:23 0.00164619
18 *656:15 *722:15 0.00231106
19 *656:25 *695:31 0
20 *656:25 *701:18 0.0029539
21 *656:25 *706:15 3.64259e-05
22 *656:25 *712:23 0.000803066
23 *656:25 *717:23 0.000114972
24 *656:27 *740:mem_wdata[7] 0.00537263
25 *656:27 *706:19 0.000283288
26 *656:27 *718:19 0.0417993
27 *656:27 *718:27 0.00660868
28 *656:27 *725:35 5.24607e-05
29 *656:27 *737:46 0.0923826
30 *656:35 *689:11 0
31 *656:35 *706:27 0.00683156
32 *656:35 *734:43 0.00875182
33 *656:35 *737:46 0.00321218
34 *656:35 *737:54 0.0360026
35 *740:mac_init *656:27 0.00477307
36 *116:137 *656:35 0.00812104
37 *356:31 *656:11 0.000426138
38 *540:185 *656:25 0.000109394
*RES
1 *739:mem_addr_o[5] *656:9 1.38413 
2 *656:9 *656:11 476.828 
3 *656:11 *656:13 2 
4 *656:13 *656:15 1289.71 
5 *656:15 *656:25 8.89357 
6 *656:25 *656:27 1033.36 
7 *656:27 *656:33 1.06713 
8 *656:33 *656:35 78.85 
9 *656:35 *740:mem_addr[5] 2.20113 
*END

*D_NET *657 0.258325
*CONN
*I *740:mem_addr[6] I *D ntt_engine_256
*I *739:mem_addr_o[6] O *D ntt_wb_bridge
*CAP
1 *740:mem_addr[6] 0.00146729
2 *739:mem_addr_o[6] 0.000436927
3 *657:23 0.00862387
4 *657:21 0.00716986
5 *657:15 0.00345383
6 *657:13 0.00344055
7 *657:11 0.00901543
8 *657:9 0.00945236
9 *657:11 *718:11 0.0367253
10 *657:15 *676:31 0.0270263
11 *657:15 *678:19 0.0258124
12 *657:15 *702:23 0.000369489
13 *657:15 *711:15 0.00291641
14 *657:23 *678:11 0.0147305
15 *657:23 *702:23 0.00148152
16 *657:23 *711:15 0.0193626
17 *657:23 *716:23 0.0382638
18 *357:25 *657:15 0.00301523
19 *374:15 *657:23 0
20 *376:21 *657:23 0.00598152
21 *386:23 *657:21 1.88656e-05
22 *386:25 *657:15 0.00019362
23 *656:11 *657:11 0.0393675
*RES
1 *739:mem_addr_o[6] *657:9 1.35627 
2 *657:9 *657:11 457.193 
3 *657:11 *657:13 2 
4 *657:13 *657:15 244.71 
5 *657:15 *657:21 2.7325 
6 *657:21 *657:23 66.1124 
7 *657:23 *740:mem_addr[6] 23.795 
*END

*D_NET *658 0.659943
*CONN
*I *740:mem_addr[7] I *D ntt_engine_256
*I *739:mem_addr_o[7] O *D ntt_wb_bridge
*CAP
1 *740:mem_addr[7] 0.000510429
2 *739:mem_addr_o[7] 0.00318781
3 *658:145 0.0068009
4 *658:141 0.00645834
5 *658:135 0.0141496
6 *658:133 0.0139817
7 *658:131 0.0169484
8 *658:129 0.0172067
9 *658:123 0.0202293
10 *658:121 0.026343
11 *658:103 0.00966357
12 *658:101 0.00373547
13 *658:97 0.00210254
14 *658:87 0.00422546
15 *658:77 0.00470233
16 *658:73 0.0044933
17 *658:63 0.00584933
18 *658:61 0.00349157
19 *658:59 0.00263564
20 *658:57 0.00263564
21 *658:55 0.00368047
22 *658:53 0.00601723
23 *658:49 0.00389226
24 *658:45 0.00264878
25 *658:41 0.00356616
26 *658:35 0.00488575
27 *658:33 0.00335281
28 *658:27 0.0049641
29 *658:25 0.00610061
30 *658:17 0.00526426
31 *658:17 *659:7 0
32 *658:17 *734:11 0.000143766
33 *658:25 *695:19 0
34 *658:25 *721:7 0.000354877
35 *658:45 *698:11 0.00282209
36 *658:49 *715:25 0.0028582
37 *658:59 *685:101 0.00256273
38 *658:59 *714:61 0.000932211
39 *658:59 *715:43 0.00370352
40 *658:121 *673:27 0
41 *658:121 *708:17 0.0113317
42 *658:123 *673:15 0
43 *658:123 *673:23 0.0104778
44 *658:123 *682:23 0
45 *658:123 *682:39 0.0050898
46 *658:123 *685:53 0.00739655
47 *658:123 *685:57 0
48 *658:123 *714:123 0.0089048
49 *658:123 *714:139 0.00288589
50 *658:123 *715:75 0.00530764
51 *658:131 *669:19 0.000641603
52 *658:131 *682:15 0.0981387
53 *658:131 *685:29 0.0372598
54 *658:131 *708:19 0.0340117
55 *658:135 *740:mem_slot[1] 0.000681984
56 *658:135 *663:11 0.00536295
57 *658:135 *671:15 0.00346311
58 *658:135 *673:11 0.0051515
59 *658:135 *685:21 0.0684478
60 *658:135 *685:27 0.000176462
61 *658:145 *679:11 0.030569
62 *658:145 *682:11 0.00600107
63 *658:145 *685:13 0.00261508
64 *658:145 *715:95 0.00985634
65 la_data_out[104] *658:97 0.00156413
66 la_data_out[84] *658:27 0
67 la_data_out[91] *658:53 0
68 la_data_out[96] *658:59 0.00177926
69 *740:clk *658:135 0.000432191
70 *77:171 *658:123 0.00429716
71 *78:71 *658:49 0.000456263
72 *78:127 *658:121 0.0012038
73 *79:23 *658:17 0.000262458
74 *112:67 *658:121 0.000494078
75 *275:19 *658:73 0
76 *285:17 *658:35 0.00621988
77 *300:15 *658:97 0.000107989
78 *372:19 *658:17 0.000247871
79 *646:19 *658:135 0.0400825
80 *646:35 *658:123 0.0215447
81 *648:23 *658:135 0.000358692
82 *653:23 *658:135 2.03356e-05
*RES
1 *739:mem_addr_o[7] *658:17 38.6521 
2 *658:17 *658:25 40.57 
3 *658:25 *658:27 72.525 
4 *658:27 *658:33 19.975 
5 *658:33 *658:35 69.72 
6 *658:35 *658:41 45.505 
7 *658:41 *658:45 33.47 
8 *658:45 *658:49 37.985 
9 *658:49 *658:53 43.415 
10 *658:53 *658:55 62.55 
11 *658:55 *658:57 2 
12 *658:57 *658:59 93.18 
13 *658:59 *658:61 2 
14 *658:61 *658:63 59.1 
15 *658:63 *658:73 47.955 
16 *658:73 *658:77 40.61 
17 *658:77 *658:87 48.37 
18 *658:87 *658:97 45.255 
19 *658:97 *658:101 9.755 
20 *658:101 *658:103 56.685 
21 *658:103 *658:121 47.0068 
22 *658:121 *658:123 700.208 
23 *658:123 *658:129 7.555 
24 *658:129 *658:131 1097.88 
25 *658:131 *658:133 2 
26 *658:133 *658:135 622.83 
27 *658:135 *658:141 5.0275 
28 *658:141 *658:145 47.1513 
29 *658:145 *740:mem_addr[7] 8.85 
*END

*D_NET *659 0.440072
*CONN
*I *740:mem_addr[8] I *D ntt_engine_256
*I *739:mem_addr_o[8] O *D ntt_wb_bridge
*CAP
1 *740:mem_addr[8] 0.00098586
2 *739:mem_addr_o[8] 2.1597e-05
3 *659:111 0.057861
4 *659:109 0.0622378
5 *659:93 0.0191127
6 *659:61 0.0274047
7 *659:7 0.0393465
8 *659:5 0.0257134
9 *659:7 *694:25 0.00119529
10 *659:61 *723:67 0.000719099
11 *659:61 *723:95 2.38374e-05
12 *659:93 *669:63 0.000338557
13 *659:93 *680:37 0
14 *659:93 *680:39 0
15 *659:93 *681:25 0
16 *659:93 *686:73 6.67917e-06
17 *659:93 *694:125 9.02177e-07
18 *659:93 *723:95 0.00680249
19 *659:109 *672:25 0
20 *659:109 *679:45 8.47787e-05
21 *659:109 *680:37 0.00110873
22 *659:109 *690:17 0.000427488
23 *659:109 *694:161 5.18735e-06
24 *659:109 *721:141 0.00105358
25 *659:111 *740:mem_wdata[13] 0.00305194
26 *659:111 *669:21 0
27 *659:111 *671:17 0.00112474
28 *659:111 *672:21 0.00674443
29 *659:111 *685:45 0
30 *659:111 *705:11 0.00897738
31 *659:111 *732:11 0.0135864
32 la_data_out[114] *659:93 0.00222936
33 *74:17 *659:111 0.0237669
34 *78:129 *659:111 0.00799337
35 *104:23 *659:111 0.00305236
36 *112:33 *659:109 0.000206189
37 *112:67 *659:109 0.000454409
38 *113:17 *659:111 0.0256448
39 *648:11 *659:111 0.0286843
40 *652:57 *659:61 0.00462058
41 *652:83 *659:93 0.00568455
42 *652:121 *659:109 0.000460887
43 *652:123 *659:111 0.0568455
44 *653:11 *659:111 0.00156259
45 *655:121 *659:109 0.000930957
46 *658:17 *659:7 0
*RES
1 *739:mem_addr_o[8] *659:5 0.0620667 
2 *659:5 *659:7 66.9281 
3 *659:7 *659:61 45.6787 
4 *659:61 *659:93 45.2155 
5 *659:93 *659:109 17.7117 
6 *659:109 *659:111 210.634 
7 *659:111 *740:mem_addr[8] 2.60647 
*END

*D_NET *660 0.12566
*CONN
*I *739:mem_rdata_i[0] I *D ntt_wb_bridge
*I *740:mem_rdata[0] O *D ntt_engine_256
*CAP
1 *739:mem_rdata_i[0] 0.00625448
2 *740:mem_rdata[0] 0.00080157
3 *660:15 0.0161931
4 *660:13 0.00993863
5 *660:11 0.00719865
6 *660:9 0.00800022
7 *660:11 *673:45 0.000219402
8 *660:11 *684:13 0.0268692
9 *660:11 *699:15 0
10 *660:15 *663:89 0.00302341
11 *660:15 *673:45 0
12 la_data_out[87] *660:15 0.0105053
13 *651:15 *660:11 0.0366557
*RES
1 *740:mem_rdata[0] *660:9 12.065 
2 *660:9 *660:11 54.226 
3 *660:11 *660:13 0.5 
4 *660:13 *660:15 255.105 
5 *660:15 *739:mem_rdata_i[0] 15.4872 
*END

*D_NET *661 0.583815
*CONN
*I *739:mem_rdata_i[10] I *D ntt_wb_bridge
*I *740:mem_rdata[10] O *D ntt_engine_256
*CAP
1 *739:mem_rdata_i[10] 0.0150978
2 *740:mem_rdata[10] 0.00139874
3 *661:31 0.0231246
4 *661:29 0.00812647
5 *661:23 0.0192488
6 *661:21 0.0191491
7 *661:19 0.00243492
8 *661:17 0.00260573
9 *661:11 0.0561065
10 *661:9 0.0573344
11 *739:mem_rdata_i[10] *739:mem_rdata_i[11] 0
12 *739:mem_rdata_i[10] *676:35 0.0016051
13 *739:mem_rdata_i[10] *701:12 0.000278215
14 *739:mem_rdata_i[10] *702:11 0
15 *739:mem_rdata_i[10] *709:11 0
16 *739:mem_rdata_i[10] *711:11 0.000116431
17 *739:mem_rdata_i[10] *713:11 0.000100019
18 *739:mem_rdata_i[10] *719:11 0.000101735
19 *739:mem_rdata_i[10] *734:19 0.00285572
20 *739:mem_rdata_i[10] *735:11 0.00311658
21 *661:11 *662:15 0.00165135
22 *661:11 *664:11 0.0215077
23 *661:11 *677:11 0.0253565
24 *661:11 *688:11 0.00293956
25 *661:19 *662:15 0.015386
26 *661:19 *675:15 0.00013307
27 *661:19 *677:11 0.00333898
28 *661:19 *688:11 0.000137075
29 *661:19 *695:35 0.0009358
30 *661:23 *662:19 0.00079513
31 *661:23 *664:15 3.20406e-05
32 *661:23 *688:15 0.133894
33 *661:23 *710:31 0.131308
34 *661:31 *740:mem_slot[0] 0.000811214
35 *661:31 *664:23 0.000978355
36 *661:31 *688:23 0
37 *661:31 *710:23 0
38 *86:41 *661:11 0
39 *87:57 *661:11 0
40 *91:53 *661:11 0
41 *92:25 *661:11 0.00234545
42 *93:23 *661:11 0.00256276
43 *118:161 *661:19 0.013455
44 *358:25 *739:mem_rdata_i[10] 4.36016e-05
45 *364:23 *739:mem_rdata_i[10] 0.000606578
46 *369:15 *739:mem_rdata_i[10] 0.00308218
47 *372:19 *739:mem_rdata_i[10] 0.00344647
48 *398:17 *661:23 0.00068042
49 *398:17 *661:31 0.000258121
50 *647:11 *661:31 0.00238294
51 *647:19 *661:31 0.00227269
52 *649:11 *739:mem_rdata_i[10] 8.05822e-05
53 *649:15 *739:mem_rdata_i[10] 0.000593423
*RES
1 *740:mem_rdata[10] *661:9 3.483 
2 *661:9 *661:11 199.351 
3 *661:11 *661:17 1.3002 
4 *661:17 *661:19 171.975 
5 *661:19 *661:21 0.5 
6 *661:21 *661:23 197.97 
7 *661:23 *661:29 4.0075 
8 *661:29 *661:31 160.53 
9 *661:31 *739:mem_rdata_i[10] 38.5717 
*END

*D_NET *662 0.635606
*CONN
*I *739:mem_rdata_i[11] I *D ntt_wb_bridge
*I *740:mem_rdata[11] O *D ntt_engine_256
*CAP
1 *739:mem_rdata_i[11] 0.00267162
2 *740:mem_rdata[11] 0.00485224
3 *662:31 0.00599193
4 *662:29 0.00332031
5 *662:27 0.00401237
6 *662:25 0.00417005
7 *662:19 0.0195012
8 *662:17 0.0193436
9 *662:15 0.067551
10 *662:13 0.0724032
11 *739:mem_rdata_i[11] *689:35 0.000180299
12 *662:13 *740:slot_a[1] 0.0057083
13 *662:13 *695:39 0.000385389
14 *662:15 *664:11 0.00931043
15 *662:15 *675:15 0
16 *662:15 *695:35 0.0212293
17 *662:19 *664:15 1.32141e-05
18 *662:19 *675:19 0.0155968
19 *662:19 *710:31 0.128376
20 *662:25 *687:9 0
21 *662:27 *675:27 0.00959712
22 *662:27 *688:23 1.91597e-05
23 *662:27 *710:23 0.0207901
24 *662:31 *664:27 0.0143042
25 *662:31 *710:19 0.015206
26 *739:mem_rdata_i[10] *739:mem_rdata_i[11] 0
27 *80:217 *662:13 0.000486657
28 *82:25 *662:15 0
29 *84:29 *662:15 0
30 *118:161 *662:15 0.0571366
31 *118:203 *662:13 0
32 *353:21 *662:27 0.00399394
33 *364:23 *739:mem_rdata_i[11] 0.000178632
34 *378:19 *662:31 0.000511018
35 *398:23 *662:27 0.00764798
36 *647:11 *662:19 0.102712
37 *649:11 *662:27 0.000573592
38 *661:11 *662:15 0.00165135
39 *661:19 *662:15 0.015386
40 *661:23 *662:19 0.00079513
*RES
1 *740:mem_rdata[11] *662:13 26.4357 
2 *662:13 *662:15 1821.82 
3 *662:15 *662:17 0.5 
4 *662:17 *662:19 191.91 
5 *662:19 *662:25 5.0275 
6 *662:25 *662:27 214.695 
7 *662:27 *662:29 2 
8 *662:29 *662:31 176.82 
9 *662:31 *739:mem_rdata_i[11] 28.5979 
*END

*D_NET *663 0.744699
*CONN
*I *739:mem_rdata_i[12] I *D ntt_wb_bridge
*I *740:mem_rdata[12] O *D ntt_engine_256
*CAP
1 *739:mem_rdata_i[12] 0.00371751
2 *740:mem_rdata[12] 0.000367638
3 *663:95 0.00634172
4 *663:89 0.00360236
5 *663:81 0.00352518
6 *663:73 0.00360738
7 *663:69 0.00317253
8 *663:55 0.00522536
9 *663:53 0.0043811
10 *663:45 0.00352524
11 *663:35 0.00694796
12 *663:33 0.00469064
13 *663:31 0.0619534
14 *663:29 0.0623816
15 *663:19 0.00576335
16 *663:17 0.0054413
17 *663:11 0.0291815
18 *663:9 0.029443
19 *663:11 *673:11 0.0197843
20 *663:11 *685:13 0.0426761
21 *663:11 *685:21 0.0109769
22 *663:11 *714:147 0.0286284
23 *663:11 *714:155 0.0344062
24 *663:11 *732:15 0.0253898
25 *663:19 *673:11 0.00352374
26 *663:29 *740:mem_slot[1] 0.000229043
27 *663:29 *667:15 0.000798474
28 *663:29 *679:21 2.88544e-05
29 *663:31 *667:15 0.00209682
30 *663:31 *667:19 0.155619
31 *663:31 *723:131 0.000104672
32 *663:35 *667:23 0.00719811
33 *663:35 *715:63 0.0293213
34 *663:45 *667:33 0.000725659
35 *663:55 *667:41 0.00142539
36 *663:81 *667:43 0
37 *663:81 *670:15 0
38 la_data_out[84] *663:95 0.000687131
39 la_data_out[87] *663:89 0.00302175
40 la_data_out[91] *663:69 0.000891479
41 la_data_out[92] *663:55 0.00577758
42 *740:clk *663:11 0.00203318
43 *102:27 *663:45 0.000608406
44 *112:69 *663:31 0.0203484
45 *274:15 *663:53 0.000584219
46 *276:15 *663:53 0.00030924
47 *364:23 *739:mem_rdata_i[12] 6.08667e-05
48 *372:19 *739:mem_rdata_i[12] 0.000150547
49 *394:15 *663:53 0
50 *398:23 *663:45 0
51 *646:19 *663:11 0.00391815
52 *646:47 *663:35 0.0327927
53 *653:21 *663:29 2.73058e-05
54 *653:23 *663:19 0.0164547
55 *654:11 *663:31 0.0424455
56 *658:135 *663:11 0.00536295
57 *660:15 *663:89 0.00302341
*RES
1 *740:mem_rdata[12] *663:9 6.8 
2 *663:9 *663:11 151.007 
3 *663:11 *663:17 3.7525 
4 *663:17 *663:19 148.8 
5 *663:19 *663:29 13.2725 
6 *663:29 *663:31 1795.18 
7 *663:31 *663:33 2 
8 *663:33 *663:35 296.46 
9 *663:35 *663:45 47.205 
10 *663:45 *663:53 31.33 
11 *663:53 *663:55 81.45 
12 *663:55 *663:69 47.495 
13 *663:69 *663:73 20.465 
14 *663:73 *663:81 47.665 
15 *663:81 *663:89 45.715 
16 *663:89 *663:95 49.535 
17 *663:95 *739:mem_rdata_i[12] 44.7048 
*END

*D_NET *664 0.477495
*CONN
*I *739:mem_rdata_i[13] I *D ntt_wb_bridge
*I *740:mem_rdata[13] O *D ntt_engine_256
*CAP
1 *739:mem_rdata_i[13] 0.00256352
2 *740:mem_rdata[13] 0.00158455
3 *664:27 0.00587904
4 *664:25 0.00331552
5 *664:23 0.00345775
6 *664:21 0.00370323
7 *664:15 0.0263455
8 *664:13 0.0261
9 *664:11 0.0101694
10 *664:9 0.0117539
11 *664:9 *736:27 0.000206859
12 *664:11 *677:11 0.0365383
13 *664:11 *688:11 0.000493208
14 *664:15 *688:15 0.1362
15 *664:15 *695:23 0.0373684
16 *664:15 *695:31 0.000226893
17 *664:15 *704:23 0.0100338
18 *664:15 *704:31 0.025597
19 *664:15 *717:15 0.0026274
20 *664:15 *727:31 0.0150288
21 *664:23 *688:23 0.0162928
22 *664:27 *710:19 9.72226e-06
23 *93:23 *664:11 0.00206374
24 *352:21 *664:23 0.0031317
25 *353:21 *664:23 0.000117568
26 *358:27 *664:27 0
27 *359:27 *664:27 0
28 *361:15 *664:15 0.0289641
29 *363:65 *739:mem_rdata_i[13] 2.58975e-06
30 *364:23 *739:mem_rdata_i[13] 4.64544e-05
31 *372:19 *739:mem_rdata_i[13] 0.000109393
32 *378:19 *664:27 0.0136082
33 *398:17 *664:15 0.000370493
34 *647:19 *664:23 0.00743879
35 *661:11 *664:11 0.0215077
36 *661:23 *664:15 3.20406e-05
37 *661:31 *664:23 0.000978355
38 *662:15 *664:11 0.00931043
39 *662:19 *664:15 1.32141e-05
40 *662:31 *664:27 0.0143042
*RES
1 *740:mem_rdata[13] *664:9 3.53873 
2 *664:9 *664:11 68.2556 
3 *664:11 *664:13 0.5 
4 *664:13 *664:15 203.36 
5 *664:15 *664:21 6.3025 
6 *664:21 *664:23 147.765 
7 *664:23 *664:25 2 
8 *664:25 *664:27 167.13 
9 *664:27 *739:mem_rdata_i[13] 26.8587 
*END

*D_NET *665 0.381025
*CONN
*I *739:mem_rdata_i[14] I *D ntt_wb_bridge
*I *740:mem_rdata[14] O *D ntt_engine_256
*CAP
1 *739:mem_rdata_i[14] 4.82634e-05
2 *740:mem_rdata[14] 0.00153742
3 *665:59 0.0285721
4 *665:57 0.0438864
5 *665:11 0.0584769
6 *665:9 0.0446518
7 *665:11 *686:11 0.139787
8 *665:57 *666:15 0
9 *665:57 *669:21 0.00172693
10 *665:57 *669:63 0.000758149
11 *665:57 *672:25 0.00336281
12 *665:57 *672:27 0.000278395
13 *665:57 *679:45 5.71348e-05
14 *665:57 *686:73 0.000644548
15 *665:57 *700:11 0.00134084
16 *665:57 *721:141 4.02901e-05
17 *665:57 *723:95 0
18 *665:59 *694:101 0
19 *665:59 *731:47 4.95724e-05
20 la_data_out[115] *665:57 0.000501323
21 *75:17 *665:57 0.00217394
22 *76:91 *665:11 0
23 *77:137 *665:57 0
24 *77:145 *665:57 5.56205e-06
25 *104:23 *665:57 0
26 *115:137 *665:11 0.0531256
*RES
1 *740:mem_rdata[14] *665:9 3.8288 
2 *665:9 *665:11 1563.26 
3 *665:11 *665:57 47.4767 
4 *665:57 *665:59 73.9201 
5 *665:59 *739:mem_rdata_i[14] 0.0620667 
*END

*D_NET *666 0.168144
*CONN
*I *739:mem_rdata_i[15] I *D ntt_wb_bridge
*I *740:mem_rdata[15] O *D ntt_engine_256
*CAP
1 *739:mem_rdata_i[15] 5.01734e-05
2 *740:mem_rdata[15] 0.000360524
3 *666:15 0.0344476
4 *666:13 0.0343975
5 *666:11 0.0229035
6 *666:9 0.023264
7 *666:11 *721:141 0.000454328
8 *666:15 *694:101 0
9 *666:15 *723:95 0.00115289
10 *363:65 *666:15 4.02448e-06
11 *654:11 *666:9 0.000318057
12 *654:11 *666:11 0.0507909
13 *665:57 *666:15 0
*RES
1 *740:mem_rdata[15] *666:9 1.14727 
2 *666:9 *666:11 93.062 
3 *666:11 *666:13 0.5 
4 *666:13 *666:15 83.7089 
5 *666:15 *739:mem_rdata_i[15] 0.0620667 
*END

*D_NET *667 0.587712
*CONN
*I *739:mem_rdata_i[16] I *D ntt_wb_bridge
*I *740:mem_rdata[16] O *D ntt_engine_256
*CAP
1 *739:mem_rdata_i[16] 0.00696143
2 *740:mem_rdata[16] 0.000530458
3 *667:43 0.0132113
4 *667:41 0.0118515
5 *667:33 0.00729898
6 *667:23 0.00706161
7 *667:21 0.00536432
8 *667:19 0.0599158
9 *667:17 0.0599596
10 *667:15 0.00151688
11 *667:13 0.00147309
12 *667:11 0.0103993
13 *667:9 0.0109297
14 *667:11 *740:mem_wdata[31] 8.19515e-05
15 *667:11 *679:11 0.057644
16 *667:11 *682:11 0.0577924
17 *667:15 *679:21 0
18 *667:15 *714:139 0.00320321
19 *667:19 *673:23 0
20 *667:19 *714:139 0
21 *667:19 *723:131 4.36573e-06
22 *667:23 *673:27 0
23 *667:23 *703:15 0.0338626
24 *667:23 *708:17 0.032275
25 *667:23 *715:63 0.00560526
26 *667:33 *740:mem_re 0.0032685
27 *667:33 *740:mem_wdata[11] 0.000948109
28 *667:33 *699:15 0.00109953
29 *667:43 *684:15 0.00300672
30 *77:155 *667:19 0
31 *278:23 *667:41 0.00132746
32 *298:31 *667:41 0.00113162
33 *301:23 *667:41 0.00243348
34 *393:23 *667:41 0.00104216
35 *395:23 *667:41 0.00112871
36 *397:25 *667:41 0.00122437
37 *653:21 *667:15 6.02846e-05
38 *654:11 *667:19 0.0162343
39 *663:29 *667:15 0.000798474
40 *663:31 *667:15 0.00209682
41 *663:31 *667:19 0.155619
42 *663:35 *667:23 0.00719811
43 *663:45 *667:33 0.000725659
44 *663:55 *667:41 0.00142539
45 *663:81 *667:43 0
*RES
1 *740:mem_rdata[16] *667:9 9.35 
2 *667:9 *667:11 88.1372 
3 *667:11 *667:13 0.5 
4 *667:13 *667:15 65.295 
5 *667:15 *667:17 0.795 
6 *667:17 *667:19 1741.33 
7 *667:19 *667:21 0.5 
8 *667:21 *667:23 50.0891 
9 *667:23 *667:33 17.0863 
10 *667:33 *667:41 44.5335 
11 *667:41 *667:43 125.565 
12 *667:43 *739:mem_rdata_i[16] 17.2352 
*END

*D_NET *668 0.247471
*CONN
*I *739:mem_rdata_i[17] I *D ntt_wb_bridge
*I *740:mem_rdata[17] O *D ntt_engine_256
*CAP
1 *739:mem_rdata_i[17] 0.00221195
2 *740:mem_rdata[17] 0.00135923
3 *668:19 0.00567555
4 *668:17 0.0034636
5 *668:15 0.0163481
6 *668:13 0.0177073
7 *668:13 *695:31 2.38557e-05
8 *668:13 *696:23 0.00297107
9 *668:13 *727:31 0.00167057
10 *668:15 *677:27 0
11 *668:15 *696:23 0.00320505
12 *668:15 *697:15 0.0892788
13 *668:15 *722:15 0.000274737
14 *668:15 *727:31 0.0651481
15 *668:15 *734:37 0
16 *668:19 *675:31 0.00913473
17 *668:19 *677:29 0.000195235
18 *668:19 *699:11 0.00250662
19 *105:19 *668:19 0
20 *361:15 *668:15 0.000164409
21 *361:19 *668:19 0.000226132
22 *367:15 *668:15 0.0134732
23 *376:27 *668:19 1.07797e-05
24 *379:27 *668:19 0.0124221
*RES
1 *740:mem_rdata[17] *668:13 16.6263 
2 *668:13 *668:15 144.452 
3 *668:15 *668:17 0.5 
4 *668:17 *668:19 150.555 
5 *668:19 *739:mem_rdata_i[17] 4.76613 
*END

*D_NET *669 0.292498
*CONN
*I *739:mem_rdata_i[18] I *D ntt_wb_bridge
*I *740:mem_rdata[18] O *D ntt_engine_256
*CAP
1 *739:mem_rdata_i[18] 4.82634e-05
2 *740:mem_rdata[18] 0.00376117
3 *669:65 0.0297667
4 *669:63 0.0430032
5 *669:21 0.0619487
6 *669:19 0.0524251
7 *669:19 *682:15 0.000725949
8 *669:21 *680:11 0.0623672
9 *669:63 *672:25 0
10 *669:63 *672:27 0.00164721
11 *669:63 *680:37 0
12 *669:63 *681:25 0
13 *669:63 *686:73 0.000503549
14 la_data_out[116] *669:63 0.00119366
15 la_data_out[117] *669:63 0.000377216
16 *76:47 *669:65 0.00223087
17 *77:153 *669:63 0
18 *78:107 *669:65 0
19 *104:23 *669:21 0.0270406
20 *112:69 *669:19 0.000215324
21 *291:19 *669:63 0.00120143
22 *295:15 *669:63 0
23 *296:19 *669:63 0.000372013
24 *298:31 *669:63 0
25 *652:83 *669:63 0.000204807
26 *658:131 *669:19 0.000641603
27 *659:93 *669:63 0.000338557
28 *659:111 *669:21 0
29 *665:57 *669:21 0.00172693
30 *665:57 *669:63 0.000758149
*RES
1 *740:mem_rdata[18] *669:19 9.9322 
2 *669:19 *669:21 223.899 
3 *669:21 *669:63 34.2344 
4 *669:63 *669:65 76.4839 
5 *669:65 *739:mem_rdata_i[18] 0.0620667 
*END

*D_NET *670 0.038155
*CONN
*I *739:mem_rdata_i[19] I *D ntt_wb_bridge
*I *740:mem_rdata[19] O *D ntt_engine_256
*CAP
1 *739:mem_rdata_i[19] 0.0066601
2 *740:mem_rdata[19] 0.0013239
3 *670:15 0.0119574
4 *670:13 0.00662117
5 *670:13 *674:15 0.000439678
6 *670:13 *698:11 0.00017375
7 *670:15 *673:45 0
8 *530:19 *670:15 0.010376
9 *651:15 *670:13 0.000603053
10 *663:81 *670:15 0
*RES
1 *740:mem_rdata[19] *670:13 17.8333 
2 *670:13 *670:15 136.275 
3 *670:15 *739:mem_rdata_i[19] 16.4195 
*END

*D_NET *671 0.556918
*CONN
*I *739:mem_rdata_i[1] I *D ntt_wb_bridge
*I *740:mem_rdata[1] O *D ntt_engine_256
*CAP
1 *739:mem_rdata_i[1] 4.06341e-05
2 *740:mem_rdata[1] 0.00689442
3 *671:21 0.0353744
4 *671:19 0.0353338
5 *671:17 0.0292708
6 *671:15 0.0361652
7 *671:15 *685:21 0.00346311
8 *671:15 *714:145 0.000103519
9 *671:15 *714:147 0.00733529
10 *671:15 *715:93 0
11 *671:15 *732:15 0.0178863
12 *671:17 *681:13 0.00938008
13 *671:21 *694:77 0.000192129
14 *75:17 *671:17 0
15 *76:31 *671:21 0.00202786
16 *78:71 *671:21 0
17 *78:129 *671:17 0.160395
18 *104:23 *671:17 0.00543176
19 *142:19 *671:17 0.0136616
20 *360:77 *671:21 0
21 *646:19 *671:15 0.00366764
22 *648:21 *671:15 0.00123423
23 *653:11 *671:17 0.184403
24 *653:21 *671:15 1.35034e-05
25 *655:41 *671:21 5.60659e-05
26 *658:135 *671:15 0.00346311
27 *659:111 *671:17 0.00112474
*RES
1 *740:mem_rdata[1] *671:15 34.3576 
2 *671:15 *671:17 2063.05 
3 *671:17 *671:19 0.5 
4 *671:19 *671:21 85.6026 
5 *671:21 *739:mem_rdata_i[1] 0.0620667 
*END

*D_NET *672 0.142049
*CONN
*I *739:mem_rdata_i[20] I *D ntt_wb_bridge
*I *740:mem_rdata[20] O *D ntt_engine_256
*CAP
1 *739:mem_rdata_i[20] 4.82634e-05
2 *740:mem_rdata[20] 0.00626151
3 *672:27 0.0313867
4 *672:25 0.0396401
5 *672:21 0.0145631
6 *672:21 *740:mem_wdata[13] 0.0116327
7 *672:21 *740:mem_wdata[16] 0
8 *672:21 *685:51 0
9 *672:21 *690:11 0.000515647
10 *672:21 *700:11 0.00286479
11 *672:21 *705:11 0.00240523
12 *672:21 *705:19 0.0010005
13 *672:21 *724:11 0.00139482
14 *672:25 *680:37 2.86991e-05
15 *672:25 *681:23 0.00810119
16 *672:25 *694:161 0.000251715
17 *672:25 *700:11 0.000585619
18 *672:25 *721:133 0.000116216
19 *672:27 *714:69 0.000700628
20 *672:27 *721:85 0
21 *77:147 *672:25 0.00139416
22 *78:111 *672:27 0.00139644
23 *112:33 *672:25 0.00128141
24 *112:67 *672:21 0.0020606
25 *112:67 *672:25 0.00134898
26 *115:111 *672:27 0.000774342
27 *654:11 *672:21 0.000262458
28 *655:99 *672:27 0
29 *659:109 *672:25 0
30 *659:111 *672:21 0.00674443
31 *665:57 *672:25 0.00336281
32 *665:57 *672:27 0.000278395
33 *669:63 *672:25 0
34 *669:63 *672:27 0.00164721
*RES
1 *740:mem_rdata[20] *672:21 36.6487 
2 *672:21 *672:25 31.1837 
3 *672:25 *672:27 83.0097 
4 *672:27 *739:mem_rdata_i[20] 0.0620667 
*END

*D_NET *673 0.579623
*CONN
*I *739:mem_rdata_i[21] I *D ntt_wb_bridge
*I *740:mem_rdata[21] O *D ntt_engine_256
*CAP
1 *739:mem_rdata_i[21] 0.00732367
2 *740:mem_rdata[21] 0.000407526
3 *673:47 0.0119593
4 *673:45 0.00779907
5 *673:27 0.0257565
6 *673:25 0.0225931
7 *673:23 0.00808596
8 *673:21 0.00836698
9 *673:15 0.049272
10 *673:13 0.048991
11 *673:11 0.0135326
12 *673:9 0.0139401
13 *673:11 *682:11 0.0048267
14 *673:11 *685:13 0.00853003
15 *673:11 *685:21 0.0010882
16 *673:11 *714:147 0.00108598
17 *673:11 *715:95 0.0766305
18 *673:11 *732:15 0.0428092
19 *673:15 *674:11 0.00357188
20 *673:15 *682:15 0
21 *673:15 *682:23 0.0130391
22 *673:15 *685:37 0.0130479
23 *673:15 *714:139 0
24 *673:15 *715:83 0.123026
25 *673:21 *740:mem_wdata[13] 0
26 *673:23 *714:123 0.00903729
27 *673:23 *714:139 4.09447e-05
28 *673:27 *680:37 0
29 *673:27 *703:15 0
30 *673:27 *708:17 0
31 *673:45 *740:mem_re 2.98248e-06
32 *673:45 *684:13 0.000181491
33 *673:45 *699:15 0.000482128
34 la_data_out[84] *739:mem_rdata_i[21] 0
35 la_data_out[86] *673:47 0
36 *77:155 *673:23 0.012394
37 *78:127 *673:27 0.0118929
38 *102:27 *673:45 0
39 *386:25 *673:45 0.000313417
40 *646:35 *673:15 0
41 *653:21 *673:11 0.000437404
42 *658:121 *673:27 0
43 *658:123 *673:15 0
44 *658:123 *673:23 0.0104778
45 *658:135 *673:11 0.0051515
46 *660:11 *673:45 0.000219402
47 *660:15 *673:45 0
48 *663:11 *673:11 0.0197843
49 *663:19 *673:11 0.00352374
50 *667:19 *673:23 0
51 *667:23 *673:27 0
52 *670:15 *673:45 0
*RES
1 *740:mem_rdata[21] *673:9 7.475 
2 *673:9 *673:11 126.302 
3 *673:11 *673:13 0.5 
4 *673:13 *673:15 1497.46 
5 *673:15 *673:21 1.44587 
6 *673:21 *673:23 303.045 
7 *673:23 *673:25 0.5 
8 *673:25 *673:27 66.5494 
9 *673:27 *673:45 23.2611 
10 *673:45 *673:47 80.685 
11 *673:47 *739:mem_rdata_i[21] 49.1982 
*END

*D_NET *674 0.395864
*CONN
*I *739:mem_rdata_i[22] I *D ntt_wb_bridge
*I *740:mem_rdata[22] O *D ntt_engine_256
*CAP
1 *739:mem_rdata_i[22] 0.00756715
2 *740:mem_rdata[22] 0.000783355
3 *674:15 0.0260012
4 *674:13 0.0184341
5 *674:11 0.0268165
6 *674:9 0.0275999
7 *739:mem_rdata_i[22] *739:mem_rdata_i[8] 0.0104368
8 *674:11 *682:15 0.0192441
9 *674:11 *682:23 7.62193e-06
10 *674:11 *686:19 0
11 *674:11 *714:131 0.00862031
12 *674:11 *715:67 0.0114021
13 *674:11 *715:83 0.088531
14 *674:11 *730:19 0.0889296
15 *77:155 *674:11 0
16 *102:27 *674:15 0.0539256
17 *112:69 *674:9 0.000215324
18 *354:25 *674:15 0.000313489
19 *358:25 *674:15 0.000770523
20 *373:21 *739:mem_rdata_i[22] 0.00177736
21 *651:15 *674:15 0
22 *652:121 *674:15 0.000476315
23 *670:13 *674:15 0.000439678
24 *673:15 *674:11 0.00357188
*RES
1 *740:mem_rdata[22] *674:9 1.99213 
2 *674:9 *674:11 1417.4 
3 *674:11 *674:13 0.5 
4 *674:13 *674:15 79.8925 
5 *674:15 *739:mem_rdata_i[22] 25.2655 
*END

*D_NET *675 0.610582
*CONN
*I *739:mem_rdata_i[23] I *D ntt_wb_bridge
*I *740:mem_rdata[23] O *D ntt_engine_256
*CAP
1 *739:mem_rdata_i[23] 0.0022298
2 *740:mem_rdata[23] 0.00118965
3 *675:31 0.00397799
4 *675:29 0.00174819
5 *675:27 0.0297677
6 *675:25 0.0298848
7 *675:19 0.0191619
8 *675:17 0.0190448
9 *675:15 0.0295405
10 *675:13 0.0307302
11 *675:13 *695:39 0.000677269
12 *675:13 *704:39 0.00128787
13 *675:15 *688:11 0.0219528
14 *675:15 *695:35 0.162249
15 *675:19 *676:21 0.000716378
16 *675:19 *676:23 0.0261581
17 *675:19 *725:33 0.000168497
18 *675:27 *676:23 0.00739252
19 *675:27 *687:13 0.00128947
20 *675:31 *677:29 0.00824934
21 *675:31 *699:11 0.00185317
22 *80:217 *675:13 0.000313519
23 *82:25 *675:15 0.000118505
24 *105:19 *675:31 0.000387021
25 *118:185 *675:13 0.000366517
26 *120:17 *675:15 0.0945313
27 *120:23 *675:13 0
28 *353:21 *675:27 0.00572826
29 *364:23 *739:mem_rdata_i[23] 5.24735e-05
30 *372:19 *739:mem_rdata_i[23] 0.000128798
31 *373:17 *675:27 0.00405317
32 *376:23 *675:27 0
33 *379:23 *675:27 0
34 *384:23 *675:27 0
35 *398:23 *675:27 0.00697209
36 *540:185 *675:19 0.000396327
37 *647:11 *675:19 0.0598035
38 *649:9 *675:25 2.67006e-05
39 *649:11 *675:19 0.000103154
40 *649:11 *675:27 0.00386875
41 *661:19 *675:15 0.00013307
42 *662:15 *675:15 0
43 *662:19 *675:19 0.0155968
44 *662:27 *675:27 0.00959712
45 *668:19 *675:31 0.00913473
*RES
1 *740:mem_rdata[23] *675:13 10.2121 
2 *675:13 *675:15 1819.79 
3 *675:15 *675:17 0.5 
4 *675:17 *675:19 128.283 
5 *675:19 *675:25 4.5175 
6 *675:25 *675:27 583.845 
7 *675:27 *675:29 2 
8 *675:29 *675:31 103.89 
9 *675:31 *739:mem_rdata_i[23] 20.6448 
*END

*D_NET *676 0.330479
*CONN
*I *739:mem_rdata_i[24] I *D ntt_wb_bridge
*I *740:mem_rdata[24] O *D ntt_engine_256
*CAP
1 *739:mem_rdata_i[24] 0.00136881
2 *740:mem_rdata[24] 0.00501786
3 *676:35 0.00341209
4 *676:33 0.00204327
5 *676:31 0.00400145
6 *676:29 0.00425424
7 *676:23 0.0237732
8 *676:21 0.0285382
9 *676:21 *710:35 0.00140173
10 *676:21 *725:33 0.00296538
11 *676:21 *726:27 0.00862467
12 *676:21 *736:27 0.00109443
13 *676:23 *725:23 0.112462
14 *676:23 *725:33 0.000598746
15 *676:31 *702:23 0.000578916
16 *676:31 *711:15 0.000112022
17 *676:31 *716:15 8.05167e-05
18 *676:31 *725:15 0.0293009
19 *676:35 *734:19 0.00466272
20 *676:35 *735:11 0.00206395
21 *739:mem_rdata_i[10] *676:35 0.0016051
22 *81:23 *676:21 0.00144759
23 *284:17 *676:35 0.00182474
24 *373:17 *676:23 0.00178261
25 *376:21 *676:31 0.00530694
26 *384:21 *676:31 0.00022595
27 *386:25 *676:31 0.000455104
28 *389:23 *676:31 0.000162976
29 *540:185 *676:21 0.00121946
30 *649:11 *676:23 0.0147184
31 *649:15 *676:35 0.00408246
32 *657:15 *676:31 0.0270263
33 *675:19 *676:21 0.000716378
34 *675:19 *676:23 0.0261581
35 *675:27 *676:23 0.00739252
*RES
1 *740:mem_rdata[24] *676:21 23.3402 
2 *676:21 *676:23 172.07 
3 *676:23 *676:29 6.3025 
4 *676:29 *676:31 270.585 
5 *676:31 *676:33 2 
6 *676:33 *676:35 95.8575 
7 *676:35 *739:mem_rdata_i[24] 3.16253 
*END

*D_NET *677 0.578158
*CONN
*I *739:mem_rdata_i[25] I *D ntt_wb_bridge
*I *740:mem_rdata[25] O *D ntt_engine_256
*CAP
1 *739:mem_rdata_i[25] 0.00218652
2 *740:mem_rdata[25] 0.00156321
3 *677:29 0.00420598
4 *677:27 0.00267913
5 *677:15 0.0229229
6 *677:13 0.0222632
7 *677:11 0.0172135
8 *677:9 0.0187767
9 *677:11 *688:11 0.0802836
10 *677:15 *683:15 0.152847
11 *677:15 *706:15 0.152828
12 *677:27 *739:mem_rdata_i[30] 0
13 *677:27 *699:11 0.000310939
14 *677:27 *703:11 9.9512e-06
15 *677:29 *699:11 0.0014581
16 *105:19 *677:29 0.00490569
17 *118:161 *677:11 0.019767
18 *354:25 *677:27 0.000234182
19 *361:15 *677:27 2.38558e-05
20 *661:11 *677:11 0.0253565
21 *661:19 *677:11 0.00333898
22 *664:11 *677:11 0.0365383
23 *668:15 *677:27 0
24 *668:19 *677:29 0.000195235
25 *675:31 *677:29 0.00824934
*RES
1 *740:mem_rdata[25] *677:9 3.50833 
2 *677:9 *677:11 146.379 
3 *677:11 *677:13 0.5 
4 *677:13 *677:15 226.812 
5 *677:15 *677:27 3.48487 
6 *677:27 *677:29 98.535 
7 *677:29 *739:mem_rdata_i[25] 4.88267 
*END

*D_NET *678 0.227921
*CONN
*I *739:mem_rdata_i[26] I *D ntt_wb_bridge
*I *740:mem_rdata[26] O *D ntt_engine_256
*CAP
1 *739:mem_rdata_i[26] 7.52931e-05
2 *740:mem_rdata[26] 0.00139467
3 *678:23 0.00338735
4 *678:21 0.00331206
5 *678:19 0.0035223
6 *678:17 0.00357982
7 *678:11 0.0141467
8 *678:9 0.0154839
9 *678:11 *702:31 0.00681544
10 *678:11 *711:15 0.0202785
11 *678:11 *716:23 0.0145923
12 *678:11 *733:31 0.0595611
13 *678:19 *702:23 0.00698264
14 *678:19 *711:15 0.00248431
15 *678:23 *687:15 0.00737964
16 *356:31 *678:23 0
17 *357:25 *678:19 0.00328801
18 *373:17 *678:11 0.00117869
19 *379:21 *678:11 0.00579993
20 *386:25 *678:19 0.0141159
21 *657:15 *678:19 0.0258124
22 *657:23 *678:11 0.0147305
*RES
1 *740:mem_rdata[26] *678:9 22.775 
2 *678:9 *678:11 118.028 
3 *678:11 *678:17 3.2425 
4 *678:17 *678:19 233.67 
5 *678:19 *678:21 2 
6 *678:21 *678:23 84.8925 
7 *678:23 *739:mem_rdata_i[26] 0.664667 
*END

*D_NET *679 0.688071
*CONN
*I *739:mem_rdata_i[27] I *D ntt_wb_bridge
*I *740:mem_rdata[27] O *D ntt_engine_256
*CAP
1 *739:mem_rdata_i[27] 0.00350023
2 *740:mem_rdata[27] 0.000462143
3 *679:63 0.00820915
4 *679:61 0.00631242
5 *679:47 0.00872138
6 *679:45 0.00889826
7 *679:39 0.0375588
8 *679:37 0.0365321
9 *679:31 0.00259935
10 *679:29 0.00223753
11 *679:23 0.0130743
12 *679:21 0.0133715
13 *679:11 0.0280485
14 *679:9 0.0278215
15 *679:11 *740:mem_wdata[31] 0.00787422
16 *679:11 *682:11 0.00585862
17 *679:11 *685:13 0.00206649
18 *679:21 *740:mem_slot[1] 0.000257962
19 *679:21 *715:93 0.000316025
20 *679:23 *685:29 0.0329319
21 *679:45 *686:17 0.00155951
22 *679:45 *690:17 0.00253542
23 *679:45 *699:15 0.000746718
24 *679:45 *721:141 0.000110734
25 *679:47 *690:17 0.001983
26 *679:47 *690:19 0.0437353
27 *679:47 *699:15 0.0485133
28 *679:63 *695:19 0
29 *69:21 *679:39 0.024691
30 *74:17 *679:23 0
31 *78:129 *679:31 0.0120019
32 *78:151 *679:21 5.15446e-05
33 *102:27 *679:61 0.000416612
34 *103:17 *679:39 0.021067
35 *114:145 *679:39 6.17319e-05
36 *115:145 *679:31 0.0119996
37 *398:23 *679:61 0.000136666
38 *646:11 *679:11 0.0665613
39 *646:57 *679:61 0.000127963
40 *648:21 *679:21 0.000332013
41 *653:21 *679:21 1.37635e-05
42 *655:131 *679:39 0.11639
43 *658:145 *679:11 0.030569
44 *659:109 *679:45 8.47787e-05
45 *663:29 *679:21 2.88544e-05
46 *665:57 *679:45 5.71348e-05
47 *667:11 *679:11 0.057644
48 *667:15 *679:21 0
*RES
1 *740:mem_rdata[27] *679:9 8.48 
2 *679:9 *679:11 163.593 
3 *679:11 *679:21 8.53487 
4 *679:21 *679:23 368.325 
5 *679:23 *679:29 1.85373 
6 *679:29 *679:31 134.235 
7 *679:31 *679:37 2.6112 
8 *679:37 *679:39 1303.16 
9 *679:39 *679:45 7.01193 
10 *679:45 *679:47 71.6769 
11 *679:47 *679:61 16.8858 
12 *679:61 *679:63 81.705 
13 *679:63 *739:mem_rdata_i[27] 7.6212 
*END

*D_NET *680 0.375348
*CONN
*I *739:mem_rdata_i[28] I *D ntt_wb_bridge
*I *740:mem_rdata[28] O *D ntt_engine_256
*CAP
1 *739:mem_rdata_i[28] 4.82634e-05
2 *740:mem_rdata[28] 0.00133459
3 *680:39 0.0307712
4 *680:37 0.0382385
5 *680:11 0.0677118
6 *680:9 0.0615308
7 *680:11 *694:167 0.0241232
8 *680:11 *720:11 0.0241232
9 *680:11 *721:143 0.0269915
10 *680:37 *681:23 0.00505117
11 *680:37 *700:11 0.00188781
12 *680:37 *721:141 0
13 *680:39 *721:117 0
14 *75:17 *680:11 0.0269744
15 *78:127 *680:37 0
16 *112:67 *680:37 0.000364015
17 *655:121 *680:37 0.00269282
18 *659:93 *680:37 0
19 *659:93 *680:39 0
20 *659:109 *680:37 0.00110873
21 *669:21 *680:11 0.0623672
22 *669:63 *680:37 0
23 *672:25 *680:37 2.86991e-05
24 *673:27 *680:37 0
*RES
1 *740:mem_rdata[28] *680:9 3.36647 
2 *680:9 *680:11 196.853 
3 *680:11 *680:37 26.8269 
4 *680:37 *680:39 79.2807 
5 *680:39 *739:mem_rdata_i[28] 0.0620667 
*END

*D_NET *681 0.214892
*CONN
*I *739:mem_rdata_i[29] I *D ntt_wb_bridge
*I *740:mem_rdata[29] O *D ntt_engine_256
*CAP
1 *739:mem_rdata_i[29] 4.82634e-05
2 *740:mem_rdata[29] 0.00112695
3 *681:25 0.0307977
4 *681:23 0.0337078
5 *681:13 0.0112875
6 *681:11 0.00945609
7 *681:11 *682:21 0.000198006
8 *681:23 *700:11 0.00175778
9 *681:23 *708:17 0.00106901
10 *681:23 *721:141 1.33725e-05
11 *681:25 *694:125 0.000908845
12 *681:25 *721:117 7.5359e-05
13 *78:127 *681:25 0.00472655
14 *78:129 *681:13 0.0104887
15 *104:23 *681:13 0.0422722
16 *652:121 *681:23 0.000105534
17 *652:123 *681:13 0.0422722
18 *655:99 *681:25 0.00204747
19 *659:93 *681:25 0
20 *669:63 *681:25 0
21 *671:17 *681:13 0.00938008
22 *672:25 *681:23 0.00810119
23 *680:37 *681:23 0.00505117
*RES
1 *740:mem_rdata[29] *681:11 2.70527 
2 *681:11 *681:13 77.2135 
3 *681:13 *681:23 19.0104 
4 *681:23 *681:25 83.1263 
5 *681:25 *739:mem_rdata_i[29] 0.0620667 
*END

*D_NET *682 0.644937
*CONN
*I *739:mem_rdata_i[2] I *D ntt_wb_bridge
*I *740:mem_rdata[2] O *D ntt_engine_256
*CAP
1 *739:mem_rdata_i[2] 0.00377026
2 *740:mem_rdata[2] 0.00048534
3 *682:105 0.00535773
4 *682:101 0.00407312
5 *682:97 0.00320778
6 *682:93 0.00312874
7 *682:87 0.0052898
8 *682:85 0.00485758
9 *682:81 0.00348613
10 *682:73 0.00311863
11 *682:65 0.00314813
12 *682:59 0.00566783
13 *682:57 0.0061532
14 *682:53 0.0036363
15 *682:43 0.00518786
16 *682:41 0.00357817
17 *682:39 0.0024169
18 *682:37 0.00263166
19 *682:31 0.00129905
20 *682:29 0.00122503
21 *682:23 0.00714639
22 *682:21 0.0071499
23 *682:15 0.0238047
24 *682:13 0.0236605
25 *682:11 0.0130506
26 *682:9 0.0135359
27 *682:11 *740:mem_wdata[31] 0.000186607
28 *682:11 *715:95 0.0683474
29 *682:15 *740:mem_wdata[5] 1.79536e-05
30 *682:15 *685:45 0.00547046
31 *682:15 *699:19 0.0213159
32 *682:15 *708:19 0.000507088
33 *682:15 *715:83 0.0136098
34 *682:15 *730:19 0.0495341
35 *682:23 *714:131 0.0142816
36 *682:23 *715:75 0.0205873
37 *682:29 *740:mem_wdata[6] 0.000199542
38 *682:31 *699:19 0.00694349
39 *682:31 *724:11 0.00143241
40 *682:31 *730:19 0.00694349
41 *682:37 *740:mem_wdata[16] 0.000305366
42 *682:39 *685:57 0
43 *682:39 *685:63 3.98218e-05
44 *682:39 *714:123 0.000253724
45 *682:43 *685:65 4.25093e-05
46 *682:43 *708:17 0.00513773
47 *682:43 *714:119 0.0203762
48 *682:43 *715:63 0.0237304
49 la_data_out[84] *682:105 0
50 la_data_out[93] *682:81 0.000713302
51 *740:mem_addr[4] *682:15 4.01548e-05
52 *274:19 *682:65 0.00393113
53 *363:65 *739:mem_rdata_i[2] 0
54 *364:23 *739:mem_rdata_i[2] 4.64544e-05
55 *372:19 *739:mem_rdata_i[2] 0.000109393
56 *529:19 *682:87 0.00741421
57 *530:19 *682:97 0.00184121
58 *653:21 *682:11 0.000589141
59 *658:123 *682:23 0
60 *658:123 *682:39 0.0050898
61 *658:131 *682:15 0.0981387
62 *658:145 *682:11 0.00600107
63 *667:11 *682:11 0.0577924
64 *669:19 *682:15 0.000725949
65 *673:11 *682:11 0.0048267
66 *673:15 *682:15 0
67 *673:15 *682:23 0.0130391
68 *674:11 *682:15 0.0192441
69 *674:11 *682:23 7.62193e-06
70 *679:11 *682:11 0.00585862
71 *681:11 *682:21 0.000198006
*RES
1 *740:mem_rdata[2] *682:9 8.495 
2 *682:9 *682:11 114.299 
3 *682:11 *682:13 0.5 
4 *682:13 *682:15 1348.04 
5 *682:15 *682:21 1.32933 
6 *682:21 *682:23 315.795 
7 *682:23 *682:29 1.32933 
8 *682:29 *682:31 77.625 
9 *682:31 *682:37 1.50413 
10 *682:37 *682:39 64.2375 
11 *682:39 *682:41 2 
12 *682:41 *682:43 214.695 
13 *682:43 *682:53 32.865 
14 *682:53 *682:57 37.295 
15 *682:57 *682:59 72.21 
16 *682:59 *682:65 48.22 
17 *682:65 *682:73 32.365 
18 *682:73 *682:81 33.07 
19 *682:81 *682:85 35.57 
20 *682:85 *682:87 82.98 
21 *682:87 *682:93 45.505 
22 *682:93 *682:97 22.76 
23 *682:97 *682:101 43.85 
24 *682:101 *682:105 30.665 
25 *682:105 *739:mem_rdata_i[2] 45.2137 
*END

*D_NET *683 0.405857
*CONN
*I *739:mem_rdata_i[30] I *D ntt_wb_bridge
*I *740:mem_rdata[30] O *D ntt_engine_256
*CAP
1 *739:mem_rdata_i[30] 0.00696557
2 *740:mem_rdata[30] 0.0100504
3 *683:15 0.029222
4 *683:13 0.0323068
5 *739:mem_rdata_i[30] *699:11 0
6 *739:mem_rdata_i[30] *733:19 0.000855854
7 *683:13 *688:11 0.0145616
8 *683:13 *736:27 0.000262458
9 *683:15 *709:15 0.000283736
10 *683:15 *718:15 0
11 *102:23 *739:mem_rdata_i[30] 0.00589906
12 *365:23 *739:mem_rdata_i[30] 0.000965523
13 *371:27 *739:mem_rdata_i[30] 0.000855854
14 *650:15 *683:15 0.150781
15 *677:15 *683:15 0.152847
16 *677:27 *739:mem_rdata_i[30] 0
*RES
1 *740:mem_rdata[30] *683:13 30.3423 
2 *683:13 *683:15 225.996 
3 *683:15 *739:mem_rdata_i[30] 17.6098 
*END

*D_NET *684 0.0815143
*CONN
*I *739:mem_rdata_i[31] I *D ntt_wb_bridge
*I *740:mem_rdata[31] O *D ntt_engine_256
*CAP
1 *739:mem_rdata_i[31] 0.00707208
2 *740:mem_rdata[31] 0.000591961
3 *684:15 0.0102126
4 *684:13 0.0088787
5 *684:9 0.00633011
6 *684:9 *685:71 0.000834838
7 *684:13 *740:mem_re 0.000348701
8 *684:13 *740:mem_wdata[11] 0.0171879
9 *684:13 *699:15 0
10 la_data_out[88] *684:15 0
11 *660:11 *684:13 0.0268692
12 *667:43 *684:15 0.00300672
13 *673:45 *684:13 0.000181491
*RES
1 *740:mem_rdata[31] *684:9 11.555 
2 *684:9 *684:13 40.2759 
3 *684:13 *684:15 65.895 
4 *684:15 *739:mem_rdata_i[31] 17.2935 
*END

*D_NET *685 0.710639
*CONN
*I *739:mem_rdata_i[3] I *D ntt_wb_bridge
*I *740:mem_rdata[3] O *D ntt_engine_256
*CAP
1 *739:mem_rdata_i[3] 0.00119311
2 *740:mem_rdata[3] 0.000406356
3 *685:121 0.00670963
4 *685:119 0.00551652
5 *685:117 0.00171267
6 *685:115 0.00171267
7 *685:113 0.0054397
8 *685:111 0.0054397
9 *685:109 0.00259155
10 *685:101 0.00385861
11 *685:99 0.00171003
12 *685:93 0.00315869
13 *685:87 0.00380189
14 *685:83 0.00350466
15 *685:79 0.00422649
16 *685:75 0.00436788
17 *685:71 0.00341698
18 *685:65 0.00671282
19 *685:63 0.00593821
20 *685:57 0.00278756
21 *685:55 0.00277012
22 *685:53 0.00390693
23 *685:51 0.00415187
24 *685:45 0.0323716
25 *685:43 0.0323031
26 *685:37 0.00568355
27 *685:35 0.00566711
28 *685:29 0.026964
29 *685:27 0.0270119
30 *685:21 0.0104804
31 *685:19 0.0102593
32 *685:13 0.0126777
33 *685:11 0.0130322
34 *685:13 *714:155 0.00501483
35 *685:13 *715:95 0.00504411
36 *685:21 *714:145 0.000482743
37 *685:21 *714:147 0.0733404
38 *685:27 *740:mem_slot[1] 2.20732e-05
39 *685:29 *708:19 0.020573
40 *685:45 *740:mem_wdata[13] 0.00421713
41 *685:45 *690:11 0.00692355
42 *685:45 *699:19 0.00969994
43 *685:45 *705:19 0.00303878
44 *685:45 *708:19 0.0099007
45 *685:45 *730:19 0.00528839
46 *685:45 *738:19 0.0110879
47 *685:53 *714:131 0.000894415
48 *685:53 *715:67 0
49 *685:53 *715:75 0.00804494
50 *685:57 *715:67 0.00627922
51 *685:63 *715:67 5.5195e-05
52 *685:65 *708:17 0.00388323
53 *685:65 *714:119 0.0181266
54 *685:65 *715:63 4.57056e-05
55 *685:65 *723:131 0.000491066
56 *685:93 *708:11 0.000277691
57 *685:101 *714:61 0.001872
58 *685:101 *715:43 0.00228753
59 *685:113 *714:53 0.000111677
60 *685:117 *692:11 0.00438374
61 la_data_out[95] *685:109 0
62 la_data_out[96] *685:101 0.00268609
63 la_data_out[99] *685:87 0.00278093
64 *740:clk *685:21 0.000474594
65 *74:17 *685:29 0
66 *102:27 *685:75 0.00211251
67 *114:157 *685:27 0
68 *364:23 *739:mem_rdata_i[3] 2.43524e-05
69 *372:19 *739:mem_rdata_i[3] 6.19052e-05
70 *646:11 *685:13 0
71 *646:35 *685:37 0
72 *658:59 *685:101 0.00256273
73 *658:123 *685:53 0.00739655
74 *658:123 *685:57 0
75 *658:131 *685:29 0.0372598
76 *658:135 *685:21 0.0684478
77 *658:135 *685:27 0.000176462
78 *658:145 *685:13 0.00261508
79 *659:111 *685:45 0
80 *663:11 *685:13 0.0426761
81 *663:11 *685:21 0.0109769
82 *671:15 *685:21 0.00346311
83 *672:21 *685:51 0
84 *673:11 *685:13 0.00853003
85 *673:11 *685:21 0.0010882
86 *673:15 *685:37 0.0130479
87 *679:11 *685:13 0.00206649
88 *679:23 *685:29 0.0329319
89 *682:15 *685:45 0.00547046
90 *682:39 *685:57 0
91 *682:39 *685:63 3.98218e-05
92 *682:43 *685:65 4.25093e-05
93 *684:9 *685:71 0.000834838
*RES
1 *740:mem_rdata[3] *685:11 7.76 
2 *685:11 *685:13 75.7264 
3 *685:13 *685:19 3.2425 
4 *685:19 *685:21 670.785 
5 *685:21 *685:27 7.55 
6 *685:27 *685:29 946.92 
7 *685:29 *685:35 6.865 
8 *685:35 *685:37 150.682 
9 *685:37 *685:43 1.41673 
10 *685:43 *685:45 81.2617 
11 *685:45 *685:51 1.53327 
12 *685:51 *685:53 150.135 
13 *685:53 *685:55 1.14 
14 *685:55 *685:57 72.555 
15 *685:57 *685:63 3.8375 
16 *685:63 *685:65 165.705 
17 *685:65 *685:71 20.935 
18 *685:71 *685:75 45.92 
19 *685:75 *685:79 33.215 
20 *685:79 *685:83 43.16 
21 *685:83 *685:87 33.215 
22 *685:87 *685:93 48.77 
23 *685:93 *685:99 11.35 
24 *685:99 *685:101 72.78 
25 *685:101 *685:109 48.91 
26 *685:109 *685:111 2 
27 *685:111 *685:113 92.91 
28 *685:113 *685:115 2 
29 *685:115 *685:117 49.32 
30 *685:117 *685:119 2 
31 *685:119 *685:121 91.185 
32 *685:121 *739:mem_rdata_i[3] 5.52757 
*END

*D_NET *686 0.444389
*CONN
*I *739:mem_rdata_i[4] I *D ntt_wb_bridge
*I *740:mem_rdata[4] O *D ntt_engine_256
*CAP
1 *739:mem_rdata_i[4] 4.39394e-05
2 *740:mem_rdata[4] 0.00154805
3 *686:79 0.0240791
4 *686:77 0.0283535
5 *686:73 0.0170055
6 *686:19 0.0174587
7 *686:17 0.00555453
8 *686:11 0.025023
9 *686:9 0.0257881
10 *686:11 *694:167 5.05725e-05
11 *686:11 *720:11 6.54818e-05
12 *686:11 *721:143 0.146728
13 *686:17 *699:15 0.000251615
14 *686:19 *730:19 0
15 *686:73 *723:95 0.000370269
16 *686:77 *721:77 0.000582462
17 la_data_out[113] *686:73 0.000452494
18 la_data_out[115] *686:73 0.000226236
19 la_data_out[116] *686:73 0.00161045
20 *77:137 *686:73 0.000731781
21 *77:145 *686:73 0.00223618
22 *77:155 *686:19 0.00304718
23 *112:69 *686:9 0.000215324
24 *115:137 *686:11 9.80351e-05
25 *296:19 *686:73 0.000366815
26 *659:93 *686:73 6.67917e-06
27 *665:11 *686:11 0.139787
28 *665:57 *686:73 0.000644548
29 *669:63 *686:73 0.000503549
30 *674:11 *686:19 0
31 *679:45 *686:17 0.00155951
*RES
1 *740:mem_rdata[4] *686:9 3.85667 
2 *686:9 *686:11 1643.83 
3 *686:11 *686:17 3.42693 
4 *686:17 *686:19 98.025 
5 *686:19 *686:73 39.8482 
6 *686:73 *686:77 12.2816 
7 *686:77 *686:79 61.6841 
8 *686:79 *739:mem_rdata_i[4] 0.0620667 
*END

*D_NET *687 0.0843852
*CONN
*I *739:mem_rdata_i[5] I *D ntt_wb_bridge
*I *740:mem_rdata[5] O *D ntt_engine_256
*CAP
1 *739:mem_rdata_i[5] 0.000381374
2 *740:mem_rdata[5] 0.00129189
3 *687:15 0.00643133
4 *687:13 0.00995873
5 *687:9 0.00520067
6 *687:15 *701:16 0.000338753
7 *687:15 *719:11 0.0188
8 *687:15 *731:47 0.000564001
9 *687:15 *737:32 0.000117824
10 *353:21 *687:13 0.0104592
11 *356:31 *687:15 0
12 *373:17 *687:13 0.0211995
13 *649:11 *687:13 0.000972822
14 *662:25 *687:9 0
15 *675:27 *687:13 0.00128947
16 *678:23 *687:15 0.00737964
*RES
1 *740:mem_rdata[5] *687:9 20.735 
2 *687:9 *687:13 31.8855 
3 *687:13 *687:15 213.795 
4 *687:15 *739:mem_rdata_i[5] 1.16627 
*END

*D_NET *688 0.624376
*CONN
*I *739:mem_rdata_i[6] I *D ntt_wb_bridge
*I *740:mem_rdata[6] O *D ntt_engine_256
*CAP
1 *739:mem_rdata_i[6] 0.00295631
2 *740:mem_rdata[6] 0.00144896
3 *688:27 0.00649056
4 *688:25 0.00353425
5 *688:23 0.00273687
6 *688:21 0.00294921
7 *688:15 0.0197328
8 *688:13 0.0195205
9 *688:11 0.0398129
10 *688:9 0.0412619
11 *739:mem_rdata_i[6] *709:11 0.000155552
12 *739:mem_rdata_i[6] *726:11 0.000157219
13 *688:11 *695:35 0.0196536
14 *688:23 *710:23 0.0173989
15 *688:27 *706:11 0.0184589
16 *688:27 *707:11 0
17 *93:23 *688:11 0
18 *352:21 *688:23 0.00288149
19 *353:21 *688:23 0.000385589
20 *358:25 *688:21 8.27944e-05
21 *383:25 *688:27 0.0168285
22 *398:17 *688:15 0.000962424
23 *398:23 *688:23 0.000192503
24 *661:11 *688:11 0.00293956
25 *661:19 *688:11 0.000137075
26 *661:23 *688:15 0.133894
27 *661:31 *688:23 0
28 *662:27 *688:23 1.91597e-05
29 *664:11 *688:11 0.000493208
30 *664:15 *688:15 0.1362
31 *664:23 *688:23 0.0162928
32 *675:15 *688:11 0.0219528
33 *677:11 *688:11 0.0802836
34 *683:13 *688:11 0.0145616
*RES
1 *740:mem_rdata[6] *688:9 3.3918 
2 *688:9 *688:11 161.28 
3 *688:11 *688:13 0.5 
4 *688:13 *688:15 201.32 
5 *688:15 *688:21 6.0475 
6 *688:21 *688:23 162.945 
7 *688:23 *688:25 2 
8 *688:25 *688:27 208.185 
9 *688:27 *739:mem_rdata_i[6] 34.3198 
*END

*D_NET *689 0.601907
*CONN
*I *739:mem_rdata_i[7] I *D ntt_wb_bridge
*I *740:mem_rdata[7] O *D ntt_engine_256
*CAP
1 *739:mem_rdata_i[7] 0.00129952
2 *740:mem_rdata[7] 0.000630742
3 *689:35 0.00491915
4 *689:33 0.00361963
5 *689:31 0.0179119
6 *689:29 0.0180025
7 *689:23 0.0110444
8 *689:21 0.0109538
9 *689:19 0.0208381
10 *689:17 0.0208797
11 *689:11 0.0222587
12 *689:9 0.0228479
13 *739:mem_rdata_i[7] *739:mem_rdata_i[8] 0
14 *739:mem_rdata_i[7] *701:12 0.000229581
15 *689:9 *734:49 1.8849e-05
16 *689:11 *702:43 0.00722312
17 *689:11 *706:27 0
18 *689:11 *709:19 0.00168628
19 *689:11 *709:27 0.0507406
20 *689:11 *726:27 0.00406525
21 *689:11 *729:35 0.00393734
22 *689:11 *737:54 0
23 *689:19 *702:35 0.000590051
24 *689:19 *709:19 0.0568992
25 *689:19 *716:27 0.0128487
26 *689:19 *717:27 0.00791178
27 *689:19 *729:27 0.000767024
28 *689:19 *733:35 0
29 *689:23 *729:23 0.060476
30 *689:23 *737:42 0.0599088
31 *689:29 *729:21 0.000280588
32 *689:31 *726:15 7.66388e-05
33 *689:31 *728:15 0
34 *689:31 *729:15 0.0851917
35 *689:31 *737:34 0
36 *689:35 *716:11 0.0169641
37 *689:35 *735:11 0
38 la_data_out[23] *689:29 1.0129e-05
39 *739:done_i *689:35 0.000129814
40 *739:mem_rdata_i[11] *689:35 0.000180299
41 *81:23 *689:19 0
42 *116:137 *689:19 0
43 *300:15 *689:31 3.49355e-05
44 *316:19 *689:31 0
45 *317:15 *689:31 0
46 *335:15 *689:31 0.00524881
47 *336:21 *689:29 0.000101306
48 *338:37 *689:23 0.000190239
49 *339:37 *689:31 0.00106469
50 *340:29 *689:31 0.000746796
51 *345:23 *689:31 0
52 *346:25 *689:31 0.000369489
53 *347:23 *689:31 0.000658646
54 *348:27 *689:31 0.00100304
55 *349:39 *689:29 4.66155e-05
56 *350:19 *689:31 0.0119104
57 *351:15 *689:31 0.000222194
58 *352:9 *689:31 0.000387484
59 *355:17 *689:31 0
60 *357:17 *689:31 0.000535586
61 *360:19 *689:31 0.0360613
62 *362:15 *689:31 0.00862579
63 *364:23 *689:35 0.00935763
64 *656:35 *689:11 0
*RES
1 *740:mem_rdata[7] *689:9 1.76033 
2 *689:9 *689:11 105.379 
3 *689:11 *689:17 1.06713 
4 *689:17 *689:19 658.515 
5 *689:19 *689:21 0.5 
6 *689:21 *689:23 92.2159 
7 *689:23 *689:29 6.0475 
8 *689:29 *689:31 774.285 
9 *689:31 *689:33 2 
10 *689:33 *689:35 191.992 
11 *689:35 *739:mem_rdata_i[7] 2.83827 
*END

*D_NET *690 0.297884
*CONN
*I *739:mem_rdata_i[8] I *D ntt_wb_bridge
*I *740:mem_rdata[8] O *D ntt_engine_256
*CAP
1 *739:mem_rdata_i[8] 0.00900015
2 *740:mem_rdata[8] 0.000809158
3 *690:19 0.0252968
4 *690:17 0.0193175
5 *690:11 0.0207485
6 *690:9 0.0185368
7 *739:mem_rdata_i[8] *703:11 0.0193478
8 *690:11 *740:mem_wdata[13] 0.00367454
9 *690:11 *705:11 0.000927938
10 *690:11 *705:19 0.0393179
11 *690:11 *724:11 0.000948031
12 *690:11 *738:19 0.0694486
13 *690:17 *703:15 0
14 *690:19 *699:15 0.00128403
15 *690:19 *703:15 0
16 *690:19 *706:15 0.00101017
17 *739:mem_rdata_i[22] *739:mem_rdata_i[8] 0.0104368
18 *739:mem_rdata_i[7] *739:mem_rdata_i[8] 0
19 *74:17 *690:11 0
20 *112:67 *690:17 0.000252086
21 *373:21 *739:mem_rdata_i[8] 0.000697564
22 *652:121 *690:17 0.00070964
23 *659:109 *690:17 0.000427488
24 *672:21 *690:11 0.000515647
25 *679:45 *690:17 0.00253542
26 *679:47 *690:17 0.001983
27 *679:47 *690:19 0.0437353
28 *685:45 *690:11 0.00692355
*RES
1 *740:mem_rdata[8] *690:9 2.08333 
2 *690:9 *690:11 777.345 
3 *690:11 *690:17 11.7315 
4 *690:17 *690:19 69.3753 
5 *690:19 *739:mem_rdata_i[8] 41.4282 
*END

*D_NET *691 0.710929
*CONN
*I *739:mem_rdata_i[9] I *D ntt_wb_bridge
*I *740:mem_rdata[9] O *D ntt_engine_256
*CAP
1 *739:mem_rdata_i[9] 0.000943559
2 *740:mem_rdata[9] 0.0003211
3 *691:27 0.00488936
4 *691:25 0.0039458
5 *691:23 0.0529504
6 *691:21 0.0529504
7 *691:19 0.0123608
8 *691:17 0.0124373
9 *691:11 0.032637
10 *691:9 0.0328815
11 *691:11 *702:43 0.0086356
12 *691:11 *704:35 0.0210524
13 *691:11 *709:27 0.058572
14 *691:11 *710:35 0.00679753
15 *691:11 *717:35 0.0365016
16 *691:11 *733:35 0.0217991
17 *691:17 *740:mem_wdata[8] 2.22315e-05
18 *691:19 *702:35 0.0700658
19 *691:19 *709:19 0.0633802
20 *691:19 *709:27 0.00308538
21 *691:19 *726:27 0.0161514
22 *691:23 *709:15 0
23 *691:23 *718:15 0.150213
24 *691:27 *702:11 0.000522859
25 *691:27 *709:11 0.0182115
26 *691:27 *717:11 0.000297361
27 *691:27 *725:11 0.000234307
28 *691:27 *726:11 0.0161016
29 *691:27 *734:27 0
30 *80:187 *691:11 0.00110947
31 *81:23 *691:11 0.010148
32 *116:135 *691:23 0.00136892
33 *540:185 *691:23 0.000340779
*RES
1 *740:mem_rdata[9] *691:9 1.18273 
2 *691:9 *691:11 159.988 
3 *691:11 *691:17 1.1254 
4 *691:17 *691:19 783.975 
5 *691:19 *691:21 0.5 
6 *691:21 *691:23 222.675 
7 *691:23 *691:25 0.5 
8 *691:25 *691:27 210.225 
9 *691:27 *739:mem_rdata_i[9] 2.31893 
*END

*D_NET *692 0.0944918
*CONN
*I *740:mem_re I *D ntt_engine_256
*I *739:mem_re_o O *D ntt_wb_bridge
*CAP
1 *740:mem_re 0.00332031
2 *739:mem_re_o 0.0069893
3 *692:11 0.031845
4 *692:9 0.035514
5 *740:mem_re *740:mem_wdata[11] 0.00862819
6 *740:mem_re *699:15 0
7 la_data_out[88] *692:11 0
8 *78:47 *692:9 0
9 *114:35 *692:11 0.000191085
10 *667:33 *740:mem_re 0.0032685
11 *673:45 *740:mem_re 2.98248e-06
12 *684:13 *740:mem_re 0.000348701
13 *685:117 *692:11 0.00438374
*RES
1 *739:mem_re_o *692:9 18.1092 
2 *692:9 *692:11 532.035 
3 *692:11 *740:mem_re 24.4207 
*END

*D_NET *693 0.108163
*CONN
*I *740:mem_slot[0] I *D ntt_engine_256
*I *739:mem_slot_o[0] O *D ntt_wb_bridge
*CAP
1 *740:mem_slot[0] 0.00179958
2 *739:mem_slot_o[0] 0.000188879
3 *693:11 0.0210493
4 *693:9 0.0194386
5 *740:mem_slot[0] *740:slot_b[1] 0.00221289
6 *693:9 *737:8 0.000262458
7 *693:11 *696:11 0.0393931
8 *693:11 *737:8 0.00926693
9 *693:11 *737:32 0.00801038
10 *76:19 *693:11 0
11 *79:23 *693:11 0.000967696
12 *278:21 *693:11 0.000164467
13 *358:25 *740:mem_slot[0] 0.0038366
14 *363:65 *693:11 0.000574257
15 *398:21 *740:mem_slot[0] 0
16 *531:21 *693:11 0.000187125
17 *661:31 *740:mem_slot[0] 0.000811214
*RES
1 *739:mem_slot_o[0] *693:9 0.973733 
2 *693:9 *693:11 510.615 
3 *693:11 *740:mem_slot[0] 23.8649 
*END

*D_NET *694 0.535443
*CONN
*I *740:mem_slot[1] I *D ntt_engine_256
*I *739:mem_slot_o[1] O *D ntt_wb_bridge
*CAP
1 *740:mem_slot[1] 0.00104185
2 *739:mem_slot_o[1] 2.1597e-05
3 *694:167 0.0260855
4 *694:165 0.0260158
5 *694:161 0.00342389
6 *694:141 0.0059219
7 *694:125 0.0061666
8 *694:109 0.00560848
9 *694:101 0.00620818
10 *694:79 0.00632985
11 *694:77 0.00503611
12 *694:69 0.00480254
13 *694:61 0.00497606
14 *694:47 0.00571391
15 *694:45 0.00572342
16 *694:37 0.00552839
17 *694:25 0.00656986
18 *694:17 0.00496882
19 *694:7 0.0214331
20 *694:5 0.0197127
21 *694:37 *721:17 0
22 *694:47 *721:45 0
23 *694:61 *705:7 0.000407967
24 *694:61 *721:45 0.000405666
25 *694:69 *723:67 4.21127e-05
26 *694:79 *721:63 0.00177405
27 *694:101 *721:77 0.000462637
28 *694:101 *721:79 0
29 *694:125 *721:117 6.78047e-05
30 *694:125 *723:95 0.000224474
31 *694:141 *721:133 0.000100703
32 *694:167 *720:11 0.161575
33 *694:167 *721:143 0.16072
34 la_data_out[105] *694:25 0
35 la_data_out[114] *694:109 0
36 la_data_out[114] *694:125 0
37 la_data_out[115] *694:141 0
38 la_data_out[116] *694:141 0
39 *112:33 *694:161 0.00105449
40 *114:137 *694:141 0.00134257
41 *114:153 *694:167 0
42 *291:13 *694:161 0.000182763
43 *291:19 *694:161 3.86814e-05
44 *298:31 *694:141 0
45 *298:31 *694:161 0.000797989
46 *646:47 *694:165 0
47 *652:7 *694:17 0.00267493
48 *652:83 *694:79 0.00176511
49 *653:23 *740:mem_slot[1] 4.80285e-05
50 *655:121 *694:161 0.00079585
51 *655:129 *694:165 0.00175469
52 *658:135 *740:mem_slot[1] 0.000681984
53 *659:7 *694:25 0.00119529
54 *659:93 *694:125 9.02177e-07
55 *659:109 *694:161 5.18735e-06
56 *663:29 *740:mem_slot[1] 0.000229043
57 *665:59 *694:101 0
58 *666:15 *694:101 0
59 *671:21 *694:77 0.000192129
60 *672:25 *694:161 0.000251715
61 *679:21 *740:mem_slot[1] 0.000257962
62 *680:11 *694:167 0.0241232
63 *681:25 *694:125 0.000908845
64 *685:27 *740:mem_slot[1] 2.20732e-05
65 *686:11 *694:167 5.05725e-05
*RES
1 *739:mem_slot_o[1] *694:5 0.0620667 
2 *694:5 *694:7 51.167 
3 *694:7 *694:17 18.3551 
4 *694:17 *694:25 47.5229 
5 *694:25 *694:37 32.4859 
6 *694:37 *694:45 28.901 
7 *694:45 *694:47 63.855 
8 *694:47 *694:61 24.547 
9 *694:61 *694:69 42.161 
10 *694:69 *694:77 33.127 
11 *694:77 *694:79 62.325 
12 *694:79 *694:101 37.784 
13 *694:101 *694:109 49.2722 
14 *694:109 *694:125 37.8249 
15 *694:125 *694:141 49.5693 
16 *694:141 *694:161 47.1467 
17 *694:161 *694:165 22.805 
18 *694:165 *694:167 1807.04 
19 *694:167 *740:mem_slot[1] 25.4875 
*END

*D_NET *695 0.828232
*CONN
*I *740:mem_target I *D ntt_engine_256
*I *739:mem_target_o O *D ntt_wb_bridge
*CAP
1 *740:mem_target 0.000334952
2 *739:mem_target_o 0.00300907
3 *695:39 0.00758126
4 *695:37 0.00724631
5 *695:35 0.0272866
6 *695:33 0.0272866
7 *695:31 0.0109893
8 *695:29 0.0111345
9 *695:23 0.0340459
10 *695:21 0.0339006
11 *695:19 0.0182242
12 *695:17 0.0212333
13 *695:17 *734:11 0.000116894
14 *695:19 *707:11 5.15407e-05
15 *695:23 *704:23 0.0900763
16 *695:23 *704:31 0.0016238
17 *695:31 *696:23 0.0199182
18 *695:31 *704:31 0.0199305
19 *695:31 *717:23 0.00735589
20 *695:31 *727:31 0.0171884
21 *695:39 *740:mem_wdata[22] 0.0268021
22 *695:39 *740:slot_a[1] 8.62202e-05
23 *695:39 *704:39 0.0356203
24 *79:23 *695:17 0.000206859
25 *82:25 *695:35 0
26 *118:161 *695:35 0.111611
27 *354:25 *695:23 0.000278162
28 *354:27 *695:19 0.0459715
29 *361:15 *695:23 0.0061715
30 *372:19 *695:17 0.000201712
31 *656:25 *695:31 0
32 *658:25 *695:19 0
33 *661:19 *695:35 0.0009358
34 *662:13 *695:39 0.000385389
35 *662:15 *695:35 0.0212293
36 *664:15 *695:23 0.0373684
37 *664:15 *695:31 0.000226893
38 *668:13 *695:31 2.38557e-05
39 *675:13 *695:39 0.000677269
40 *675:15 *695:35 0.162249
41 *679:63 *695:19 0
42 *688:11 *695:35 0.0196536
*RES
1 *739:mem_target_o *695:17 35.986 
2 *695:17 *695:19 518.01 
3 *695:19 *695:21 2 
4 *695:21 *695:23 896.07 
5 *695:23 *695:29 4.7725 
6 *695:29 *695:31 78.0571 
7 *695:31 *695:33 0.5 
8 *695:33 *695:35 1815.19 
9 *695:35 *695:37 0.5 
10 *695:37 *695:39 54.5173 
11 *695:39 *740:mem_target 6.275 
*END

*D_NET *696 0.391313
*CONN
*I *740:mem_wdata[0] I *D ntt_engine_256
*I *739:mem_wdata_o[0] O *D ntt_wb_bridge
*CAP
1 *740:mem_wdata[0] 0.000641546
2 *739:mem_wdata_o[0] 0.000202314
3 *696:23 0.0148631
4 *696:21 0.0143733
5 *696:15 0.00475657
6 *696:13 0.00460485
7 *696:11 0.00801693
8 *696:9 0.00821924
9 *696:9 *737:8 0.000229581
10 *696:11 *697:11 0.0342866
11 *696:11 *737:8 0.00298838
12 *696:11 *737:32 0.00439559
13 *696:15 *712:15 0.0376114
14 *696:15 *719:15 0.0373125
15 *696:21 *719:21 0
16 *696:23 *697:15 0.0504235
17 *696:23 *717:23 0.0766607
18 *696:23 *719:23 0.000101532
19 *696:23 *722:15 0.0164432
20 *76:19 *696:11 0
21 *79:23 *696:11 0.000383938
22 *363:65 *696:11 0.000334983
23 *367:15 *696:15 0.00897632
24 *668:13 *696:23 0.00297107
25 *668:15 *696:23 0.00320505
26 *693:11 *696:11 0.0393931
27 *695:31 *696:23 0.0199182
*RES
1 *739:mem_wdata_o[0] *696:9 0.973733 
2 *696:9 *696:11 447.247 
3 *696:11 *696:13 2 
4 *696:13 *696:15 339.93 
5 *696:15 *696:21 4.7725 
6 *696:21 *696:23 137.722 
7 *696:23 *740:mem_wdata[0] 10.865 
*END

*D_NET *697 0.286231
*CONN
*I *740:mem_wdata[10] I *D ntt_engine_256
*I *739:mem_wdata_o[10] O *D ntt_wb_bridge
*CAP
1 *740:mem_wdata[10] 0.000714119
2 *739:mem_wdata_o[10] 0.000159125
3 *697:15 0.0132872
4 *697:13 0.0125731
5 *697:11 0.00759012
6 *697:9 0.00774924
7 *697:11 *701:12 0.000540895
8 *697:11 *701:16 0.00234264
9 *697:11 *711:11 0.000203321
10 *697:11 *712:11 0.0266988
11 *697:11 *713:11 8.65135e-05
12 *697:11 *737:8 0.000392883
13 *697:11 *737:32 0.0019076
14 *697:15 *722:15 0.0011068
15 *697:15 *731:55 0.0368895
16 *76:19 *697:11 0
17 *363:71 *697:11 0
18 *668:15 *697:15 0.0892788
19 *696:11 *697:11 0.0342866
20 *696:23 *697:15 0.0504235
*RES
1 *739:mem_wdata_o[10] *697:9 0.8876 
2 *697:9 *697:11 388.215 
3 *697:11 *697:13 0.5 
4 *697:13 *697:15 131.837 
5 *697:15 *740:mem_wdata[10] 12.065 
*END

*D_NET *698 0.0961682
*CONN
*I *740:mem_wdata[11] I *D ntt_engine_256
*I *739:mem_wdata_o[11] O *D ntt_wb_bridge
*CAP
1 *740:mem_wdata[11] 0.00464775
2 *739:mem_wdata_o[11] 0.00783466
3 *698:11 0.0253694
4 *698:9 0.0285563
5 *740:mem_wdata[11] *699:15 0
6 *740:mem_re *740:mem_wdata[11] 0.00862819
7 *658:45 *698:11 0.00282209
8 *667:33 *740:mem_wdata[11] 0.000948109
9 *670:13 *698:11 0.00017375
10 *684:13 *740:mem_wdata[11] 0.0171879
*RES
1 *739:mem_wdata_o[11] *698:9 18.9832 
2 *698:9 *698:11 384.645 
3 *698:11 *740:mem_wdata[11] 36.9873 
*END

*D_NET *699 0.363174
*CONN
*I *740:mem_wdata[12] I *D ntt_engine_256
*I *739:mem_wdata_o[12] O *D ntt_wb_bridge
*CAP
1 *740:mem_wdata[12] 0.000633857
2 *739:mem_wdata_o[12] 0.00208155
3 *699:19 0.0114373
4 *699:17 0.0108034
5 *699:15 0.0187311
6 *699:13 0.0187311
7 *699:11 0.018582
8 *699:9 0.0206635
9 *699:11 *703:11 0.0328189
10 *699:15 *706:15 0.00115376
11 *699:15 *723:131 0.000517935
12 *699:15 *738:17 1.33276e-06
13 *699:19 *740:mem_wdata[13] 0.00112678
14 *699:19 *740:mem_wdata[16] 0.00123333
15 *699:19 *708:19 0.0621769
16 *699:19 *724:11 0.00154717
17 *699:19 *730:19 0.0199862
18 *699:19 *738:19 0.000274326
19 *739:mem_rdata_i[30] *699:11 0
20 *740:mem_re *699:15 0
21 *740:mem_wdata[11] *699:15 0
22 *102:23 *699:11 0
23 *105:19 *699:11 0.00810629
24 *105:23 *699:15 0.0221085
25 *361:19 *699:11 0.00363068
26 *376:27 *699:11 0.00363068
27 *379:27 *699:11 0.00673207
28 *651:15 *699:15 0
29 *660:11 *699:15 0
30 *667:33 *699:15 0.00109953
31 *668:19 *699:11 0.00250662
32 *673:45 *699:15 0.000482128
33 *675:31 *699:11 0.00185317
34 *677:27 *699:11 0.000310939
35 *677:29 *699:11 0.0014581
36 *679:45 *699:15 0.000746718
37 *679:47 *699:15 0.0485133
38 *682:15 *699:19 0.0213159
39 *682:31 *699:19 0.00694349
40 *684:13 *699:15 0
41 *685:45 *699:19 0.00969994
42 *686:17 *699:15 0.000251615
43 *690:19 *699:15 0.00128403
*RES
1 *739:mem_wdata_o[12] *699:9 4.9118 
2 *699:9 *699:11 64.5519 
3 *699:11 *699:13 0.5 
4 *699:13 *699:15 80.4169 
5 *699:15 *699:17 0.5 
6 *699:17 *699:19 701.865 
7 *699:19 *740:mem_wdata[12] 1.73627 
*END

*D_NET *700 0.210567
*CONN
*I *740:mem_wdata[13] I *D ntt_engine_256
*I *739:mem_wdata_o[13] O *D ntt_wb_bridge
*CAP
1 *740:mem_wdata[13] 0.00800661
2 *739:mem_wdata_o[13] 2.35071e-05
3 *700:11 0.0227904
4 *700:9 0.0147838
5 *700:7 0.0335169
6 *700:5 0.0335404
7 *740:mem_wdata[13] *705:17 4.20804e-05
8 *740:mem_wdata[13] *705:19 0.00166949
9 *740:mem_wdata[13] *708:19 0.00156543
10 *740:mem_wdata[13] *724:11 0.00436173
11 *740:mem_wdata[13] *738:19 0.00168218
12 *700:7 *721:33 0.00116898
13 *700:7 *723:67 0.00100587
14 *77:163 *740:mem_wdata[13] 0.00328614
15 *112:67 *700:11 0.00110245
16 *112:69 *700:11 0.00197452
17 *115:87 *700:7 0.000866609
18 *137:17 *700:11 0.00271113
19 *654:11 *700:11 0.0439979
20 *655:129 *700:11 0.000330795
21 *659:111 *740:mem_wdata[13] 0.00305194
22 *665:57 *700:11 0.00134084
23 *672:21 *740:mem_wdata[13] 0.0116327
24 *672:21 *700:11 0.00286479
25 *672:25 *700:11 0.000585619
26 *673:21 *740:mem_wdata[13] 0
27 *680:37 *700:11 0.00188781
28 *681:23 *700:11 0.00175778
29 *685:45 *740:mem_wdata[13] 0.00421713
30 *690:11 *740:mem_wdata[13] 0.00367454
31 *699:19 *740:mem_wdata[13] 0.00112678
*RES
1 *739:mem_wdata_o[13] *700:5 0.0620667 
2 *700:5 *700:7 83.4759 
3 *700:7 *700:9 0.5 
4 *700:9 *700:11 80.7449 
5 *700:11 *740:mem_wdata[13] 39.4734 
*END

*D_NET *701 0.361195
*CONN
*I *740:mem_wdata[14] I *D ntt_engine_256
*I *739:mem_wdata_o[14] O *D ntt_wb_bridge
*CAP
1 *740:mem_wdata[14] 0.00143771
2 *739:mem_wdata_o[14] 0.0131539
3 *701:22 0.00960525
4 *701:20 0.00816754
5 *701:18 0.0377074
6 *701:16 0.0464785
7 *701:12 0.021925
8 *740:mem_wdata[14] *740:mem_wdata[7] 0.000714166
9 *740:mem_wdata[14] *706:27 1.86715e-05
10 *740:mem_wdata[14] *729:35 0.0010758
11 *701:12 *702:9 0.000215324
12 *701:12 *709:9 0.000215324
13 *701:12 *711:11 0.0015045
14 *701:12 *712:11 0.00046304
15 *701:12 *713:11 0.00182131
16 *701:12 *719:11 0.00121213
17 *701:12 *737:8 0.00841585
18 *701:12 *737:32 0.00263555
19 *701:16 *711:11 0.00226841
20 *701:16 *712:11 0.00261952
21 *701:16 *713:11 0.00243758
22 *701:16 *719:11 0.000338753
23 *701:16 *737:32 0.0117059
24 *701:18 *706:15 0.0840216
25 *701:18 *712:23 0.0333059
26 *701:18 *713:17 0.00685019
27 *701:18 *719:23 0.000916489
28 *701:18 *722:15 0
29 *701:18 *734:37 0.0048896
30 *701:22 *740:mem_wdata[7] 0.00315424
31 *701:22 *729:35 0.00979573
32 *701:22 *734:43 0.00123688
33 *701:22 *737:46 0.00139091
34 *739:mem_rdata_i[10] *701:12 0.000278215
35 *739:mem_rdata_i[7] *701:12 0.000229581
36 *740:mac_init *701:22 0.0217308
37 *76:19 *701:12 0.000126813
38 *80:179 *740:mem_wdata[14] 0.000473292
39 *80:179 *701:22 0.00590722
40 *94:85 *701:22 0.000400591
41 *116:137 *740:mem_wdata[14] 0.000423265
42 *116:137 *701:22 0.00162114
43 *363:65 *701:12 0.00106903
44 *363:69 *701:12 0.000454312
45 *363:71 *701:12 0.000605495
46 *656:25 *701:18 0.0029539
47 *687:15 *701:16 0.000338753
48 *697:11 *701:12 0.000540895
49 *697:11 *701:16 0.00234264
*RES
1 *739:mem_wdata_o[14] *701:12 38.9788 
2 *701:12 *701:16 25.314 
3 *701:16 *701:18 221.451 
4 *701:18 *701:20 0.5 
5 *701:20 *701:22 50.426 
6 *701:22 *740:mem_wdata[14] 5.60593 
*END

*D_NET *702 0.703481
*CONN
*I *740:mem_wdata[15] I *D ntt_engine_256
*I *739:mem_wdata_o[15] O *D ntt_wb_bridge
*CAP
1 *740:mem_wdata[15] 0.000664747
2 *739:mem_wdata_o[15] 0.000903586
3 *702:43 0.0193876
4 *702:41 0.0189158
5 *702:35 0.025119
6 *702:33 0.0249261
7 *702:31 0.019783
8 *702:29 0.0198367
9 *702:23 0.0104712
10 *702:21 0.0105792
11 *702:11 0.0237579
12 *702:9 0.0244997
13 *702:9 *703:9 0
14 *702:11 *709:11 0.00113411
15 *702:11 *716:11 0.00113411
16 *702:11 *717:11 0.00452931
17 *702:11 *725:11 0.00556545
18 *702:11 *726:11 0.00135242
19 *702:11 *727:11 0.00036978
20 *702:11 *729:11 0.00564189
21 *702:11 *731:11 0.000706976
22 *702:11 *736:11 0.00662768
23 *702:21 *717:11 5.38496e-05
24 *702:21 *734:27 0
25 *702:23 *711:15 0.002609
26 *702:23 *716:15 0
27 *702:23 *725:15 0.000383473
28 *702:23 *733:23 0
29 *702:31 *716:23 1.25158e-05
30 *702:31 *725:23 0.0634921
31 *702:31 *725:33 0.00452628
32 *702:31 *733:31 0.102489
33 *702:35 *704:35 0.106475
34 *702:35 *709:19 0.000156278
35 *702:35 *709:27 0.0199408
36 *702:35 *726:27 0.0144443
37 *702:35 *733:35 0.000398756
38 *702:43 *709:27 0.00851598
39 *702:43 *734:51 0.00312063
40 *702:43 *737:54 0.00466649
41 *739:mem_rdata_i[10] *702:11 0
42 *76:19 *702:9 0.000101735
43 *357:25 *702:21 2.20023e-05
44 *357:25 *702:23 0.000572228
45 *373:15 *702:29 0.000107794
46 *373:17 *702:31 2.38557e-05
47 *379:21 *702:23 0.00268842
48 *382:15 *702:21 6.83077e-06
49 *384:23 *702:23 0.0120389
50 *386:25 *702:23 0.0149003
51 *650:11 *702:11 0.0123464
52 *657:15 *702:23 0.000369489
53 *657:23 *702:23 0.00148152
54 *676:31 *702:23 0.000578916
55 *678:11 *702:31 0.00681544
56 *678:19 *702:23 0.00698264
57 *689:11 *702:43 0.00722312
58 *689:19 *702:35 0.000590051
59 *691:11 *702:43 0.0086356
60 *691:19 *702:35 0.0700658
61 *691:27 *702:11 0.000522859
62 *701:12 *702:9 0.000215324
*RES
1 *739:mem_wdata_o[15] *702:9 2.42913 
2 *702:9 *702:11 58.0919 
3 *702:11 *702:21 5.08463 
4 *702:21 *702:23 316.125 
5 *702:23 *702:29 3.7525 
6 *702:29 *702:31 168.895 
7 *702:31 *702:33 0.5 
8 *702:33 *702:35 1199.62 
9 *702:35 *702:41 1.35847 
10 *702:41 *702:43 79.4529 
11 *702:43 *740:mem_wdata[15] 1.87687 
*END

*D_NET *703 0.197315
*CONN
*I *740:mem_wdata[16] I *D ntt_engine_256
*I *739:mem_wdata_o[16] O *D ntt_wb_bridge
*CAP
1 *740:mem_wdata[16] 0.00406158
2 *739:mem_wdata_o[16] 0.00217822
3 *703:15 0.0269581
4 *703:13 0.0228965
5 *703:11 0.0105317
6 *703:9 0.0127099
7 *740:mem_wdata[16] *708:19 0.00123333
8 *740:mem_wdata[16] *724:11 0.00600947
9 *740:mem_wdata[16] *738:19 0.00137909
10 *703:15 *708:17 0.000354882
11 *739:mem_rdata_i[8] *703:11 0.0193478
12 *531:21 *703:11 0.000475476
13 *646:47 *703:15 0.0189024
14 *652:121 *703:15 0.00204603
15 *667:23 *703:15 0.0338626
16 *672:21 *740:mem_wdata[16] 0
17 *673:27 *703:15 0
18 *677:27 *703:11 9.9512e-06
19 *682:37 *740:mem_wdata[16] 0.000305366
20 *690:17 *703:15 0
21 *690:19 *703:15 0
22 *699:11 *703:11 0.0328189
23 *699:19 *740:mem_wdata[16] 0.00123333
24 *702:9 *703:9 0
*RES
1 *739:mem_wdata_o[16] *703:9 5.02833 
2 *703:9 *703:11 61.2788 
3 *703:11 *703:13 0.5 
4 *703:13 *703:15 80.3295 
5 *703:15 *740:mem_wdata[16] 13.5387 
*END

*D_NET *704 0.856699
*CONN
*I *740:mem_wdata[17] I *D ntt_engine_256
*I *739:mem_wdata_o[17] O *D ntt_wb_bridge
*CAP
1 *740:mem_wdata[17] 0.000378265
2 *739:mem_wdata_o[17] 0.00271573
3 *704:39 0.00851856
4 *704:37 0.00814029
5 *704:35 0.0290154
6 *704:33 0.0290154
7 *704:31 0.0127796
8 *704:29 0.012843
9 *704:23 0.0181435
10 *704:21 0.01808
11 *704:19 0.00519536
12 *704:17 0.0079111
13 *704:17 *705:7 0
14 *704:17 *734:11 6.31497e-05
15 *704:19 *706:11 0.0295223
16 *704:23 *717:15 0.0548146
17 *704:31 *727:31 0.0260064
18 *704:35 *726:27 0.0160292
19 *704:35 *733:35 0.162275
20 *704:35 *734:51 0.0194726
21 *704:39 *734:67 0.0421855
22 *80:187 *704:35 0
23 *80:217 *704:39 0
24 *118:185 *704:35 0.00205749
25 *352:23 *704:19 7.32446e-05
26 *353:23 *704:19 0.0299533
27 *358:27 *704:19 4.36441e-05
28 *361:15 *704:23 0.00928679
29 *372:19 *704:17 0.000109393
30 *383:25 *704:19 0.000372743
31 *664:15 *704:23 0.0100338
32 *664:15 *704:31 0.025597
33 *675:13 *704:39 0.00128787
34 *691:11 *704:35 0.0210524
35 *695:23 *704:23 0.0900763
36 *695:23 *704:31 0.0016238
37 *695:31 *704:31 0.0199305
38 *695:39 *704:39 0.0356203
39 *702:35 *704:35 0.106475
*RES
1 *739:mem_wdata_o[17] *704:17 30.7398 
2 *704:17 *704:19 342.315 
3 *704:19 *704:21 2 
4 *704:21 *704:23 814.305 
5 *704:23 *704:29 3.4975 
6 *704:29 *704:31 89.3025 
7 *704:31 *704:33 0.5 
8 *704:33 *704:35 1815.7 
9 *704:35 *704:37 0.5 
10 *704:37 *704:39 65.0636 
11 *704:39 *740:mem_wdata[17] 7.25 
*END

*D_NET *705 0.257854
*CONN
*I *740:mem_wdata[18] I *D ntt_engine_256
*I *739:mem_wdata_o[18] O *D ntt_wb_bridge
*CAP
1 *740:mem_wdata[18] 0.000951508
2 *739:mem_wdata_o[18] 2.35071e-05
3 *705:19 0.0111525
4 *705:17 0.0103392
5 *705:11 0.0172716
6 *705:9 0.0171334
7 *705:7 0.0346005
8 *705:5 0.034624
9 *705:7 *721:45 0.000423584
10 *705:7 *723:67 0
11 *705:7 *730:17 0.000140704
12 *705:11 *724:11 0.0154418
13 *705:11 *730:17 4.75733e-05
14 *740:mem_wdata[13] *705:17 4.20804e-05
15 *740:mem_wdata[13] *705:19 0.00166949
16 *74:17 *705:11 0.0176703
17 *74:17 *705:19 0
18 *77:163 *705:19 0.0213999
19 *104:23 *705:11 0.00415323
20 *113:17 *705:11 0.00717635
21 *648:11 *705:11 0.00667831
22 *652:57 *705:7 0.000576148
23 *654:11 *740:mem_wdata[18] 0.000262458
24 *659:111 *705:11 0.00897738
25 *672:21 *705:11 0.00240523
26 *672:21 *705:19 0.0010005
27 *685:45 *705:19 0.00303878
28 *690:11 *705:11 0.000927938
29 *690:11 *705:19 0.0393179
30 *694:61 *705:7 0.000407967
31 *704:17 *705:7 0
*RES
1 *739:mem_wdata_o[18] *705:5 0.0620667 
2 *705:5 *705:7 85.2239 
3 *705:7 *705:9 0.5 
4 *705:9 *705:11 75.4908 
5 *705:11 *705:17 1.3002 
6 *705:17 *705:19 439.725 
7 *705:19 *740:mem_wdata[18] 2.31387 
*END

*D_NET *706 0.596873
*CONN
*I *740:mem_wdata[19] I *D ntt_engine_256
*I *739:mem_wdata_o[19] O *D ntt_wb_bridge
*CAP
1 *740:mem_wdata[19] 0.000838151
2 *739:mem_wdata_o[19] 0.00291066
3 *706:27 0.0267285
4 *706:25 0.02607
5 *706:19 0.00669136
6 *706:17 0.00651171
7 *706:15 0.0269826
8 *706:13 0.0269826
9 *706:11 0.00574845
10 *706:9 0.0086591
11 *706:11 *707:11 0
12 *706:15 *734:37 0.00578216
13 *706:19 *740:mem_wdata[7] 0.00160609
14 *706:19 *718:19 0.0279422
15 *706:19 *725:35 0.0208139
16 *706:27 *740:mem_wdata[7] 0.00829062
17 *706:27 *718:27 0.051354
18 *706:27 *729:35 0.0146431
19 *706:27 *734:43 0.00319401
20 *706:27 *737:46 0.0035682
21 *740:mac_init *706:19 0.00497314
22 *740:mem_wdata[14] *706:27 1.86715e-05
23 *80:179 *706:27 0.01623
24 *383:25 *706:11 0.00618699
25 *656:25 *706:15 3.64259e-05
26 *656:27 *706:19 0.000283288
27 *656:35 *706:27 0.00683156
28 *677:15 *706:15 0.152828
29 *688:27 *706:11 0.0184589
30 *689:11 *706:27 0
31 *690:19 *706:15 0.00101017
32 *699:15 *706:15 0.00115376
33 *701:18 *706:15 0.0840216
34 *704:19 *706:11 0.0295223
*RES
1 *739:mem_wdata_o[19] *706:9 6.63067 
2 *706:9 *706:11 339.765 
3 *706:11 *706:13 0.5 
4 *706:13 *706:15 227.977 
5 *706:15 *706:17 0.5 
6 *706:17 *706:19 318.345 
7 *706:19 *706:25 1.3002 
8 *706:25 *706:27 132.856 
9 *706:27 *740:mem_wdata[19] 2.25687 
*END

*D_NET *707 0.0637244
*CONN
*I *740:mem_wdata[1] I *D ntt_engine_256
*I *739:mem_wdata_o[1] O *D ntt_wb_bridge
*CAP
1 *740:mem_wdata[1] 1.23933e-05
2 *739:mem_wdata_o[1] 0.0030038
3 *707:11 0.0174847
4 *707:9 0.0204761
5 io_out[1] *707:9 0
6 *354:27 *707:11 0.0226959
7 *383:25 *707:11 0
8 *688:27 *707:11 0
9 *695:19 *707:11 5.15407e-05
10 *706:11 *707:11 0
*RES
1 *739:mem_wdata_o[1] *707:9 7.0968 
2 *707:9 *707:11 455.025 
3 *707:11 *740:mem_wdata[1] 0.225 
*END

*D_NET *708 0.401021
*CONN
*I *740:mem_wdata[20] I *D ntt_engine_256
*I *739:mem_wdata_o[20] O *D ntt_wb_bridge
*CAP
1 *740:mem_wdata[20] 0.0008151
2 *739:mem_wdata_o[20] 0.0156383
3 *708:19 0.0159585
4 *708:17 0.0243078
5 *708:11 0.0341469
6 *708:9 0.0406209
7 *708:11 *715:53 0.000366046
8 *708:17 *714:119 0.00482164
9 *708:17 *715:63 0.00130133
10 *708:19 *724:11 0.00166265
11 *708:19 *738:19 0.07604
12 *740:mem_wdata[13] *708:19 0.00156543
13 *740:mem_wdata[16] *708:19 0.00123333
14 *74:17 *708:19 0
15 *76:23 *708:9 0.00103545
16 *652:121 *708:17 8.72438e-06
17 *658:121 *708:17 0.0113317
18 *658:131 *708:19 0.0340117
19 *667:23 *708:17 0.032275
20 *673:27 *708:17 0
21 *681:23 *708:17 0.00106901
22 *682:15 *708:19 0.000507088
23 *682:43 *708:17 0.00513773
24 *685:29 *708:19 0.020573
25 *685:45 *708:19 0.0099007
26 *685:65 *708:17 0.00388323
27 *685:93 *708:11 0.000277691
28 *699:19 *708:19 0.0621769
29 *703:15 *708:17 0.000354882
*RES
1 *739:mem_wdata_o[20] *708:9 36.6089 
2 *708:9 *708:11 57.3167 
3 *708:11 *708:17 49.7781 
4 *708:17 *708:19 1085.9 
5 *708:19 *740:mem_wdata[20] 2.13907 
*END

*D_NET *709 0.661893
*CONN
*I *740:mem_wdata[21] I *D ntt_engine_256
*I *739:mem_wdata_o[21] O *D ntt_wb_bridge
*CAP
1 *740:mem_wdata[21] 0.000485649
2 *739:mem_wdata_o[21] 0.00105288
3 *709:27 0.013909
4 *709:25 0.0134588
5 *709:19 0.0114241
6 *709:17 0.0113887
7 *709:15 0.0521482
8 *709:13 0.0521482
9 *709:11 0.00584765
10 *709:9 0.00690053
11 *709:9 *710:17 0
12 *709:11 *716:11 0.0234586
13 *709:11 *726:11 0.00121757
14 *709:11 *731:11 0.00841756
15 *709:11 *735:11 0
16 *709:15 *718:15 0
17 *709:19 *716:27 0.0143673
18 *709:25 *740:op[0] 7.70373e-06
19 *709:27 *717:35 1.26454e-05
20 *709:27 *726:27 0.00686507
21 *709:27 *734:51 0.00327558
22 *739:mem_rdata_i[10] *709:11 0
23 *739:mem_rdata_i[6] *709:11 0.000155552
24 *116:137 *709:19 0
25 *360:79 *709:11 0.00160638
26 *540:185 *709:15 0.00064677
27 *650:15 *709:15 0.150277
28 *683:15 *709:15 0.000283736
29 *689:11 *709:19 0.00168628
30 *689:11 *709:27 0.0507406
31 *689:19 *709:19 0.0568992
32 *691:11 *709:27 0.058572
33 *691:19 *709:19 0.0633802
34 *691:19 *709:27 0.00308538
35 *691:23 *709:15 0
36 *691:27 *709:11 0.0182115
37 *701:12 *709:9 0.000215324
38 *702:11 *709:11 0.00113411
39 *702:35 *709:19 0.000156278
40 *702:35 *709:27 0.0199408
41 *702:43 *709:27 0.00851598
*RES
1 *739:mem_wdata_o[21] *709:9 2.80787 
2 *709:9 *709:11 327.015 
3 *709:11 *709:13 0.5 
4 *709:13 *709:15 222.791 
5 *709:15 *709:17 0.5 
6 *709:17 *709:19 712.065 
7 *709:19 *709:25 1.06713 
8 *709:25 *709:27 119.505 
9 *709:27 *740:mem_wdata[21] 1.47153 
*END

*D_NET *710 0.797296
*CONN
*I *740:mem_wdata[22] I *D ntt_engine_256
*I *739:mem_wdata_o[22] O *D ntt_wb_bridge
*CAP
1 *740:mem_wdata[22] 0.00593477
2 *739:mem_wdata_o[22] 0.00241818
3 *710:35 0.0388815
4 *710:33 0.0329468
5 *710:31 0.0184692
6 *710:29 0.018649
7 *710:23 0.003534
8 *710:21 0.0033542
9 *710:19 0.00611258
10 *710:17 0.00853076
11 *740:mem_wdata[22] *740:slot_a[1] 0.0182594
12 *710:17 *734:11 4.82619e-05
13 *710:35 *717:35 0.0219132
14 *81:23 *710:35 0.0701388
15 *119:25 *710:35 0.162624
16 *353:21 *710:23 0.00434216
17 *362:19 *710:19 0.000232357
18 *368:39 *710:19 0.0254088
19 *372:19 *710:17 8.40658e-05
20 *373:21 *710:19 0
21 *375:17 *710:19 0.000184135
22 *378:19 *710:19 0.00443214
23 *398:17 *710:31 0.00239592
24 *647:11 *710:31 0.000312413
25 *661:23 *710:31 0.131308
26 *661:31 *710:23 0
27 *662:19 *710:31 0.128376
28 *662:27 *710:23 0.0207901
29 *662:31 *710:19 0.015206
30 *664:27 *710:19 9.72226e-06
31 *676:21 *710:35 0.00140173
32 *688:23 *710:23 0.0173989
33 *691:11 *710:35 0.00679753
34 *695:39 *740:mem_wdata[22] 0.0268021
35 *709:9 *710:17 0
*RES
1 *739:mem_wdata_o[22] *710:17 25.9998 
2 *710:17 *710:19 307.125 
3 *710:19 *710:21 2 
4 *710:21 *710:23 188.475 
5 *710:23 *710:29 5.2825 
6 *710:29 *710:31 193.949 
7 *710:31 *710:33 0.5 
8 *710:33 *710:35 1819.79 
9 *710:35 *740:mem_wdata[22] 47.5761 
*END

*D_NET *711 0.177868
*CONN
*I *740:mem_wdata[23] I *D ntt_engine_256
*I *739:mem_wdata_o[23] O *D ntt_wb_bridge
*CAP
1 *740:mem_wdata[23] 0.00144072
2 *739:mem_wdata_o[23] 0.000134871
3 *711:15 0.00928432
4 *711:13 0.0078436
5 *711:11 0.00462295
6 *711:9 0.00475782
7 *740:mem_wdata[23] *733:29 0
8 *711:11 *712:11 0.000308892
9 *711:11 *713:11 0.0254015
10 *711:11 *719:11 0.0228021
11 *711:11 *737:8 0.000446202
12 *711:11 *737:32 0.000524219
13 *711:15 *716:15 0.000195407
14 *711:15 *725:15 0.00059065
15 *739:mem_rdata_i[10] *711:11 0.000116431
16 *356:29 *711:15 0.000511398
17 *357:25 *711:15 0.014493
18 *359:25 *711:15 0.00431221
19 *363:69 *711:11 0.00035007
20 *363:71 *711:11 0.00163373
21 *376:21 *711:15 0.00744533
22 *379:21 *711:15 0.00939242
23 *379:23 *711:15 0.000219474
24 *384:23 *711:15 0.00151653
25 *386:25 *711:15 0.00300825
26 *389:21 *711:15 0.00477672
27 *657:15 *711:15 0.00291641
28 *657:23 *711:15 0.0193626
29 *676:31 *711:15 0.000112022
30 *678:11 *711:15 0.0202785
31 *678:19 *711:15 0.00248431
32 *697:11 *711:11 0.000203321
33 *701:12 *711:11 0.0015045
34 *701:16 *711:11 0.00226841
35 *702:23 *711:15 0.002609
*RES
1 *739:mem_wdata_o[23] *711:9 0.8876 
2 *711:9 *711:11 297.435 
3 *711:11 *711:13 0.5 
4 *711:13 *711:15 69.2005 
5 *711:15 *740:mem_wdata[23] 23.285 
*END

*D_NET *712 0.399058
*CONN
*I *740:mem_wdata[24] I *D ntt_engine_256
*I *739:mem_wdata_o[24] O *D ntt_wb_bridge
*CAP
1 *740:mem_wdata[24] 0.000629187
2 *739:mem_wdata_o[24] 9.48026e-05
3 *712:23 0.0227059
4 *712:21 0.0223462
5 *712:15 0.00603534
6 *712:13 0.00576587
7 *712:11 0.00470178
8 *712:9 0.00479659
9 *712:11 *713:11 0.026167
10 *712:11 *737:8 0.000365617
11 *712:11 *737:32 0.00198603
12 *712:15 *717:15 0.0413841
13 *712:15 *719:15 3.83194e-05
14 *712:15 *727:31 0.00010327
15 *712:23 *717:23 0.0048196
16 *712:23 *719:23 0.0979358
17 *119:25 *740:mem_wdata[24] 0
18 *361:15 *712:15 0.000707255
19 *367:15 *712:15 0.00823056
20 *656:15 *712:23 0.0484345
21 *656:25 *712:23 0.000803066
22 *696:15 *712:15 0.0376114
23 *697:11 *712:11 0.0266988
24 *701:12 *712:11 0.00046304
25 *701:16 *712:11 0.00261952
26 *701:18 *712:23 0.0333059
27 *711:11 *712:11 0.000308892
*RES
1 *739:mem_wdata_o[24] *712:9 0.715333 
2 *712:9 *712:11 301.642 
3 *712:11 *712:13 2 
4 *712:13 *712:15 374.085 
5 *712:15 *712:21 6.5575 
6 *712:21 *712:23 156.834 
7 *712:23 *740:mem_wdata[24] 10.025 
*END

*D_NET *713 0.130582
*CONN
*I *740:mem_wdata[25] I *D ntt_engine_256
*I *739:mem_wdata_o[25] O *D ntt_wb_bridge
*CAP
1 *740:mem_wdata[25] 0.000603939
2 *739:mem_wdata_o[25] 0.000101052
3 *713:17 0.00770703
4 *713:11 0.0119253
5 *713:9 0.0049233
6 *713:11 *719:11 0.000418569
7 *713:11 *737:32 0.000502115
8 *713:17 *722:15 0.02969
9 *713:17 *734:37 0
10 *739:mem_rdata_i[10] *713:11 0.000100019
11 *363:65 *713:11 0.000106321
12 *656:15 *713:17 0.01174
13 *697:11 *713:11 8.65135e-05
14 *701:12 *713:11 0.00182131
15 *701:16 *713:11 0.00243758
16 *701:18 *713:17 0.00685019
17 *711:11 *713:11 0.0254015
18 *712:11 *713:11 0.026167
*RES
1 *739:mem_wdata_o[25] *713:9 0.715333 
2 *713:9 *713:11 298.965 
3 *713:11 *713:17 44.8545 
4 *713:17 *740:mem_wdata[25] 10.035 
*END

*D_NET *714 0.676578
*CONN
*I *740:mem_wdata[26] I *D ntt_engine_256
*I *739:mem_wdata_o[26] O *D ntt_wb_bridge
*CAP
1 *740:mem_wdata[26] 0.000322825
2 *739:mem_wdata_o[26] 0.00338439
3 *714:155 0.0248603
4 *714:153 0.0245547
5 *714:147 0.0278903
6 *714:145 0.0282304
7 *714:139 0.0511233
8 *714:137 0.0509691
9 *714:131 0.00442803
10 *714:129 0.00437464
11 *714:123 0.00168852
12 *714:121 0.00153869
13 *714:119 0.00295472
14 *714:117 0.00376296
15 *714:113 0.00302503
16 *714:101 0.00443721
17 *714:97 0.00431234
18 *714:89 0.00447454
19 *714:77 0.00371203
20 *714:69 0.00378927
21 *714:61 0.00307797
22 *714:57 0.00314025
23 *714:53 0.00441359
24 *714:39 0.0070791
25 *714:37 0.0073914
26 *714:27 0.00496516
27 *714:25 0.00439314
28 *714:17 0.00501613
29 *714:17 *734:11 0.000103079
30 *714:131 *715:67 0.00227129
31 *714:131 *715:75 0.000501686
32 la_data_out[100] *714:97 0.00184751
33 la_data_out[93] *714:53 0
34 la_data_out[96] *714:61 0.00348481
35 la_data_out[98] *714:77 0.00182416
36 la_data_out[99] *714:89 0
37 *740:clk *714:147 0.000858995
38 *77:155 *714:123 0.000177831
39 *77:171 *714:139 0.12656
40 *114:157 *714:145 0
41 *276:19 *714:53 0
42 *285:17 *714:37 0
43 *286:17 *714:69 0
44 *372:19 *714:17 0.000178288
45 *646:11 *714:155 0
46 *658:59 *714:61 0.000932211
47 *658:123 *714:123 0.0089048
48 *658:123 *714:139 0.00288589
49 *663:11 *714:147 0.0286284
50 *663:11 *714:155 0.0344062
51 *667:15 *714:139 0.00320321
52 *667:19 *714:139 0
53 *671:15 *714:145 0.000103519
54 *671:15 *714:147 0.00733529
55 *672:27 *714:69 0.000700628
56 *673:11 *714:147 0.00108598
57 *673:15 *714:139 0
58 *673:23 *714:123 0.00903729
59 *673:23 *714:139 4.09447e-05
60 *674:11 *714:131 0.00862031
61 *682:23 *714:131 0.0142816
62 *682:39 *714:123 0.000253724
63 *682:43 *714:119 0.0203762
64 *685:13 *714:155 0.00501483
65 *685:21 *714:145 0.000482743
66 *685:21 *714:147 0.0733404
67 *685:53 *714:131 0.000894415
68 *685:65 *714:119 0.0181266
69 *685:101 *714:61 0.001872
70 *685:113 *714:53 0.000111677
71 *708:17 *714:119 0.00482164
*RES
1 *739:mem_wdata_o[26] *714:17 40.6471 
2 *714:17 *714:25 32.53 
3 *714:25 *714:27 49.575 
4 *714:27 *714:37 45.42 
5 *714:37 *714:39 87.39 
6 *714:39 *714:53 42.005 
7 *714:53 *714:57 44.54 
8 *714:57 *714:61 41.12 
9 *714:61 *714:69 47.125 
10 *714:69 *714:77 34.96 
11 *714:77 *714:89 48.09 
12 *714:89 *714:97 47.98 
13 *714:97 *714:101 40.865 
14 *714:101 *714:113 43.875 
15 *714:113 *714:117 15.11 
16 *714:117 *714:119 184.335 
17 *714:119 *714:121 2 
18 *714:121 *714:123 105.165 
19 *714:123 *714:129 6.175 
20 *714:129 *714:131 201.3 
21 *714:131 *714:137 6.865 
22 *714:137 *714:139 1496.19 
23 *714:139 *714:145 10.055 
24 *714:145 *714:147 735.3 
25 *714:147 *714:153 2.7325 
26 *714:153 *714:155 88.8364 
27 *714:155 *740:mem_wdata[26] 6.29 
*END

*D_NET *715 0.693402
*CONN
*I *740:mem_wdata[27] I *D ntt_engine_256
*I *739:mem_wdata_o[27] O *D ntt_wb_bridge
*CAP
1 *740:mem_wdata[27] 0.000378599
2 *739:mem_wdata_o[27] 0.00131047
3 *715:95 0.0131014
4 *715:93 0.0175999
5 *715:83 0.0315287
6 *715:81 0.0267851
7 *715:75 0.00531105
8 *715:73 0.00530957
9 *715:67 0.00308022
10 *715:65 0.00294817
11 *715:63 0.00486607
12 *715:61 0.00626792
13 *715:53 0.00306
14 *715:43 0.00823665
15 *715:41 0.00924529
16 *715:37 0.00394578
17 *715:33 0.00281417
18 *715:27 0.00351587
19 *715:25 0.0042018
20 *715:21 0.00308726
21 *715:15 0.00554718
22 *715:13 0.00599149
23 *715:13 *734:11 8.78774e-05
24 *715:25 *720:7 0.000645873
25 *715:63 *723:131 2.14495e-05
26 *715:83 *740:mem_wdata[5] 1.00941e-05
27 *715:93 *740:mem_wdata[31] 0
28 la_data_out[87] *715:21 0.00121975
29 la_data_out[96] *715:43 0
30 *740:mem_addr[4] *715:83 2.22382e-05
31 *76:105 *715:95 0.000857376
32 *78:71 *715:25 0.000236573
33 *78:151 *715:93 0.000516051
34 *105:23 *715:61 0
35 *114:157 *715:93 0.00198209
36 *115:149 *715:93 0.00133099
37 *276:19 *715:37 0.0032529
38 *277:17 *715:53 0.00040561
39 *300:15 *715:53 0.00010799
40 *372:19 *715:13 0.000151878
41 *529:19 *715:27 0.00507978
42 *646:47 *715:63 0.000310328
43 *648:21 *715:93 0
44 *658:49 *715:25 0.0028582
45 *658:59 *715:43 0.00370352
46 *658:123 *715:75 0.00530764
47 *658:145 *715:95 0.00985634
48 *663:35 *715:63 0.0293213
49 *667:23 *715:63 0.00560526
50 *671:15 *715:93 0
51 *673:11 *715:95 0.0766305
52 *673:15 *715:83 0.123026
53 *674:11 *715:67 0.0114021
54 *674:11 *715:83 0.088531
55 *679:21 *715:93 0.000316025
56 *682:11 *715:95 0.0683474
57 *682:15 *715:83 0.0136098
58 *682:23 *715:75 0.0205873
59 *682:43 *715:63 0.0237304
60 *685:13 *715:95 0.00504411
61 *685:53 *715:67 0
62 *685:53 *715:75 0.00804494
63 *685:57 *715:67 0.00627922
64 *685:63 *715:67 5.5195e-05
65 *685:65 *715:63 4.57056e-05
66 *685:101 *715:43 0.00228753
67 *708:11 *715:53 0.000366046
68 *708:17 *715:63 0.00130133
69 *714:131 *715:67 0.00227129
70 *714:131 *715:75 0.000501686
*RES
1 *739:mem_wdata_o[27] *715:13 6.80597 
2 *715:13 *715:15 75.315 
3 *715:15 *715:21 27.31 
4 *715:21 *715:25 49.025 
5 *715:25 *715:27 56.97 
6 *715:27 *715:33 29.98 
7 *715:33 *715:37 38.57 
8 *715:37 *715:41 48.335 
9 *715:41 *715:43 147.495 
10 *715:43 *715:53 35.055 
11 *715:53 *715:61 27.55 
12 *715:61 *715:63 269.895 
13 *715:63 *715:65 2 
14 *715:65 *715:67 131.812 
15 *715:67 *715:73 1.2128 
16 *715:73 *715:75 247.965 
17 *715:75 *715:81 1.2128 
18 *715:81 *715:83 1420.45 
19 *715:83 *715:93 19.9113 
20 *715:93 *715:95 126.011 
21 *715:95 *740:mem_wdata[27] 6.95 
*END

*D_NET *716 0.468139
*CONN
*I *740:mem_wdata[28] I *D ntt_engine_256
*I *739:mem_wdata_o[28] O *D ntt_wb_bridge
*CAP
1 *740:mem_wdata[28] 0.000505626
2 *739:mem_wdata_o[28] 0.00113826
3 *716:27 0.0171221
4 *716:25 0.0166164
5 *716:23 0.0345381
6 *716:21 0.0345569
7 *716:15 0.0053006
8 *716:13 0.00528185
9 *716:11 0.00450438
10 *716:9 0.00564264
11 *716:9 *717:9 0
12 *716:11 *735:11 0
13 *716:15 *725:15 0.0322137
14 *716:15 *733:23 0.00436758
15 *716:23 *725:33 0
16 *716:23 *726:23 0.000138337
17 *716:23 *729:23 3.92213e-05
18 *716:23 *733:23 0.00256193
19 *716:23 *733:31 0.0136473
20 *716:23 *736:23 0.0332
21 *716:27 *717:27 0.000964487
22 *716:27 *726:27 0.0347931
23 *716:27 *729:35 0.0318638
24 *94:85 *716:27 0.00508274
25 *336:17 *716:23 0
26 *343:29 *716:23 0.00772229
27 *345:31 *716:23 0.00411526
28 *346:33 *716:23 0.00436991
29 *347:33 *716:23 0.00283949
30 *348:35 *716:23 0.00248583
31 *349:35 *716:23 0.0053539
32 *350:27 *716:23 0.00285706
33 *360:55 *716:15 0.00111852
34 *360:79 *716:11 0.00164171
35 *364:23 *716:11 0.0013613
36 *374:15 *716:23 0
37 *376:21 *716:15 0.00202808
38 *384:21 *716:15 0.00392566
39 *389:23 *716:15 0.0216399
40 *394:15 *716:15 0.000682956
41 *657:23 *716:23 0.0382638
42 *676:31 *716:15 8.05167e-05
43 *678:11 *716:23 0.0145923
44 *689:19 *716:27 0.0128487
45 *689:35 *716:11 0.0169641
46 *702:11 *716:11 0.00113411
47 *702:23 *716:15 0
48 *702:31 *716:23 1.25158e-05
49 *709:11 *716:11 0.0234586
50 *709:19 *716:27 0.0143673
51 *711:15 *716:15 0.000195407
*RES
1 *739:mem_wdata_o[28] *716:9 2.78 
2 *716:9 *716:11 265.177 
3 *716:11 *716:13 2 
4 *716:13 *716:15 308.19 
5 *716:15 *716:21 2.7325 
6 *716:21 *716:23 170.905 
7 *716:23 *716:25 0.5 
8 *716:25 *716:27 110.03 
9 *716:27 *740:mem_wdata[28] 1.50193 
*END

*D_NET *717 0.664804
*CONN
*I *740:mem_wdata[29] I *D ntt_engine_256
*I *739:mem_wdata_o[29] O *D ntt_wb_bridge
*CAP
1 *740:mem_wdata[29] 0.000454482
2 *739:mem_wdata_o[29] 0.000922484
3 *717:35 0.0419859
4 *717:33 0.041791
5 *717:27 0.00259041
6 *717:25 0.00233082
7 *717:23 0.0145918
8 *717:21 0.0148062
9 *717:15 0.00951041
10 *717:13 0.00929603
11 *717:11 0.00475079
12 *717:9 0.00567327
13 *717:9 *719:9 0
14 *717:11 *725:11 0.0230082
15 *717:11 *734:27 0
16 *717:11 *736:11 0.0225739
17 *717:15 *719:15 4.01778e-05
18 *717:15 *727:23 0.000185064
19 *717:23 *719:23 0.0851295
20 *717:27 *729:27 0.00335327
21 *717:35 *726:27 0.0651303
22 *717:35 *736:27 0.00563544
23 *81:23 *717:35 0.0226302
24 *94:85 *717:27 0.000634728
25 *116:137 *717:27 0
26 *119:25 *717:35 0.00900528
27 *361:15 *717:15 0.00980764
28 *540:189 *717:35 0.00900528
29 *656:25 *717:23 0.000114972
30 *664:15 *717:15 0.0026274
31 *689:19 *717:27 0.00791178
32 *691:11 *717:35 0.0365016
33 *691:27 *717:11 0.000297361
34 *695:31 *717:23 0.00735589
35 *696:23 *717:23 0.0766607
36 *702:11 *717:11 0.00452931
37 *702:21 *717:11 5.38496e-05
38 *704:23 *717:15 0.0548146
39 *709:27 *717:35 1.26454e-05
40 *710:35 *717:35 0.0219132
41 *712:15 *717:15 0.0413841
42 *712:23 *717:23 0.0048196
43 *716:9 *717:9 0
44 *716:27 *717:27 0.000964487
*RES
1 *739:mem_wdata_o[29] *717:9 2.3164 
2 *717:9 *717:11 270.277 
3 *717:11 *717:13 2 
4 *717:13 *717:15 495.525 
5 *717:15 *717:21 5.7925 
6 *717:21 *717:23 139.004 
7 *717:23 *717:25 0.5 
8 *717:25 *717:27 88.845 
9 *717:27 *717:33 1.41673 
10 *717:33 *717:35 185.569 
11 *717:35 *740:mem_wdata[29] 1.41073 
*END

*D_NET *718 0.567959
*CONN
*I *740:mem_wdata[2] I *D ntt_engine_256
*I *739:mem_wdata_o[2] O *D ntt_wb_bridge
*CAP
1 *740:mem_wdata[2] 0.000770837
2 *739:mem_wdata_o[2] 0.000463538
3 *718:27 0.0256159
4 *718:25 0.0249153
5 *718:19 0.0098819
6 *718:17 0.00981168
7 *718:15 0.0519759
8 *718:13 0.0519759
9 *718:11 0.0116852
10 *718:9 0.0121487
11 *718:11 *722:11 0.0141764
12 *718:11 *734:27 0
13 *718:15 *734:39 0
14 *718:19 *740:mem_wdata[7] 0.00479714
15 *718:25 *740:mem_wdata[7] 3.3846e-05
16 *718:27 *740:mem_wdata[7] 0.000114942
17 *718:27 *734:43 0.0127723
18 *718:27 *737:46 0.0114223
19 io_out[1] *718:9 0
20 *740:mac_init *718:19 0.0053372
21 *82:25 *718:19 0
22 *116:137 *718:27 0.00480483
23 *650:15 *718:15 0
24 *656:11 *718:11 0.000612251
25 *656:27 *718:19 0.0417993
26 *656:27 *718:27 0.00660868
27 *657:11 *718:11 0.0367253
28 *683:15 *718:15 0
29 *691:23 *718:15 0.150213
30 *706:19 *718:19 0.0279422
31 *706:27 *718:27 0.051354
32 *709:15 *718:15 0
*RES
1 *739:mem_wdata_o[2] *718:9 1.41453 
2 *718:9 *718:11 448.905 
3 *718:11 *718:13 0.5 
4 *718:13 *718:15 222.617 
5 *718:15 *718:17 0.5 
6 *718:17 *718:19 467.775 
7 *718:19 *718:25 1.1254 
8 *718:25 *718:27 93.5788 
9 *718:27 *740:mem_wdata[2] 2.115 
*END

*D_NET *719 0.372438
*CONN
*I *740:mem_wdata[30] I *D ntt_engine_256
*I *739:mem_wdata_o[30] O *D ntt_wb_bridge
*CAP
1 *740:mem_wdata[30] 0.000610416
2 *739:mem_wdata_o[30] 0.000133727
3 *719:23 0.0153847
4 *719:21 0.0149758
5 *719:15 0.00648588
6 *719:13 0.00628429
7 *719:11 0.00504069
8 *719:9 0.00517442
9 *719:11 *737:32 0.000110459
10 *719:15 *727:23 0.0289087
11 *719:23 *722:15 0.0167369
12 *739:mem_rdata_i[10] *719:11 0.000101735
13 *356:31 *719:11 0
14 *360:77 *719:11 1.92979e-05
15 *363:69 *719:11 0.0011758
16 *367:15 *719:15 0.00460322
17 *656:11 *719:11 0
18 *656:15 *719:23 0.00164619
19 *687:15 *719:11 0.0188
20 *696:15 *719:15 0.0373125
21 *696:21 *719:21 0
22 *696:23 *719:23 0.000101532
23 *701:12 *719:11 0.00121213
24 *701:16 *719:11 0.000338753
25 *701:18 *719:23 0.000916489
26 *711:11 *719:11 0.0228021
27 *712:15 *719:15 3.83194e-05
28 *712:23 *719:23 0.0979358
29 *713:11 *719:11 0.000418569
30 *717:9 *719:9 0
31 *717:15 *719:15 4.01778e-05
32 *717:23 *719:23 0.0851295
*RES
1 *739:mem_wdata_o[30] *719:9 0.715333 
2 *719:9 *719:11 266.962 
3 *719:11 *719:13 2 
4 *719:13 *719:15 338.895 
5 *719:15 *719:21 5.5375 
6 *719:21 *719:23 150.716 
7 *719:23 *740:mem_wdata[30] 10.535 
*END

*D_NET *720 0.52635
*CONN
*I *740:mem_wdata[31] I *D ntt_engine_256
*I *739:mem_wdata_o[31] O *D ntt_wb_bridge
*CAP
1 *740:mem_wdata[31] 0.00473834
2 *739:mem_wdata_o[31] 3.8724e-05
3 *720:11 0.038991
4 *720:9 0.0342527
5 *720:7 0.033079
6 *720:5 0.0331177
7 *75:17 *720:11 0.185835
8 *77:121 *720:7 0
9 *78:71 *720:7 0.00155754
10 *115:137 *720:11 0
11 *653:21 *740:mem_wdata[31] 0.000187686
12 *667:11 *740:mem_wdata[31] 8.19515e-05
13 *679:11 *740:mem_wdata[31] 0.00787422
14 *680:11 *720:11 0.0241232
15 *682:11 *740:mem_wdata[31] 0.000186607
16 *686:11 *720:11 6.54818e-05
17 *694:167 *720:11 0.161575
18 *715:25 *720:7 0.000645873
19 *715:93 *740:mem_wdata[31] 0
*RES
1 *739:mem_wdata_o[31] *720:5 0.0620667 
2 *720:5 *720:7 86.2435 
3 *720:7 *720:9 0.5 
4 *720:9 *720:11 2078.86 
5 *720:11 *740:mem_wdata[31] 25.5329 
*END

*D_NET *721 0.585659
*CONN
*I *740:mem_wdata[3] I *D ntt_engine_256
*I *739:mem_wdata_o[3] O *D ntt_wb_bridge
*CAP
1 *740:mem_wdata[3] 0.00131064
2 *739:mem_wdata_o[3] 2.1597e-05
3 *721:147 0.0253281
4 *721:145 0.0240175
5 *721:143 0.0277072
6 *721:141 0.0297192
7 *721:133 0.00458218
8 *721:117 0.00721328
9 *721:87 0.00778147
10 *721:85 0.00344277
11 *721:79 0.00212307
12 *721:77 0.00474771
13 *721:63 0.00595308
14 *721:61 0.00678912
15 *721:45 0.00603325
16 *721:33 0.00506967
17 *721:17 0.00614601
18 *721:7 0.0256944
19 *721:5 0.0223716
20 *721:117 *723:95 0.000186894
21 *721:141 *723:131 0.000298583
22 *721:143 *723:151 0.000912645
23 io_oeb[1] *721:17 0.00134001
24 la_data_out[113] *721:79 0.00464687
25 la_data_out[115] *721:117 0
26 *77:147 *721:133 0.000334041
27 *77:155 *721:141 0
28 *112:33 *721:133 0
29 *114:135 *721:117 0.000194374
30 *114:153 *721:143 0
31 *115:149 *740:mem_wdata[3] 0.00170074
32 *115:149 *721:147 0.0128597
33 *295:15 *721:133 0.000500321
34 *296:19 *721:133 0
35 *531:23 *721:117 0.000142886
36 *652:83 *721:63 0.00209988
37 *652:83 *721:77 0.000717184
38 *652:121 *721:141 0.00112507
39 *655:41 *721:17 0
40 *655:99 *721:117 0.000357479
41 *655:121 *721:133 0.000158482
42 *655:121 *721:141 0
43 *655:129 *721:141 0.000387596
44 *658:25 *721:7 0.000354877
45 *659:109 *721:141 0.00105358
46 *665:57 *721:141 4.02901e-05
47 *666:11 *721:141 0.000454328
48 *672:25 *721:133 0.000116216
49 *672:27 *721:85 0
50 *679:45 *721:141 0.000110734
51 *680:11 *721:143 0.0269915
52 *680:37 *721:141 0
53 *680:39 *721:117 0
54 *681:23 *721:141 1.33725e-05
55 *681:25 *721:117 7.5359e-05
56 *686:11 *721:143 0.146728
57 *686:77 *721:77 0.000582462
58 *694:37 *721:17 0
59 *694:47 *721:45 0
60 *694:61 *721:45 0.000405666
61 *694:79 *721:63 0.00177405
62 *694:101 *721:77 0.000462637
63 *694:101 *721:79 0
64 *694:125 *721:117 6.78047e-05
65 *694:141 *721:133 0.000100703
66 *694:167 *721:143 0.16072
67 *700:7 *721:33 0.00116898
68 *705:7 *721:45 0.000423584
*RES
1 *739:mem_wdata_o[3] *721:5 0.0620667 
2 *721:5 *721:7 57.7511 
3 *721:7 *721:17 46.959 
4 *721:17 *721:33 35.9159 
5 *721:33 *721:45 35.066 
6 *721:45 *721:61 42.8221 
7 *721:61 *721:63 61.815 
8 *721:63 *721:77 46.623 
9 *721:77 *721:79 52.125 
10 *721:79 *721:85 1.85373 
11 *721:85 *721:87 56.715 
12 *721:87 *721:117 47.2287 
13 *721:117 *721:133 29.6211 
14 *721:133 *721:141 31.305 
15 *721:141 *721:143 1797.34 
16 *721:143 *721:145 0.5 
17 *721:145 *721:147 73.6579 
18 *721:147 *740:mem_wdata[3] 5.35133 
*END

*D_NET *722 0.193752
*CONN
*I *740:mem_wdata[4] I *D ntt_engine_256
*I *739:mem_wdata_o[4] O *D ntt_wb_bridge
*CAP
1 *740:mem_wdata[4] 0.000644984
2 *739:mem_wdata_o[4] 0.00066886
3 *722:15 0.0108222
4 *722:13 0.0101772
5 *722:11 0.0125866
6 *722:9 0.0132554
7 *722:9 *723:7 0
8 *722:11 *727:11 0
9 *722:11 *727:19 0.0277054
10 *722:11 *729:11 0
11 *722:11 *734:27 0
12 *722:15 *731:55 0.0368895
13 *722:15 *734:37 0
14 *79:23 *722:9 0.000262458
15 *656:15 *722:15 0.00231106
16 *668:15 *722:15 0.000274737
17 *696:23 *722:15 0.0164432
18 *697:15 *722:15 0.0011068
19 *701:18 *722:15 0
20 *713:17 *722:15 0.02969
21 *718:11 *722:11 0.0141764
22 *719:23 *722:15 0.0167369
*RES
1 *739:mem_wdata_o[4] *722:9 1.84773 
2 *722:9 *722:11 425.445 
3 *722:11 *722:13 0.5 
4 *722:13 *722:15 82.7767 
5 *722:15 *740:mem_wdata[4] 11.045 
*END

*D_NET *723 0.500318
*CONN
*I *740:mem_wdata[5] I *D ntt_engine_256
*I *739:mem_wdata_o[5] O *D ntt_wb_bridge
*CAP
1 *740:mem_wdata[5] 0.00101996
2 *739:mem_wdata_o[5] 2.35071e-05
3 *723:151 0.00209583
4 *723:133 0.0286915
5 *723:131 0.0340343
6 *723:95 0.021669
7 *723:67 0.0313708
8 *723:7 0.0386743
9 *723:5 0.0225773
10 la_data_out[114] *723:95 0.00139805
11 la_data_out[115] *723:95 0.000232204
12 *69:21 *723:133 0.0164643
13 *77:155 *723:131 0
14 *78:129 *723:151 0.00140651
15 *114:145 *723:133 0.151447
16 *114:153 *723:151 0.000190169
17 *115:145 *723:151 0.00140485
18 *295:15 *723:131 0
19 *646:47 *723:131 0
20 *651:15 *723:131 0.00024757
21 *652:57 *723:67 0.000435046
22 *652:83 *723:67 0
23 *652:83 *723:95 0.00108626
24 *652:121 *723:95 6.3525e-05
25 *652:121 *723:131 0
26 *655:41 *723:67 0
27 *655:121 *723:95 0
28 *655:129 *723:131 0.000462952
29 *655:131 *723:133 0.132416
30 *659:61 *723:67 0.000719099
31 *659:61 *723:95 2.38374e-05
32 *659:93 *723:95 0.00680249
33 *663:31 *723:131 0.000104672
34 *665:57 *723:95 0
35 *666:15 *723:95 0.00115289
36 *667:19 *723:131 4.36573e-06
37 *682:15 *740:mem_wdata[5] 1.79536e-05
38 *685:65 *723:131 0.000491066
39 *686:73 *723:95 0.000370269
40 *694:69 *723:67 4.21127e-05
41 *694:125 *723:95 0.000224474
42 *699:15 *723:131 0.000517935
43 *700:7 *723:67 0.00100587
44 *705:7 *723:67 0
45 *715:63 *723:131 2.14495e-05
46 *715:83 *740:mem_wdata[5] 1.00941e-05
47 *721:117 *723:95 0.000186894
48 *721:141 *723:131 0.000298583
49 *721:143 *723:151 0.000912645
50 *722:9 *723:7 0
*RES
1 *739:mem_wdata_o[5] *723:5 0.0620667 
2 *723:5 *723:7 54.6921 
3 *723:7 *723:67 49.2288 
4 *723:67 *723:95 48.7257 
5 *723:95 *723:131 48.5929 
6 *723:131 *723:133 1693.56 
7 *723:133 *723:151 44.8 
8 *723:151 *740:mem_wdata[5] 10.5122 
*END

*D_NET *724 0.179656
*CONN
*I *740:mem_wdata[6] I *D ntt_engine_256
*I *739:mem_wdata_o[6] O *D ntt_wb_bridge
*CAP
1 *740:mem_wdata[6] 0.000794287
2 *739:mem_wdata_o[6] 2.1597e-05
3 *724:11 0.0161424
4 *724:9 0.0153482
5 *724:7 0.0325391
6 *724:5 0.0325607
7 *724:11 *730:17 0.00695569
8 *724:11 *730:19 0.00103103
9 *724:11 *738:11 0.0385874
10 *724:11 *738:19 0.00148691
11 *740:mem_wdata[13] *724:11 0.00436173
12 *740:mem_wdata[16] *724:11 0.00600947
13 *77:161 *740:mem_wdata[6] 0.000582273
14 *652:57 *724:7 0.000346285
15 *654:11 *740:mem_wdata[6] 0.000262458
16 *672:21 *724:11 0.00139482
17 *682:29 *740:mem_wdata[6] 0.000199542
18 *682:31 *724:11 0.00143241
19 *690:11 *724:11 0.000948031
20 *699:19 *724:11 0.00154717
21 *705:11 *724:11 0.0154418
22 *708:19 *724:11 0.00166265
*RES
1 *739:mem_wdata_o[6] *724:5 0.0620667 
2 *724:5 *724:7 84.8743 
3 *724:7 *724:9 0.5 
4 *724:9 *724:11 95.7321 
5 *724:11 *740:mem_wdata[6] 2.3506 
*END

*D_NET *725 0.487553
*CONN
*I *740:mem_wdata[7] I *D ntt_engine_256
*I *739:mem_wdata_o[7] O *D ntt_wb_bridge
*CAP
1 *740:mem_wdata[7] 0.0143858
2 *739:mem_wdata_o[7] 0.000904701
3 *725:35 0.0235952
4 *725:33 0.0106864
5 *725:23 0.0205083
6 *725:21 0.01924
7 *725:15 0.0046709
8 *725:13 0.00446225
9 *725:11 0.00644117
10 *725:9 0.00734587
11 *740:mem_wdata[7] *734:43 0.000409854
12 *740:mem_wdata[7] *736:27 0.000262458
13 *740:mem_wdata[7] *737:46 0.000442845
14 *725:11 *726:11 0.0340505
15 *725:11 *731:11 0.00029087
16 *725:11 *736:11 0.00694208
17 *725:35 *737:46 0
18 *740:mem_wdata[14] *740:mem_wdata[7] 0.000714166
19 *82:25 *725:35 0
20 *116:137 *740:mem_wdata[7] 0.00193733
21 *118:153 *725:35 0.00224683
22 *373:17 *725:23 0.00295787
23 *376:21 *725:15 0.00522764
24 *379:13 *725:21 8.51932e-05
25 *656:27 *740:mem_wdata[7] 0.00537263
26 *656:27 *725:35 5.24607e-05
27 *675:19 *725:33 0.000168497
28 *676:21 *725:33 0.00296538
29 *676:23 *725:23 0.112462
30 *676:23 *725:33 0.000598746
31 *676:31 *725:15 0.0293009
32 *691:27 *725:11 0.000234307
33 *701:22 *740:mem_wdata[7] 0.00315424
34 *702:11 *725:11 0.00556545
35 *702:23 *725:15 0.000383473
36 *702:31 *725:23 0.0634921
37 *702:31 *725:33 0.00452628
38 *706:19 *740:mem_wdata[7] 0.00160609
39 *706:19 *725:35 0.0208139
40 *706:27 *740:mem_wdata[7] 0.00829062
41 *711:15 *725:15 0.00059065
42 *716:15 *725:15 0.0322137
43 *716:23 *725:33 0
44 *717:11 *725:11 0.0230082
45 *718:19 *740:mem_wdata[7] 0.00479714
46 *718:25 *740:mem_wdata[7] 3.3846e-05
47 *718:27 *740:mem_wdata[7] 0.000114942
*RES
1 *739:mem_wdata_o[7] *725:9 2.37467 
2 *725:9 *725:11 394.973 
3 *725:11 *725:13 2 
4 *725:13 *725:15 291.63 
5 *725:15 *725:21 6.0475 
6 *725:21 *725:23 166.069 
7 *725:23 *725:33 9.12727 
8 *725:33 *725:35 254.085 
9 *725:35 *740:mem_wdata[7] 43.2747 
*END

*D_NET *726 0.653975
*CONN
*I *740:mem_wdata[8] I *D ntt_engine_256
*I *739:mem_wdata_o[8] O *D ntt_wb_bridge
*CAP
1 *740:mem_wdata[8] 0.000503349
2 *739:mem_wdata_o[8] 0.000886375
3 *726:27 0.0191499
4 *726:25 0.0186466
5 *726:23 0.011153
6 *726:21 0.0114146
7 *726:15 0.0108777
8 *726:13 0.0106161
9 *726:11 0.00585742
10 *726:9 0.00674379
11 *726:11 *731:11 0.0156874
12 *726:15 *729:15 0.0841374
13 *726:15 *736:15 0.0830309
14 *726:15 *737:34 0
15 *726:23 *729:23 0.060382
16 *726:23 *736:23 0.0610701
17 *726:27 *729:35 5.53e-05
18 *726:27 *733:35 0.0178292
19 *726:27 *736:27 0
20 *739:mem_rdata_i[6] *726:11 0.000157219
21 *94:85 *726:27 4.48154e-05
22 *300:15 *726:15 5.74791e-05
23 *315:25 *726:23 0.000390213
24 *335:15 *726:15 0.0055741
25 *338:37 *726:23 2.64558e-06
26 *340:29 *726:15 0.000635658
27 *347:23 *726:15 0.000466496
28 *351:23 *726:15 0.000569354
29 *357:17 *726:15 0.000306677
30 *362:15 *726:15 0.00310203
31 *387:15 *726:15 0.000258101
32 *390:15 *726:15 0.00530652
33 *676:21 *726:27 0.00862467
34 *689:11 *726:27 0.00406525
35 *689:31 *726:15 7.66388e-05
36 *691:17 *740:mem_wdata[8] 2.22315e-05
37 *691:19 *726:27 0.0161514
38 *691:27 *726:11 0.0161016
39 *702:11 *726:11 0.00135242
40 *702:35 *726:27 0.0144443
41 *704:35 *726:27 0.0160292
42 *709:11 *726:11 0.00121757
43 *709:27 *726:27 0.00686507
44 *716:23 *726:23 0.000138337
45 *716:27 *726:27 0.0347931
46 *717:35 *726:27 0.0651303
47 *725:11 *726:11 0.0340505
*RES
1 *739:mem_wdata_o[8] *726:9 2.3468 
2 *726:9 *726:11 383.753 
3 *726:11 *726:13 2 
4 *726:13 *726:15 762.9 
5 *726:15 *726:21 6.5575 
6 *726:21 *726:23 93.7017 
7 *726:23 *726:25 0.5 
8 *726:25 *726:27 136.387 
9 *726:27 *740:mem_wdata[8] 1.51713 
*END

*D_NET *727 0.282871
*CONN
*I *740:mem_wdata[9] I *D ntt_engine_256
*I *739:mem_wdata_o[9] O *D ntt_wb_bridge
*CAP
1 *740:mem_wdata[9] 0.000757766
2 *739:mem_wdata_o[9] 0.00077366
3 *727:31 0.0163954
4 *727:29 0.0156564
5 *727:23 0.00961794
6 *727:21 0.00959919
7 *727:19 0.011914
8 *727:17 0.0120693
9 *727:11 0.00268597
10 *727:9 0.00330431
11 *727:11 *729:11 0.00618097
12 *727:19 *729:11 0
13 *727:19 *734:27 0.00160861
14 io_oeb[1] *727:9 0.00026524
15 *76:19 *727:9 0.000101735
16 *79:23 *727:9 0.000215324
17 *361:15 *727:31 0.00145053
18 *367:15 *727:23 0.00248492
19 *367:15 *727:31 0.00515825
20 *650:11 *727:11 0.000316659
21 *664:15 *727:31 0.0150288
22 *668:13 *727:31 0.00167057
23 *668:15 *727:31 0.0651481
24 *695:31 *727:31 0.0171884
25 *702:11 *727:11 0.00036978
26 *704:31 *727:31 0.0260064
27 *712:15 *727:31 0.00010327
28 *717:15 *727:23 0.000185064
29 *719:15 *727:23 0.0289087
30 *722:11 *727:11 0
31 *722:11 *727:19 0.0277054
*RES
1 *739:mem_wdata_o[9] *727:9 2.4 
2 *727:9 *727:11 69.5925 
3 *727:11 *727:17 6.52 
4 *727:17 *727:19 322.68 
5 *727:19 *727:21 2 
6 *727:21 *727:23 266.79 
7 *727:23 *727:29 2.7325 
8 *727:29 *727:31 125.952 
9 *727:31 *740:mem_wdata[9] 12.74 
*END

*D_NET *728 0.24184
*CONN
*I *740:mem_we I *D ntt_engine_256
*I *739:mem_we_o O *D ntt_wb_bridge
*CAP
1 *740:mem_we 0.00205507
2 *739:mem_we_o 0.000366813
3 *728:15 0.0308205
4 *728:13 0.0287655
5 *728:11 0.0105622
6 *728:9 0.010929
7 *278:15 *728:15 0.000407586
8 *282:17 *728:15 0.00153634
9 *316:19 *728:15 0.0115655
10 *317:15 *728:15 0.000318548
11 *318:15 *728:15 0.000238566
12 *320:15 *728:15 0.000395293
13 *323:15 *728:15 0
14 *325:15 *728:15 0
15 *327:15 *728:15 0
16 *339:25 *740:mem_we 0
17 *341:29 *728:15 0.00230734
18 *343:21 *728:15 0.00471801
19 *345:23 *728:15 0.0112003
20 *347:25 *728:15 0.000513422
21 *348:25 *728:15 0.00059145
22 *349:27 *728:15 0.000613405
23 *351:13 *728:15 0.00134312
24 *351:15 *728:15 0.000534904
25 *352:9 *728:15 0.000549932
26 *354:15 *728:15 0.000208608
27 *355:17 *740:mem_we 2.97004e-06
28 *356:19 *728:15 0.00732036
29 *356:31 *728:11 0.0444843
30 *357:17 *728:15 0.000228694
31 *359:15 *728:15 0.000126053
32 *360:19 *728:15 0
33 *363:15 *728:15 0.00644825
34 *391:15 *728:15 0.0232886
35 *399:25 *728:15 0.000245118
36 *530:15 *728:15 0
37 *650:9 *728:9 0
38 *656:11 *728:11 0.039154
39 *689:31 *728:15 0
*RES
1 *739:mem_we_o *728:9 1.23973 
2 *728:9 *728:11 515.843 
3 *728:11 *728:13 2 
4 *728:13 *728:15 710.115 
5 *728:15 *740:mem_we 33.8375 
*END

*D_NET *729 0.566477
*CONN
*I *740:op[0] I *D ntt_engine_256
*I *739:op_o[0] O *D ntt_wb_bridge
*CAP
1 *740:op[0] 0.000739203
2 *739:op_o[0] 0.000963276
3 *729:35 0.0195238
4 *729:33 0.0188867
5 *729:27 0.00207465
6 *729:25 0.00197254
7 *729:23 0.0109189
8 *729:21 0.0110289
9 *729:15 0.0109955
10 *729:13 0.0108854
11 *729:11 0.0202583
12 *729:9 0.0212215
13 *729:9 *730:7 0
14 *729:11 *731:11 0
15 *729:11 *734:27 0
16 *729:11 *736:11 0.0475333
17 *729:15 *737:34 0
18 *729:23 *737:42 4.08503e-05
19 la_data_out[23] *729:21 0.000235804
20 *740:mem_wdata[14] *729:35 0.0010758
21 *76:19 *729:9 0.00020347
22 *79:23 *729:9 0.000318057
23 *80:179 *729:27 0
24 *94:85 *729:27 0.000581125
25 *94:85 *729:35 0.000404558
26 *116:137 *729:27 0
27 *335:15 *729:15 0.00481377
28 *338:37 *729:23 1.14185e-05
29 *339:37 *729:15 0.00104174
30 *340:29 *729:15 0.00068845
31 *346:37 *729:21 0
32 *347:23 *729:15 0.000486825
33 *352:9 *729:15 0.000387484
34 *357:17 *729:15 0.000320041
35 *360:79 *729:11 0
36 *362:15 *729:15 0.00941073
37 *650:11 *729:11 0.00270147
38 *689:11 *729:35 0.00393734
39 *689:19 *729:27 0.000767024
40 *689:23 *729:23 0.060476
41 *689:29 *729:21 0.000280588
42 *689:31 *729:15 0.0851917
43 *701:22 *729:35 0.00979573
44 *702:11 *729:11 0.00564189
45 *706:27 *729:35 0.0146431
46 *709:25 *740:op[0] 7.70373e-06
47 *716:23 *729:23 3.92213e-05
48 *716:27 *729:35 0.0318638
49 *717:27 *729:27 0.00335327
50 *722:11 *729:11 0
51 *726:15 *729:15 0.0841374
52 *726:23 *729:23 0.060382
53 *726:27 *729:35 5.53e-05
54 *727:11 *729:11 0.00618097
55 *727:19 *729:11 0
*RES
1 *739:op_o[0] *729:9 2.45827 
2 *729:9 *729:11 577.297 
3 *729:11 *729:13 2 
4 *729:13 *729:15 771.18 
5 *729:15 *729:21 6.3025 
6 *729:21 *729:23 92.3907 
7 *729:23 *729:25 0.5 
8 *729:25 *729:27 53.145 
9 *729:27 *729:33 1.18367 
10 *729:33 *729:35 114.509 
11 *729:35 *740:op[0] 1.9934 
*END

*D_NET *730 0.360116
*CONN
*I *740:op[1] I *D ntt_engine_256
*I *739:op_o[1] O *D ntt_wb_bridge
*CAP
1 *740:op[1] 0.000564931
2 *739:op_o[1] 2.1597e-05
3 *730:19 0.0362275
4 *730:17 0.0464822
5 *730:7 0.0433909
6 *730:5 0.0325929
7 *730:17 *738:11 0.00949816
8 *730:19 *738:11 0.00529278
9 *730:19 *738:19 0
10 *74:17 *730:17 0.00718783
11 *78:29 *730:7 0
12 *104:23 *730:17 0
13 *674:11 *730:19 0.0889296
14 *682:15 *730:19 0.0495341
15 *682:31 *730:19 0.00694349
16 *685:45 *730:19 0.00528839
17 *686:19 *730:19 0
18 *699:19 *730:19 0.0199862
19 *705:7 *730:17 0.000140704
20 *705:11 *730:17 4.75733e-05
21 *724:11 *730:17 0.00695569
22 *724:11 *730:19 0.00103103
23 *729:9 *730:7 0
*RES
1 *739:op_o[1] *730:5 0.0620667 
2 *730:5 *730:7 84.9908 
3 *730:7 *730:17 44.5046 
4 *730:17 *730:19 1361.81 
5 *730:19 *740:op[1] 1.61973 
*END

*D_NET *731 0.182947
*CONN
*I *740:op[2] I *D ntt_engine_256
*I *739:op_o[2] O *D ntt_wb_bridge
*CAP
1 *740:op[2] 0.000666599
2 *739:op_o[2] 0.00108944
3 *731:55 0.00585007
4 *731:53 0.0070317
5 *731:47 0.0128208
6 *731:19 0.0137794
7 *731:17 0.00407729
8 *731:11 0.0154899
9 *731:9 0.0153089
10 *731:9 *732:7 0
11 *731:11 *733:17 1.59562e-05
12 *731:11 *736:11 0
13 *731:47 *737:32 0.000114952
14 *76:19 *731:9 0.00020347
15 *79:23 *731:9 0.000318057
16 *281:17 *731:47 0.000541841
17 *282:17 *731:47 0.0001939
18 *356:31 *731:47 0
19 *360:55 *731:47 0.00594942
20 *360:79 *731:11 0
21 *665:59 *731:47 4.95724e-05
22 *687:15 *731:47 0.000564001
23 *697:15 *731:55 0.0368895
24 *702:11 *731:11 0.000706976
25 *709:11 *731:11 0.00841756
26 *722:15 *731:55 0.0368895
27 *725:11 *731:11 0.00029087
28 *726:11 *731:11 0.0156874
29 *729:11 *731:11 0
*RES
1 *739:op_o[2] *731:9 2.7496 
2 *731:9 *731:11 357.487 
3 *731:11 *731:17 23.425 
4 *731:17 *731:19 49.065 
5 *731:19 *731:47 49.6227 
6 *731:47 *731:53 4.74173 
7 *731:53 *731:55 54.4882 
8 *731:55 *740:op[2] 11.555 
*END

*D_NET *732 0.706773
*CONN
*I *740:slot_a[0] I *D ntt_engine_256
*I *739:slot_a_o[0] O *D ntt_wb_bridge
*CAP
1 *740:slot_a[0] 0.000432271
2 *739:slot_a_o[0] 2.1597e-05
3 *732:15 0.00713793
4 *732:13 0.00670566
5 *732:11 0.0348437
6 *732:9 0.0348437
7 *732:7 0.0327089
8 *732:5 0.0327305
9 *104:23 *732:11 0.00971995
10 *113:17 *732:11 4.18862e-05
11 *142:19 *732:11 0
12 *646:17 *740:slot_a[0] 0
13 *646:19 *732:15 0.0017661
14 *648:11 *732:11 0.213936
15 *648:23 *732:15 0.00710662
16 *652:123 *732:11 0.0125923
17 *653:11 *732:11 0.206336
18 *653:21 *732:15 0.000397988
19 *653:23 *732:15 0.00578043
20 *659:111 *732:11 0.0135864
21 *663:11 *732:15 0.0253898
22 *671:15 *732:15 0.0178863
23 *673:11 *732:15 0.0428092
24 *731:9 *732:7 0
*RES
1 *739:slot_a_o[0] *732:5 0.0620667 
2 *732:5 *732:7 85.4861 
3 *732:7 *732:9 0.5 
4 *732:9 *732:11 2394.04 
5 *732:11 *732:13 0.5 
6 *732:13 *732:15 64.4227 
7 *732:15 *740:slot_a[0] 7.76 
*END

*D_NET *733 0.866396
*CONN
*I *740:slot_a[1] I *D ntt_engine_256
*I *739:slot_a_o[1] O *D ntt_wb_bridge
*CAP
1 *740:slot_a[1] 0.00517198
2 *739:slot_a_o[1] 0.00158641
3 *733:35 0.030577
4 *733:33 0.025405
5 *733:31 0.0172641
6 *733:29 0.0174575
7 *733:23 0.0185742
8 *733:21 0.0183808
9 *733:19 0.00853702
10 *733:17 0.0101234
11 *739:mem_rdata_i[30] *733:19 0.000855854
12 *740:mem_wdata[22] *740:slot_a[1] 0.0182594
13 *740:mem_wdata[23] *733:29 0
14 *81:23 *733:35 0.163154
15 *102:23 *733:19 0.0110804
16 *274:15 *733:23 0
17 *276:15 *733:23 0
18 *357:27 *733:19 0.000272457
19 *360:55 *733:23 0.00111852
20 *360:79 *733:17 4.01535e-05
21 *361:19 *733:19 0
22 *365:23 *733:19 0.0489218
23 *370:19 *733:19 0.000185072
24 *371:27 *733:19 0.0485926
25 *376:21 *733:23 0.00210216
26 *384:21 *733:23 0.00418861
27 *394:15 *733:23 0.0238071
28 *396:15 *733:23 0
29 *662:13 *740:slot_a[1] 0.0057083
30 *678:11 *733:31 0.0595611
31 *689:19 *733:35 0
32 *691:11 *733:35 0.0217991
33 *695:39 *740:slot_a[1] 8.62202e-05
34 *702:23 *733:23 0
35 *702:31 *733:31 0.102489
36 *702:35 *733:35 0.000398756
37 *704:35 *733:35 0.162275
38 *716:15 *733:23 0.00436758
39 *716:23 *733:23 0.00256193
40 *716:23 *733:31 0.0136473
41 *726:27 *733:35 0.0178292
42 *731:11 *733:17 1.59562e-05
*RES
1 *739:slot_a_o[1] *733:17 16.1424 
2 *733:17 *733:19 559.32 
3 *733:19 *733:21 2 
4 *733:21 *733:23 431.355 
5 *733:23 *733:29 5.5375 
6 *733:29 *733:31 151.357 
7 *733:31 *733:33 0.5 
8 *733:33 *733:35 1825.91 
9 *733:35 *740:slot_a[1] 35.3885 
*END

*D_NET *734 0.723986
*CONN
*I *740:slot_b[0] I *D ntt_engine_256
*I *739:slot_b_o[0] O *D ntt_wb_bridge
*CAP
1 *740:slot_b[0] 0.000356152
2 *739:slot_b_o[0] 0.000956172
3 *734:67 0.0193635
4 *734:65 0.0199943
5 *734:51 0.0147946
6 *734:49 0.0141567
7 *734:43 0.0206473
8 *734:41 0.0202984
9 *734:39 0.0791522
10 *734:37 0.081053
11 *734:27 0.00504609
12 *734:25 0.00378157
13 *734:19 0.00719205
14 *734:17 0.00673251
15 *734:11 0.00567424
16 *734:9 0.00645366
17 *734:19 *735:11 0.0193481
18 *734:43 *737:46 0.0983233
19 *739:busy_i *734:25 0
20 *739:mem_rdata_i[10] *734:19 0.00285572
21 *739:mem_rvalid_i *734:25 0
22 *740:mac_init *734:43 0.00522233
23 *740:mem_wdata[7] *734:43 0.000409854
24 *80:179 *734:43 0.111775
25 *80:187 *734:51 0.0111974
26 *80:217 *734:67 0.000118966
27 *116:137 *734:51 0
28 *116:145 *734:51 0.0133694
29 *118:185 *734:51 0.00341156
30 *118:185 *734:65 0.000684685
31 *120:23 *734:65 0.000203049
32 *120:23 *734:67 0
33 *284:17 *734:19 0
34 *364:23 *734:11 0.0262984
35 *372:19 *734:11 0.0108553
36 *540:185 *734:39 0.000579495
37 *540:193 *734:65 0.00154377
38 *650:11 *734:27 0.000602531
39 *656:35 *734:43 0.00875182
40 *658:17 *734:11 0.000143766
41 *668:15 *734:37 0
42 *676:35 *734:19 0.00466272
43 *689:9 *734:49 1.8849e-05
44 *691:27 *734:27 0
45 *695:17 *734:11 0.000116894
46 *701:18 *734:37 0.0048896
47 *701:22 *734:43 0.00123688
48 *702:21 *734:27 0
49 *702:43 *734:51 0.00312063
50 *704:17 *734:11 6.31497e-05
51 *704:35 *734:51 0.0194726
52 *704:39 *734:67 0.0421855
53 *706:15 *734:37 0.00578216
54 *706:27 *734:43 0.00319401
55 *709:27 *734:51 0.00327558
56 *710:17 *734:11 4.82619e-05
57 *713:17 *734:37 0
58 *714:17 *734:11 0.000103079
59 *715:13 *734:11 8.78774e-05
60 *717:11 *734:27 0
61 *718:11 *734:27 0
62 *718:15 *734:39 0
63 *718:27 *734:43 0.0127723
64 *722:11 *734:27 0
65 *722:15 *734:37 0
66 *727:19 *734:27 0.00160861
67 *729:11 *734:27 0
*RES
1 *739:slot_b_o[0] *734:9 2.66853 
2 *734:9 *734:11 294.885 
3 *734:11 *734:17 1.3876 
4 *734:17 *734:19 217.365 
5 *734:19 *734:25 2.31987 
6 *734:25 *734:27 59.775 
7 *734:27 *734:37 11.9791 
8 *734:37 *734:39 214.255 
9 *734:39 *734:41 0.5 
10 *734:41 *734:43 1250.11 
11 *734:43 *734:49 1.7372 
12 *734:49 *734:51 542.745 
13 *734:51 *734:65 9.81847 
14 *734:65 *734:67 74.5611 
15 *734:67 *740:slot_b[0] 6.74 
*END

*D_NET *735 0.133439
*CONN
*I *740:slot_b[1] I *D ntt_engine_256
*I *739:slot_b_o[1] O *D ntt_wb_bridge
*CAP
1 *740:slot_b[1] 0.00373851
2 *739:slot_b_o[1] 0.00109201
3 *735:11 0.0186921
4 *735:9 0.0160456
5 *739:mem_rdata_i[10] *735:11 0.00311658
6 *740:mem_slot[0] *740:slot_b[1] 0.00221289
7 *284:17 *735:11 0
8 *354:25 *740:slot_b[1] 0.00707226
9 *358:25 *740:slot_b[1] 0.00137432
10 *361:15 *740:slot_b[1] 0.00235691
11 *369:15 *735:11 0.0475934
12 *372:19 *735:11 0.000172713
13 *398:17 *740:slot_b[1] 0.00840818
14 *649:15 *735:11 0.000151881
15 *676:35 *735:11 0.00206395
16 *689:35 *735:11 0
17 *709:11 *735:11 0
18 *716:11 *735:11 0
19 *734:19 *735:11 0.0193481
*RES
1 *739:slot_b_o[1] *735:9 2.95987 
2 *735:9 *735:11 556.515 
3 *735:11 *740:slot_b[1] 37.3088 
*END

*D_NET *736 0.513647
*CONN
*I *740:slot_c[0] I *D ntt_engine_256
*I *739:slot_c_o[0] O *D ntt_wb_bridge
*CAP
1 *740:slot_c[0] 0
2 *739:slot_c_o[0] 0.0010022
3 *736:27 0.0393905
4 *736:25 0.0393905
5 *736:23 0.0139431
6 *736:21 0.0142256
7 *736:15 0.0198559
8 *736:13 0.0195733
9 *736:11 0.0113654
10 *736:9 0.0123676
11 *736:15 *737:34 0
12 *740:mac_init *736:27 0.000262458
13 *740:mem_wdata[7] *736:27 0.000262458
14 *79:23 *736:9 0.000262458
15 *119:25 *736:27 0.0108642
16 *273:15 *736:15 0.00133385
17 *280:15 *736:15 0.00355544
18 *296:15 *736:15 0.00131289
19 *300:15 *736:15 0.00459536
20 *315:25 *736:23 0.000313562
21 *335:15 *736:15 0.00469245
22 *340:29 *736:15 0.00127764
23 *343:29 *736:23 0.00182533
24 *347:23 *736:15 0.000466496
25 *349:35 *736:23 0.000853429
26 *350:27 *736:23 0.000413266
27 *351:23 *736:15 0.0196837
28 *357:17 *736:15 0.000306677
29 *362:15 *736:15 0.00276562
30 *387:15 *736:15 0.000238061
31 *390:15 *736:15 0.00579702
32 *540:189 *736:27 0.0116677
33 *650:11 *736:11 0.0016054
34 *664:9 *736:27 0.000206859
35 *676:21 *736:27 0.00109443
36 *683:13 *736:27 0.000262458
37 *702:11 *736:11 0.00662768
38 *716:23 *736:23 0.0332
39 *717:11 *736:11 0.0225739
40 *717:35 *736:27 0.00563544
41 *725:11 *736:11 0.00694208
42 *726:15 *736:15 0.0830309
43 *726:23 *736:23 0.0610701
44 *726:27 *736:27 0
45 *729:11 *736:11 0.0475333
46 *731:11 *736:11 0
*RES
1 *739:slot_c_o[0] *736:9 2.4304 
2 *736:9 *736:11 535.477 
3 *736:11 *736:13 2 
4 *736:13 *736:15 751.515 
5 *736:15 *736:21 6.8125 
6 *736:21 *736:23 94.867 
7 *736:23 *736:25 0.5 
8 *736:25 *736:27 96.9811 
9 *736:27 *740:slot_c[0] 0.5 
*END

*D_NET *737 0.692285
*CONN
*I *740:slot_c[1] I *D ntt_engine_256
*I *739:slot_c_o[1] O *D ntt_wb_bridge
*CAP
1 *740:slot_c[1] 0.000846887
2 *739:slot_c_o[1] 0.0142171
3 *737:54 0.0193306
4 *737:52 0.0185664
5 *737:46 0.0178142
6 *737:44 0.0177315
7 *737:42 0.0230658
8 *737:40 0.0231136
9 *737:34 0.0337698
10 *737:32 0.0454667
11 *737:8 0.0259617
12 *740:mac_init *737:46 0.00467671
13 *740:mem_wdata[7] *737:46 0.000442845
14 *76:19 *737:8 0.000112517
15 *79:23 *737:8 0.00476196
16 *80:179 *737:46 0.00154268
17 *80:179 *737:54 0.00677307
18 *116:137 *737:54 0.00316648
19 *273:15 *737:34 0.000657347
20 *275:15 *737:34 0.0174782
21 *315:15 *737:34 0.00452884
22 *335:15 *737:34 0.00264426
23 *338:37 *737:34 0.00104779
24 *342:29 *737:34 0.000461102
25 *347:37 *737:40 0
26 *351:23 *737:34 0.000723923
27 *360:55 *737:32 0.000698723
28 *360:77 *737:32 0
29 *363:65 *737:32 0.00509396
30 *363:71 *737:8 0.000112517
31 *374:15 *737:34 0.00784367
32 *382:15 *737:32 3.92756e-05
33 *396:15 *737:34 0.0202874
34 *540:185 *737:42 0.00401033
35 *656:27 *737:46 0.0923826
36 *656:35 *737:46 0.00321218
37 *656:35 *737:54 0.0360026
38 *687:15 *737:32 0.000117824
39 *689:11 *737:54 0
40 *689:23 *737:42 0.0599088
41 *689:31 *737:34 0
42 *693:9 *737:8 0.000262458
43 *693:11 *737:8 0.00926693
44 *693:11 *737:32 0.00801038
45 *696:9 *737:8 0.000229581
46 *696:11 *737:8 0.00298838
47 *696:11 *737:32 0.00439559
48 *697:11 *737:8 0.000392883
49 *697:11 *737:32 0.0019076
50 *701:12 *737:8 0.00841585
51 *701:12 *737:32 0.00263555
52 *701:16 *737:32 0.0117059
53 *701:22 *737:46 0.00139091
54 *702:43 *737:54 0.00466649
55 *706:27 *737:46 0.0035682
56 *711:11 *737:8 0.000446202
57 *711:11 *737:32 0.000524219
58 *712:11 *737:8 0.000365617
59 *712:11 *737:32 0.00198603
60 *713:11 *737:32 0.000502115
61 *718:27 *737:46 0.0114223
62 *719:11 *737:32 0.000110459
63 *725:35 *737:46 0
64 *726:15 *737:34 0
65 *729:15 *737:34 0
66 *729:23 *737:42 4.08503e-05
67 *731:47 *737:32 0.000114952
68 *734:43 *737:46 0.0983233
69 *736:15 *737:34 0
*RES
1 *739:slot_c_o[1] *737:8 49.862 
2 *737:8 *737:32 46.2235 
3 *737:32 *737:34 766.005 
4 *737:34 *737:40 3.2425 
5 *737:40 *737:42 92.0411 
6 *737:42 *737:44 0.5 
7 *737:44 *737:46 1130.27 
8 *737:46 *737:52 1.1254 
9 *737:52 *737:54 78.7639 
10 *737:54 *740:slot_c[1] 2.343 
*END

*D_NET *738 0.376905
*CONN
*I *740:start I *D ntt_engine_256
*I *739:start_o O *D ntt_wb_bridge
*CAP
1 *740:start 0.000947208
2 *739:start_o 2.35071e-05
3 *738:19 0.0146452
4 *738:17 0.0137692
5 *738:11 0.0304202
6 *738:9 0.030349
7 *738:7 0.034787
8 *738:5 0.0348105
9 *740:mem_wdata[13] *738:19 0.00168218
10 *740:mem_wdata[16] *738:19 0.00137909
11 *74:17 *738:19 0
12 *77:41 *738:7 0.000377523
13 *104:23 *738:11 0
14 *115:21 *738:7 0.00167906
15 *654:11 *740:start 0.000318057
16 *685:45 *738:19 0.0110879
17 *690:11 *738:19 0.0694486
18 *699:15 *738:17 1.33276e-06
19 *699:19 *738:19 0.000274326
20 *708:19 *738:19 0.07604
21 *724:11 *738:11 0.0385874
22 *724:11 *738:19 0.00148691
23 *730:17 *738:11 0.00949816
24 *730:19 *738:11 0.00529278
25 *730:19 *738:19 0
*RES
1 *739:start_o *738:5 0.0620667 
2 *738:5 *738:7 84.7577 
3 *738:7 *738:9 0.5 
4 *738:9 *738:11 103.484 
5 *738:11 *738:17 1.1254 
6 *738:17 *738:19 858.945 
7 *738:19 *740:start 2.28347 
*END
