*SPEF "ieee 1481-1999"
*DESIGN "user_project_wrapper"
*DATE "11:11:11 Fri 11 11, 1111"
*VENDOR "OpenRCX"
*PROGRAM "Parallel Extraction"
*VERSION "1.0"
*DESIGN_FLOW "NAME_SCOPE LOCAL" "PIN_CAP NONE"
*DIVIDER /
*DELIMITER :
*BUS_DELIMITER []
*T_UNIT 1 NS
*C_UNIT 1 PF
*R_UNIT 1 OHM
*L_UNIT 1 HENRY

*NAME_MAP
*1 analog_io[0]
*2 analog_io[10]
*3 analog_io[11]
*4 analog_io[12]
*5 analog_io[13]
*6 analog_io[14]
*7 analog_io[15]
*8 analog_io[16]
*9 analog_io[17]
*10 analog_io[18]
*11 analog_io[19]
*12 analog_io[1]
*13 analog_io[20]
*14 analog_io[21]
*15 analog_io[22]
*16 analog_io[23]
*17 analog_io[24]
*18 analog_io[25]
*19 analog_io[26]
*20 analog_io[27]
*21 analog_io[28]
*22 analog_io[2]
*23 analog_io[3]
*24 analog_io[4]
*25 analog_io[5]
*26 analog_io[6]
*27 analog_io[7]
*28 analog_io[8]
*29 analog_io[9]
*30 io_in[0]
*31 io_in[10]
*32 io_in[11]
*33 io_in[12]
*34 io_in[13]
*35 io_in[14]
*36 io_in[15]
*37 io_in[16]
*38 io_in[17]
*39 io_in[18]
*40 io_in[19]
*41 io_in[1]
*42 io_in[20]
*43 io_in[21]
*44 io_in[22]
*45 io_in[23]
*46 io_in[24]
*47 io_in[25]
*48 io_in[26]
*49 io_in[27]
*50 io_in[28]
*51 io_in[29]
*52 io_in[2]
*53 io_in[30]
*54 io_in[31]
*55 io_in[32]
*56 io_in[33]
*57 io_in[34]
*58 io_in[35]
*59 io_in[36]
*60 io_in[37]
*61 io_in[3]
*62 io_in[4]
*63 io_in[5]
*64 io_in[6]
*65 io_in[7]
*66 io_in[8]
*67 io_in[9]
*68 io_oeb[0]
*69 io_oeb[10]
*70 io_oeb[11]
*71 io_oeb[12]
*72 io_oeb[13]
*73 io_oeb[14]
*74 io_oeb[15]
*75 io_oeb[16]
*76 io_oeb[17]
*77 io_oeb[18]
*78 io_oeb[19]
*79 io_oeb[1]
*80 io_oeb[20]
*81 io_oeb[21]
*82 io_oeb[22]
*83 io_oeb[23]
*84 io_oeb[24]
*85 io_oeb[25]
*86 io_oeb[26]
*87 io_oeb[27]
*88 io_oeb[28]
*89 io_oeb[29]
*90 io_oeb[2]
*91 io_oeb[30]
*92 io_oeb[31]
*93 io_oeb[32]
*94 io_oeb[33]
*95 io_oeb[34]
*96 io_oeb[35]
*97 io_oeb[36]
*98 io_oeb[37]
*99 io_oeb[3]
*100 io_oeb[4]
*101 io_oeb[5]
*102 io_oeb[6]
*103 io_oeb[7]
*104 io_oeb[8]
*105 io_oeb[9]
*106 io_out[0]
*107 io_out[10]
*108 io_out[11]
*109 io_out[12]
*110 io_out[13]
*111 io_out[14]
*112 io_out[15]
*113 io_out[16]
*114 io_out[17]
*115 io_out[18]
*116 io_out[19]
*117 io_out[1]
*118 io_out[20]
*119 io_out[21]
*120 io_out[22]
*121 io_out[23]
*122 io_out[24]
*123 io_out[25]
*124 io_out[26]
*125 io_out[27]
*126 io_out[28]
*127 io_out[29]
*128 io_out[2]
*129 io_out[30]
*130 io_out[31]
*131 io_out[32]
*132 io_out[33]
*133 io_out[34]
*134 io_out[35]
*135 io_out[36]
*136 io_out[37]
*137 io_out[3]
*138 io_out[4]
*139 io_out[5]
*140 io_out[6]
*141 io_out[7]
*142 io_out[8]
*143 io_out[9]
*144 la_data_in[0]
*145 la_data_in[100]
*146 la_data_in[101]
*147 la_data_in[102]
*148 la_data_in[103]
*149 la_data_in[104]
*150 la_data_in[105]
*151 la_data_in[106]
*152 la_data_in[107]
*153 la_data_in[108]
*154 la_data_in[109]
*155 la_data_in[10]
*156 la_data_in[110]
*157 la_data_in[111]
*158 la_data_in[112]
*159 la_data_in[113]
*160 la_data_in[114]
*161 la_data_in[115]
*162 la_data_in[116]
*163 la_data_in[117]
*164 la_data_in[118]
*165 la_data_in[119]
*166 la_data_in[11]
*167 la_data_in[120]
*168 la_data_in[121]
*169 la_data_in[122]
*170 la_data_in[123]
*171 la_data_in[124]
*172 la_data_in[125]
*173 la_data_in[126]
*174 la_data_in[127]
*175 la_data_in[12]
*176 la_data_in[13]
*177 la_data_in[14]
*178 la_data_in[15]
*179 la_data_in[16]
*180 la_data_in[17]
*181 la_data_in[18]
*182 la_data_in[19]
*183 la_data_in[1]
*184 la_data_in[20]
*185 la_data_in[21]
*186 la_data_in[22]
*187 la_data_in[23]
*188 la_data_in[24]
*189 la_data_in[25]
*190 la_data_in[26]
*191 la_data_in[27]
*192 la_data_in[28]
*193 la_data_in[29]
*194 la_data_in[2]
*195 la_data_in[30]
*196 la_data_in[31]
*197 la_data_in[32]
*198 la_data_in[33]
*199 la_data_in[34]
*200 la_data_in[35]
*201 la_data_in[36]
*202 la_data_in[37]
*203 la_data_in[38]
*204 la_data_in[39]
*205 la_data_in[3]
*206 la_data_in[40]
*207 la_data_in[41]
*208 la_data_in[42]
*209 la_data_in[43]
*210 la_data_in[44]
*211 la_data_in[45]
*212 la_data_in[46]
*213 la_data_in[47]
*214 la_data_in[48]
*215 la_data_in[49]
*216 la_data_in[4]
*217 la_data_in[50]
*218 la_data_in[51]
*219 la_data_in[52]
*220 la_data_in[53]
*221 la_data_in[54]
*222 la_data_in[55]
*223 la_data_in[56]
*224 la_data_in[57]
*225 la_data_in[58]
*226 la_data_in[59]
*227 la_data_in[5]
*228 la_data_in[60]
*229 la_data_in[61]
*230 la_data_in[62]
*231 la_data_in[63]
*232 la_data_in[64]
*233 la_data_in[65]
*234 la_data_in[66]
*235 la_data_in[67]
*236 la_data_in[68]
*237 la_data_in[69]
*238 la_data_in[6]
*239 la_data_in[70]
*240 la_data_in[71]
*241 la_data_in[72]
*242 la_data_in[73]
*243 la_data_in[74]
*244 la_data_in[75]
*245 la_data_in[76]
*246 la_data_in[77]
*247 la_data_in[78]
*248 la_data_in[79]
*249 la_data_in[7]
*250 la_data_in[80]
*251 la_data_in[81]
*252 la_data_in[82]
*253 la_data_in[83]
*254 la_data_in[84]
*255 la_data_in[85]
*256 la_data_in[86]
*257 la_data_in[87]
*258 la_data_in[88]
*259 la_data_in[89]
*260 la_data_in[8]
*261 la_data_in[90]
*262 la_data_in[91]
*263 la_data_in[92]
*264 la_data_in[93]
*265 la_data_in[94]
*266 la_data_in[95]
*267 la_data_in[96]
*268 la_data_in[97]
*269 la_data_in[98]
*270 la_data_in[99]
*271 la_data_in[9]
*272 la_data_out[0]
*273 la_data_out[100]
*274 la_data_out[101]
*275 la_data_out[102]
*276 la_data_out[103]
*277 la_data_out[104]
*278 la_data_out[105]
*279 la_data_out[106]
*280 la_data_out[107]
*281 la_data_out[108]
*282 la_data_out[109]
*283 la_data_out[10]
*284 la_data_out[110]
*285 la_data_out[111]
*286 la_data_out[112]
*287 la_data_out[113]
*288 la_data_out[114]
*289 la_data_out[115]
*290 la_data_out[116]
*291 la_data_out[117]
*292 la_data_out[118]
*293 la_data_out[119]
*294 la_data_out[11]
*295 la_data_out[120]
*296 la_data_out[121]
*297 la_data_out[122]
*298 la_data_out[123]
*299 la_data_out[124]
*300 la_data_out[125]
*301 la_data_out[126]
*302 la_data_out[127]
*303 la_data_out[12]
*304 la_data_out[13]
*305 la_data_out[14]
*306 la_data_out[15]
*307 la_data_out[16]
*308 la_data_out[17]
*309 la_data_out[18]
*310 la_data_out[19]
*311 la_data_out[1]
*312 la_data_out[20]
*313 la_data_out[21]
*314 la_data_out[22]
*315 la_data_out[23]
*316 la_data_out[24]
*317 la_data_out[25]
*318 la_data_out[26]
*319 la_data_out[27]
*320 la_data_out[28]
*321 la_data_out[29]
*322 la_data_out[2]
*323 la_data_out[30]
*324 la_data_out[31]
*325 la_data_out[32]
*326 la_data_out[33]
*327 la_data_out[34]
*328 la_data_out[35]
*329 la_data_out[36]
*330 la_data_out[37]
*331 la_data_out[38]
*332 la_data_out[39]
*333 la_data_out[3]
*334 la_data_out[40]
*335 la_data_out[41]
*336 la_data_out[42]
*337 la_data_out[43]
*338 la_data_out[44]
*339 la_data_out[45]
*340 la_data_out[46]
*341 la_data_out[47]
*342 la_data_out[48]
*343 la_data_out[49]
*344 la_data_out[4]
*345 la_data_out[50]
*346 la_data_out[51]
*347 la_data_out[52]
*348 la_data_out[53]
*349 la_data_out[54]
*350 la_data_out[55]
*351 la_data_out[56]
*352 la_data_out[57]
*353 la_data_out[58]
*354 la_data_out[59]
*355 la_data_out[5]
*356 la_data_out[60]
*357 la_data_out[61]
*358 la_data_out[62]
*359 la_data_out[63]
*360 la_data_out[64]
*361 la_data_out[65]
*362 la_data_out[66]
*363 la_data_out[67]
*364 la_data_out[68]
*365 la_data_out[69]
*366 la_data_out[6]
*367 la_data_out[70]
*368 la_data_out[71]
*369 la_data_out[72]
*370 la_data_out[73]
*371 la_data_out[74]
*372 la_data_out[75]
*373 la_data_out[76]
*374 la_data_out[77]
*375 la_data_out[78]
*376 la_data_out[79]
*377 la_data_out[7]
*378 la_data_out[80]
*379 la_data_out[81]
*380 la_data_out[82]
*381 la_data_out[83]
*382 la_data_out[84]
*383 la_data_out[85]
*384 la_data_out[86]
*385 la_data_out[87]
*386 la_data_out[88]
*387 la_data_out[89]
*388 la_data_out[8]
*389 la_data_out[90]
*390 la_data_out[91]
*391 la_data_out[92]
*392 la_data_out[93]
*393 la_data_out[94]
*394 la_data_out[95]
*395 la_data_out[96]
*396 la_data_out[97]
*397 la_data_out[98]
*398 la_data_out[99]
*399 la_data_out[9]
*400 la_oenb[0]
*401 la_oenb[100]
*402 la_oenb[101]
*403 la_oenb[102]
*404 la_oenb[103]
*405 la_oenb[104]
*406 la_oenb[105]
*407 la_oenb[106]
*408 la_oenb[107]
*409 la_oenb[108]
*410 la_oenb[109]
*411 la_oenb[10]
*412 la_oenb[110]
*413 la_oenb[111]
*414 la_oenb[112]
*415 la_oenb[113]
*416 la_oenb[114]
*417 la_oenb[115]
*418 la_oenb[116]
*419 la_oenb[117]
*420 la_oenb[118]
*421 la_oenb[119]
*422 la_oenb[11]
*423 la_oenb[120]
*424 la_oenb[121]
*425 la_oenb[122]
*426 la_oenb[123]
*427 la_oenb[124]
*428 la_oenb[125]
*429 la_oenb[126]
*430 la_oenb[127]
*431 la_oenb[12]
*432 la_oenb[13]
*433 la_oenb[14]
*434 la_oenb[15]
*435 la_oenb[16]
*436 la_oenb[17]
*437 la_oenb[18]
*438 la_oenb[19]
*439 la_oenb[1]
*440 la_oenb[20]
*441 la_oenb[21]
*442 la_oenb[22]
*443 la_oenb[23]
*444 la_oenb[24]
*445 la_oenb[25]
*446 la_oenb[26]
*447 la_oenb[27]
*448 la_oenb[28]
*449 la_oenb[29]
*450 la_oenb[2]
*451 la_oenb[30]
*452 la_oenb[31]
*453 la_oenb[32]
*454 la_oenb[33]
*455 la_oenb[34]
*456 la_oenb[35]
*457 la_oenb[36]
*458 la_oenb[37]
*459 la_oenb[38]
*460 la_oenb[39]
*461 la_oenb[3]
*462 la_oenb[40]
*463 la_oenb[41]
*464 la_oenb[42]
*465 la_oenb[43]
*466 la_oenb[44]
*467 la_oenb[45]
*468 la_oenb[46]
*469 la_oenb[47]
*470 la_oenb[48]
*471 la_oenb[49]
*472 la_oenb[4]
*473 la_oenb[50]
*474 la_oenb[51]
*475 la_oenb[52]
*476 la_oenb[53]
*477 la_oenb[54]
*478 la_oenb[55]
*479 la_oenb[56]
*480 la_oenb[57]
*481 la_oenb[58]
*482 la_oenb[59]
*483 la_oenb[5]
*484 la_oenb[60]
*485 la_oenb[61]
*486 la_oenb[62]
*487 la_oenb[63]
*488 la_oenb[64]
*489 la_oenb[65]
*490 la_oenb[66]
*491 la_oenb[67]
*492 la_oenb[68]
*493 la_oenb[69]
*494 la_oenb[6]
*495 la_oenb[70]
*496 la_oenb[71]
*497 la_oenb[72]
*498 la_oenb[73]
*499 la_oenb[74]
*500 la_oenb[75]
*501 la_oenb[76]
*502 la_oenb[77]
*503 la_oenb[78]
*504 la_oenb[79]
*505 la_oenb[7]
*506 la_oenb[80]
*507 la_oenb[81]
*508 la_oenb[82]
*509 la_oenb[83]
*510 la_oenb[84]
*511 la_oenb[85]
*512 la_oenb[86]
*513 la_oenb[87]
*514 la_oenb[88]
*515 la_oenb[89]
*516 la_oenb[8]
*517 la_oenb[90]
*518 la_oenb[91]
*519 la_oenb[92]
*520 la_oenb[93]
*521 la_oenb[94]
*522 la_oenb[95]
*523 la_oenb[96]
*524 la_oenb[97]
*525 la_oenb[98]
*526 la_oenb[99]
*527 la_oenb[9]
*528 user_clock2
*529 user_irq[0]
*530 user_irq[1]
*531 user_irq[2]
*540 wb_clk_i
*541 wb_rst_i
*542 wbs_ack_o
*543 wbs_adr_i[0]
*544 wbs_adr_i[10]
*545 wbs_adr_i[11]
*546 wbs_adr_i[12]
*547 wbs_adr_i[13]
*548 wbs_adr_i[14]
*549 wbs_adr_i[15]
*550 wbs_adr_i[16]
*551 wbs_adr_i[17]
*552 wbs_adr_i[18]
*553 wbs_adr_i[19]
*554 wbs_adr_i[1]
*555 wbs_adr_i[20]
*556 wbs_adr_i[21]
*557 wbs_adr_i[22]
*558 wbs_adr_i[23]
*559 wbs_adr_i[24]
*560 wbs_adr_i[25]
*561 wbs_adr_i[26]
*562 wbs_adr_i[27]
*563 wbs_adr_i[28]
*564 wbs_adr_i[29]
*565 wbs_adr_i[2]
*566 wbs_adr_i[30]
*567 wbs_adr_i[31]
*568 wbs_adr_i[3]
*569 wbs_adr_i[4]
*570 wbs_adr_i[5]
*571 wbs_adr_i[6]
*572 wbs_adr_i[7]
*573 wbs_adr_i[8]
*574 wbs_adr_i[9]
*575 wbs_cyc_i
*576 wbs_dat_i[0]
*577 wbs_dat_i[10]
*578 wbs_dat_i[11]
*579 wbs_dat_i[12]
*580 wbs_dat_i[13]
*581 wbs_dat_i[14]
*582 wbs_dat_i[15]
*583 wbs_dat_i[16]
*584 wbs_dat_i[17]
*585 wbs_dat_i[18]
*586 wbs_dat_i[19]
*587 wbs_dat_i[1]
*588 wbs_dat_i[20]
*589 wbs_dat_i[21]
*590 wbs_dat_i[22]
*591 wbs_dat_i[23]
*592 wbs_dat_i[24]
*593 wbs_dat_i[25]
*594 wbs_dat_i[26]
*595 wbs_dat_i[27]
*596 wbs_dat_i[28]
*597 wbs_dat_i[29]
*598 wbs_dat_i[2]
*599 wbs_dat_i[30]
*600 wbs_dat_i[31]
*601 wbs_dat_i[3]
*602 wbs_dat_i[4]
*603 wbs_dat_i[5]
*604 wbs_dat_i[6]
*605 wbs_dat_i[7]
*606 wbs_dat_i[8]
*607 wbs_dat_i[9]
*608 wbs_dat_o[0]
*609 wbs_dat_o[10]
*610 wbs_dat_o[11]
*611 wbs_dat_o[12]
*612 wbs_dat_o[13]
*613 wbs_dat_o[14]
*614 wbs_dat_o[15]
*615 wbs_dat_o[16]
*616 wbs_dat_o[17]
*617 wbs_dat_o[18]
*618 wbs_dat_o[19]
*619 wbs_dat_o[1]
*620 wbs_dat_o[20]
*621 wbs_dat_o[21]
*622 wbs_dat_o[22]
*623 wbs_dat_o[23]
*624 wbs_dat_o[24]
*625 wbs_dat_o[25]
*626 wbs_dat_o[26]
*627 wbs_dat_o[27]
*628 wbs_dat_o[28]
*629 wbs_dat_o[29]
*630 wbs_dat_o[2]
*631 wbs_dat_o[30]
*632 wbs_dat_o[31]
*633 wbs_dat_o[3]
*634 wbs_dat_o[4]
*635 wbs_dat_o[5]
*636 wbs_dat_o[6]
*637 wbs_dat_o[7]
*638 wbs_dat_o[8]
*639 wbs_dat_o[9]
*640 wbs_sel_i[0]
*641 wbs_sel_i[1]
*642 wbs_sel_i[2]
*643 wbs_sel_i[3]
*644 wbs_stb_i
*645 wbs_we_i
*646 ntt\.busy
*647 ntt\.done
*648 ntt\.engine_rst_n
*649 ntt\.ext_rvalid_o
*650 ntt\.mac_init
*651 ntt\.mem_addr\[0\]
*652 ntt\.mem_addr\[1\]
*653 ntt\.mem_addr\[2\]
*654 ntt\.mem_addr\[3\]
*655 ntt\.mem_addr\[4\]
*656 ntt\.mem_addr\[5\]
*657 ntt\.mem_addr\[6\]
*658 ntt\.mem_addr\[7\]
*659 ntt\.mem_addr\[8\]
*660 ntt\.mem_rdata\[0\]
*661 ntt\.mem_rdata\[10\]
*662 ntt\.mem_rdata\[11\]
*663 ntt\.mem_rdata\[12\]
*664 ntt\.mem_rdata\[13\]
*665 ntt\.mem_rdata\[14\]
*666 ntt\.mem_rdata\[15\]
*667 ntt\.mem_rdata\[16\]
*668 ntt\.mem_rdata\[17\]
*669 ntt\.mem_rdata\[18\]
*670 ntt\.mem_rdata\[19\]
*671 ntt\.mem_rdata\[1\]
*672 ntt\.mem_rdata\[20\]
*673 ntt\.mem_rdata\[21\]
*674 ntt\.mem_rdata\[22\]
*675 ntt\.mem_rdata\[23\]
*676 ntt\.mem_rdata\[24\]
*677 ntt\.mem_rdata\[25\]
*678 ntt\.mem_rdata\[26\]
*679 ntt\.mem_rdata\[27\]
*680 ntt\.mem_rdata\[28\]
*681 ntt\.mem_rdata\[29\]
*682 ntt\.mem_rdata\[2\]
*683 ntt\.mem_rdata\[30\]
*684 ntt\.mem_rdata\[31\]
*685 ntt\.mem_rdata\[3\]
*686 ntt\.mem_rdata\[4\]
*687 ntt\.mem_rdata\[5\]
*688 ntt\.mem_rdata\[6\]
*689 ntt\.mem_rdata\[7\]
*690 ntt\.mem_rdata\[8\]
*691 ntt\.mem_rdata\[9\]
*692 ntt\.mem_re
*693 ntt\.mem_slot\[0\]
*694 ntt\.mem_slot\[1\]
*695 ntt\.mem_target
*696 ntt\.mem_wdata\[0\]
*697 ntt\.mem_wdata\[10\]
*698 ntt\.mem_wdata\[11\]
*699 ntt\.mem_wdata\[12\]
*700 ntt\.mem_wdata\[13\]
*701 ntt\.mem_wdata\[14\]
*702 ntt\.mem_wdata\[15\]
*703 ntt\.mem_wdata\[16\]
*704 ntt\.mem_wdata\[17\]
*705 ntt\.mem_wdata\[18\]
*706 ntt\.mem_wdata\[19\]
*707 ntt\.mem_wdata\[1\]
*708 ntt\.mem_wdata\[20\]
*709 ntt\.mem_wdata\[21\]
*710 ntt\.mem_wdata\[22\]
*711 ntt\.mem_wdata\[23\]
*712 ntt\.mem_wdata\[24\]
*713 ntt\.mem_wdata\[25\]
*714 ntt\.mem_wdata\[26\]
*715 ntt\.mem_wdata\[27\]
*716 ntt\.mem_wdata\[28\]
*717 ntt\.mem_wdata\[29\]
*718 ntt\.mem_wdata\[2\]
*719 ntt\.mem_wdata\[30\]
*720 ntt\.mem_wdata\[31\]
*721 ntt\.mem_wdata\[3\]
*722 ntt\.mem_wdata\[4\]
*723 ntt\.mem_wdata\[5\]
*724 ntt\.mem_wdata\[6\]
*725 ntt\.mem_wdata\[7\]
*726 ntt\.mem_wdata\[8\]
*727 ntt\.mem_wdata\[9\]
*728 ntt\.mem_we
*729 ntt\.op\[0\]
*730 ntt\.op\[1\]
*731 ntt\.op\[2\]
*732 ntt\.slot_a\[0\]
*733 ntt\.slot_a\[1\]
*734 ntt\.slot_b\[0\]
*735 ntt\.slot_b\[1\]
*736 ntt\.slot_c\[0\]
*737 ntt\.slot_c\[1\]
*738 ntt\.start
*739 ntt\.u_bridge
*740 ntt\.u_engine

*PORTS
analog_io[0] I
analog_io[10] I
analog_io[11] I
analog_io[12] I
analog_io[13] I
analog_io[14] I
analog_io[15] I
analog_io[16] I
analog_io[17] I
analog_io[18] I
analog_io[19] I
analog_io[1] I
analog_io[20] I
analog_io[21] I
analog_io[22] I
analog_io[23] I
analog_io[24] I
analog_io[25] I
analog_io[26] I
analog_io[27] I
analog_io[28] I
analog_io[2] I
analog_io[3] I
analog_io[4] I
analog_io[5] I
analog_io[6] I
analog_io[7] I
analog_io[8] I
analog_io[9] I
io_in[0] I
io_in[10] I
io_in[11] I
io_in[12] I
io_in[13] I
io_in[14] I
io_in[15] I
io_in[16] I
io_in[17] I
io_in[18] I
io_in[19] I
io_in[1] I
io_in[20] I
io_in[21] I
io_in[22] I
io_in[23] I
io_in[24] I
io_in[25] I
io_in[26] I
io_in[27] I
io_in[28] I
io_in[29] I
io_in[2] I
io_in[30] I
io_in[31] I
io_in[32] I
io_in[33] I
io_in[34] I
io_in[35] I
io_in[36] I
io_in[37] I
io_in[3] I
io_in[4] I
io_in[5] I
io_in[6] I
io_in[7] I
io_in[8] I
io_in[9] I
io_oeb[0] O
io_oeb[10] O
io_oeb[11] O
io_oeb[12] O
io_oeb[13] O
io_oeb[14] O
io_oeb[15] O
io_oeb[16] O
io_oeb[17] O
io_oeb[18] O
io_oeb[19] O
io_oeb[1] O
io_oeb[20] O
io_oeb[21] O
io_oeb[22] O
io_oeb[23] O
io_oeb[24] O
io_oeb[25] O
io_oeb[26] O
io_oeb[27] O
io_oeb[28] O
io_oeb[29] O
io_oeb[2] O
io_oeb[30] O
io_oeb[31] O
io_oeb[32] O
io_oeb[33] O
io_oeb[34] O
io_oeb[35] O
io_oeb[36] O
io_oeb[37] O
io_oeb[3] O
io_oeb[4] O
io_oeb[5] O
io_oeb[6] O
io_oeb[7] O
io_oeb[8] O
io_oeb[9] O
io_out[0] O
io_out[10] O
io_out[11] O
io_out[12] O
io_out[13] O
io_out[14] O
io_out[15] O
io_out[16] O
io_out[17] O
io_out[18] O
io_out[19] O
io_out[1] O
io_out[20] O
io_out[21] O
io_out[22] O
io_out[23] O
io_out[24] O
io_out[25] O
io_out[26] O
io_out[27] O
io_out[28] O
io_out[29] O
io_out[2] O
io_out[30] O
io_out[31] O
io_out[32] O
io_out[33] O
io_out[34] O
io_out[35] O
io_out[36] O
io_out[37] O
io_out[3] O
io_out[4] O
io_out[5] O
io_out[6] O
io_out[7] O
io_out[8] O
io_out[9] O
la_data_in[0] I
la_data_in[100] I
la_data_in[101] I
la_data_in[102] I
la_data_in[103] I
la_data_in[104] I
la_data_in[105] I
la_data_in[106] I
la_data_in[107] I
la_data_in[108] I
la_data_in[109] I
la_data_in[10] I
la_data_in[110] I
la_data_in[111] I
la_data_in[112] I
la_data_in[113] I
la_data_in[114] I
la_data_in[115] I
la_data_in[116] I
la_data_in[117] I
la_data_in[118] I
la_data_in[119] I
la_data_in[11] I
la_data_in[120] I
la_data_in[121] I
la_data_in[122] I
la_data_in[123] I
la_data_in[124] I
la_data_in[125] I
la_data_in[126] I
la_data_in[127] I
la_data_in[12] I
la_data_in[13] I
la_data_in[14] I
la_data_in[15] I
la_data_in[16] I
la_data_in[17] I
la_data_in[18] I
la_data_in[19] I
la_data_in[1] I
la_data_in[20] I
la_data_in[21] I
la_data_in[22] I
la_data_in[23] I
la_data_in[24] I
la_data_in[25] I
la_data_in[26] I
la_data_in[27] I
la_data_in[28] I
la_data_in[29] I
la_data_in[2] I
la_data_in[30] I
la_data_in[31] I
la_data_in[32] I
la_data_in[33] I
la_data_in[34] I
la_data_in[35] I
la_data_in[36] I
la_data_in[37] I
la_data_in[38] I
la_data_in[39] I
la_data_in[3] I
la_data_in[40] I
la_data_in[41] I
la_data_in[42] I
la_data_in[43] I
la_data_in[44] I
la_data_in[45] I
la_data_in[46] I
la_data_in[47] I
la_data_in[48] I
la_data_in[49] I
la_data_in[4] I
la_data_in[50] I
la_data_in[51] I
la_data_in[52] I
la_data_in[53] I
la_data_in[54] I
la_data_in[55] I
la_data_in[56] I
la_data_in[57] I
la_data_in[58] I
la_data_in[59] I
la_data_in[5] I
la_data_in[60] I
la_data_in[61] I
la_data_in[62] I
la_data_in[63] I
la_data_in[64] I
la_data_in[65] I
la_data_in[66] I
la_data_in[67] I
la_data_in[68] I
la_data_in[69] I
la_data_in[6] I
la_data_in[70] I
la_data_in[71] I
la_data_in[72] I
la_data_in[73] I
la_data_in[74] I
la_data_in[75] I
la_data_in[76] I
la_data_in[77] I
la_data_in[78] I
la_data_in[79] I
la_data_in[7] I
la_data_in[80] I
la_data_in[81] I
la_data_in[82] I
la_data_in[83] I
la_data_in[84] I
la_data_in[85] I
la_data_in[86] I
la_data_in[87] I
la_data_in[88] I
la_data_in[89] I
la_data_in[8] I
la_data_in[90] I
la_data_in[91] I
la_data_in[92] I
la_data_in[93] I
la_data_in[94] I
la_data_in[95] I
la_data_in[96] I
la_data_in[97] I
la_data_in[98] I
la_data_in[99] I
la_data_in[9] I
la_data_out[0] O
la_data_out[100] O
la_data_out[101] O
la_data_out[102] O
la_data_out[103] O
la_data_out[104] O
la_data_out[105] O
la_data_out[106] O
la_data_out[107] O
la_data_out[108] O
la_data_out[109] O
la_data_out[10] O
la_data_out[110] O
la_data_out[111] O
la_data_out[112] O
la_data_out[113] O
la_data_out[114] O
la_data_out[115] O
la_data_out[116] O
la_data_out[117] O
la_data_out[118] O
la_data_out[119] O
la_data_out[11] O
la_data_out[120] O
la_data_out[121] O
la_data_out[122] O
la_data_out[123] O
la_data_out[124] O
la_data_out[125] O
la_data_out[126] O
la_data_out[127] O
la_data_out[12] O
la_data_out[13] O
la_data_out[14] O
la_data_out[15] O
la_data_out[16] O
la_data_out[17] O
la_data_out[18] O
la_data_out[19] O
la_data_out[1] O
la_data_out[20] O
la_data_out[21] O
la_data_out[22] O
la_data_out[23] O
la_data_out[24] O
la_data_out[25] O
la_data_out[26] O
la_data_out[27] O
la_data_out[28] O
la_data_out[29] O
la_data_out[2] O
la_data_out[30] O
la_data_out[31] O
la_data_out[32] O
la_data_out[33] O
la_data_out[34] O
la_data_out[35] O
la_data_out[36] O
la_data_out[37] O
la_data_out[38] O
la_data_out[39] O
la_data_out[3] O
la_data_out[40] O
la_data_out[41] O
la_data_out[42] O
la_data_out[43] O
la_data_out[44] O
la_data_out[45] O
la_data_out[46] O
la_data_out[47] O
la_data_out[48] O
la_data_out[49] O
la_data_out[4] O
la_data_out[50] O
la_data_out[51] O
la_data_out[52] O
la_data_out[53] O
la_data_out[54] O
la_data_out[55] O
la_data_out[56] O
la_data_out[57] O
la_data_out[58] O
la_data_out[59] O
la_data_out[5] O
la_data_out[60] O
la_data_out[61] O
la_data_out[62] O
la_data_out[63] O
la_data_out[64] O
la_data_out[65] O
la_data_out[66] O
la_data_out[67] O
la_data_out[68] O
la_data_out[69] O
la_data_out[6] O
la_data_out[70] O
la_data_out[71] O
la_data_out[72] O
la_data_out[73] O
la_data_out[74] O
la_data_out[75] O
la_data_out[76] O
la_data_out[77] O
la_data_out[78] O
la_data_out[79] O
la_data_out[7] O
la_data_out[80] O
la_data_out[81] O
la_data_out[82] O
la_data_out[83] O
la_data_out[84] O
la_data_out[85] O
la_data_out[86] O
la_data_out[87] O
la_data_out[88] O
la_data_out[89] O
la_data_out[8] O
la_data_out[90] O
la_data_out[91] O
la_data_out[92] O
la_data_out[93] O
la_data_out[94] O
la_data_out[95] O
la_data_out[96] O
la_data_out[97] O
la_data_out[98] O
la_data_out[99] O
la_data_out[9] O
la_oenb[0] I
la_oenb[100] I
la_oenb[101] I
la_oenb[102] I
la_oenb[103] I
la_oenb[104] I
la_oenb[105] I
la_oenb[106] I
la_oenb[107] I
la_oenb[108] I
la_oenb[109] I
la_oenb[10] I
la_oenb[110] I
la_oenb[111] I
la_oenb[112] I
la_oenb[113] I
la_oenb[114] I
la_oenb[115] I
la_oenb[116] I
la_oenb[117] I
la_oenb[118] I
la_oenb[119] I
la_oenb[11] I
la_oenb[120] I
la_oenb[121] I
la_oenb[122] I
la_oenb[123] I
la_oenb[124] I
la_oenb[125] I
la_oenb[126] I
la_oenb[127] I
la_oenb[12] I
la_oenb[13] I
la_oenb[14] I
la_oenb[15] I
la_oenb[16] I
la_oenb[17] I
la_oenb[18] I
la_oenb[19] I
la_oenb[1] I
la_oenb[20] I
la_oenb[21] I
la_oenb[22] I
la_oenb[23] I
la_oenb[24] I
la_oenb[25] I
la_oenb[26] I
la_oenb[27] I
la_oenb[28] I
la_oenb[29] I
la_oenb[2] I
la_oenb[30] I
la_oenb[31] I
la_oenb[32] I
la_oenb[33] I
la_oenb[34] I
la_oenb[35] I
la_oenb[36] I
la_oenb[37] I
la_oenb[38] I
la_oenb[39] I
la_oenb[3] I
la_oenb[40] I
la_oenb[41] I
la_oenb[42] I
la_oenb[43] I
la_oenb[44] I
la_oenb[45] I
la_oenb[46] I
la_oenb[47] I
la_oenb[48] I
la_oenb[49] I
la_oenb[4] I
la_oenb[50] I
la_oenb[51] I
la_oenb[52] I
la_oenb[53] I
la_oenb[54] I
la_oenb[55] I
la_oenb[56] I
la_oenb[57] I
la_oenb[58] I
la_oenb[59] I
la_oenb[5] I
la_oenb[60] I
la_oenb[61] I
la_oenb[62] I
la_oenb[63] I
la_oenb[64] I
la_oenb[65] I
la_oenb[66] I
la_oenb[67] I
la_oenb[68] I
la_oenb[69] I
la_oenb[6] I
la_oenb[70] I
la_oenb[71] I
la_oenb[72] I
la_oenb[73] I
la_oenb[74] I
la_oenb[75] I
la_oenb[76] I
la_oenb[77] I
la_oenb[78] I
la_oenb[79] I
la_oenb[7] I
la_oenb[80] I
la_oenb[81] I
la_oenb[82] I
la_oenb[83] I
la_oenb[84] I
la_oenb[85] I
la_oenb[86] I
la_oenb[87] I
la_oenb[88] I
la_oenb[89] I
la_oenb[8] I
la_oenb[90] I
la_oenb[91] I
la_oenb[92] I
la_oenb[93] I
la_oenb[94] I
la_oenb[95] I
la_oenb[96] I
la_oenb[97] I
la_oenb[98] I
la_oenb[99] I
la_oenb[9] I
user_clock2 I
user_irq[0] O
user_irq[1] O
user_irq[2] O
wb_clk_i I
wb_rst_i I
wbs_ack_o O
wbs_adr_i[0] I
wbs_adr_i[10] I
wbs_adr_i[11] I
wbs_adr_i[12] I
wbs_adr_i[13] I
wbs_adr_i[14] I
wbs_adr_i[15] I
wbs_adr_i[16] I
wbs_adr_i[17] I
wbs_adr_i[18] I
wbs_adr_i[19] I
wbs_adr_i[1] I
wbs_adr_i[20] I
wbs_adr_i[21] I
wbs_adr_i[22] I
wbs_adr_i[23] I
wbs_adr_i[24] I
wbs_adr_i[25] I
wbs_adr_i[26] I
wbs_adr_i[27] I
wbs_adr_i[28] I
wbs_adr_i[29] I
wbs_adr_i[2] I
wbs_adr_i[30] I
wbs_adr_i[31] I
wbs_adr_i[3] I
wbs_adr_i[4] I
wbs_adr_i[5] I
wbs_adr_i[6] I
wbs_adr_i[7] I
wbs_adr_i[8] I
wbs_adr_i[9] I
wbs_cyc_i I
wbs_dat_i[0] I
wbs_dat_i[10] I
wbs_dat_i[11] I
wbs_dat_i[12] I
wbs_dat_i[13] I
wbs_dat_i[14] I
wbs_dat_i[15] I
wbs_dat_i[16] I
wbs_dat_i[17] I
wbs_dat_i[18] I
wbs_dat_i[19] I
wbs_dat_i[1] I
wbs_dat_i[20] I
wbs_dat_i[21] I
wbs_dat_i[22] I
wbs_dat_i[23] I
wbs_dat_i[24] I
wbs_dat_i[25] I
wbs_dat_i[26] I
wbs_dat_i[27] I
wbs_dat_i[28] I
wbs_dat_i[29] I
wbs_dat_i[2] I
wbs_dat_i[30] I
wbs_dat_i[31] I
wbs_dat_i[3] I
wbs_dat_i[4] I
wbs_dat_i[5] I
wbs_dat_i[6] I
wbs_dat_i[7] I
wbs_dat_i[8] I
wbs_dat_i[9] I
wbs_dat_o[0] O
wbs_dat_o[10] O
wbs_dat_o[11] O
wbs_dat_o[12] O
wbs_dat_o[13] O
wbs_dat_o[14] O
wbs_dat_o[15] O
wbs_dat_o[16] O
wbs_dat_o[17] O
wbs_dat_o[18] O
wbs_dat_o[19] O
wbs_dat_o[1] O
wbs_dat_o[20] O
wbs_dat_o[21] O
wbs_dat_o[22] O
wbs_dat_o[23] O
wbs_dat_o[24] O
wbs_dat_o[25] O
wbs_dat_o[26] O
wbs_dat_o[27] O
wbs_dat_o[28] O
wbs_dat_o[29] O
wbs_dat_o[2] O
wbs_dat_o[30] O
wbs_dat_o[31] O
wbs_dat_o[3] O
wbs_dat_o[4] O
wbs_dat_o[5] O
wbs_dat_o[6] O
wbs_dat_o[7] O
wbs_dat_o[8] O
wbs_dat_o[9] O
wbs_sel_i[0] I
wbs_sel_i[1] I
wbs_sel_i[2] I
wbs_sel_i[3] I
wbs_stb_i I
wbs_we_i I

*D_NET *68 0.334213
*CONN
*P io_oeb[0] O
*I *739:io_oeb_o[0] O *D ntt_wb_bridge
*CAP
1 io_oeb[0] 0.00514069
2 *739:io_oeb_o[0] 0.00101278
3 *68:27 0.0290423
4 *68:25 0.0245244
5 *68:19 0.00961877
6 *68:17 0.0100088
7 io_oeb[0] user_irq[0] 0.000100271
8 io_oeb[0] *90:31 0.00900434
9 io_oeb[0] *128:33 0.00168127
10 *68:17 *92:23 0.000135094
11 *68:17 *137:21 0.000140426
12 *68:17 *140:13 2.11591e-05
13 *68:19 *74:23 0.0014667
14 *68:19 *76:17 8.8182e-06
15 *68:19 *76:19 0.025841
16 *68:19 *90:23 0.000409798
17 *68:19 *92:23 0.00283711
18 *68:19 *97:15 0.00340939
19 *68:19 *99:17 0.0083102
20 *68:19 *109:13 0.000397703
21 *68:19 *112:13 0.00990236
22 *68:19 *140:13 0.0467734
23 *68:19 *141:13 0.000452091
24 *68:25 *104:21 0.000879872
25 *68:27 *78:13 0.000303727
26 *68:27 *90:27 0
27 *68:27 *99:23 0.0306696
28 *68:27 *104:23 0.0838373
29 *68:27 *128:29 0
30 *68:27 *137:29 0.0282838
*RES
1 *739:io_oeb_o[0] *68:17 25.1484 
2 *68:17 *68:19 86.4379 
3 *68:19 *68:25 18.2139 
4 *68:25 *68:27 160.798 
5 *68:27 io_oeb[0] 39.9848 
*END

*D_NET *69 0.498272
*CONN
*P io_oeb[10] O
*I *739:io_oeb_o[10] O *D ntt_wb_bridge
*CAP
1 io_oeb[10] 0.00906204
2 *739:io_oeb_o[10] 0.00192151
3 *69:21 0.109634
4 *69:19 0.100572
5 *69:17 0.0389379
6 *69:15 0.0408594
7 *69:15 *99:21 0
8 *69:15 *99:23 7.56811e-05
9 *69:17 *70:18 0.00218273
10 *69:17 *98:14 0.0119735
11 *69:17 *138:13 0.0200893
12 *69:17 *353:27 0.000725658
13 *69:17 *358:31 0.0373446
14 *69:21 *103:37 0.124893
15 *69:21 *655:11 0
*RES
1 *739:io_oeb_o[10] *69:15 20.5491 
2 *69:15 *69:17 197.034 
3 *69:17 *69:19 8 
4 *69:19 *69:21 446.861 
5 *69:21 io_oeb[10] 38.2531 
*END

*D_NET *70 0.493307
*CONN
*P io_oeb[11] O
*I *739:io_oeb_o[11] O *D ntt_wb_bridge
*CAP
1 io_oeb[11] 0.0012252
2 *739:io_oeb_o[11] 0.00230441
3 *70:30 0.0073627
4 *70:28 0.0061375
5 *70:26 0.118677
6 *70:24 0.118677
7 *70:22 0.0140945
8 *70:20 0.0140945
9 *70:18 0.00230441
10 *70:18 la_data_out[62] 4.77164e-06
11 *70:18 *71:19 0
12 *70:18 *353:27 0.00217334
13 *70:22 *71:21 0.100976
14 *70:22 *73:20 0.0958606
15 *70:22 *79:14 0.0060815
16 *70:22 *95:13 0.000994189
17 *70:22 *357:31 0.000155832
18 *69:17 *70:18 0.00218273
*RES
1 *739:io_oeb_o[11] *70:18 35.5376 
2 *70:18 *70:20 15 
3 *70:20 *70:22 1080.69 
4 *70:22 *70:24 15 
5 *70:24 *70:26 2745.45 
6 *70:26 *70:28 15 
7 *70:28 *70:30 128.304 
8 *70:30 io_oeb[11] 31.4132 
*END

*D_NET *71 0.516057
*CONN
*P io_oeb[12] O
*I *739:io_oeb_o[12] O *D ntt_wb_bridge
*CAP
1 io_oeb[12] 0.00106799
2 *739:io_oeb_o[12] 0.00200468
3 *71:29 0.00619558
4 *71:27 0.00512759
5 *71:25 0.130677
6 *71:23 0.130677
7 *71:21 0.0143267
8 *71:19 0.0163314
9 *71:19 *93:19 0.000102866
10 *71:19 *96:14 0.000224424
11 *71:19 *99:23 0.000178674
12 *71:21 *72:25 0.101867
13 *71:21 *81:15 0
14 *71:21 *95:13 0.000384421
15 *71:21 *96:14 0.00577895
16 *71:21 *357:31 0.000137587
17 *70:18 *71:19 0
18 *70:22 *71:21 0.100976
*RES
1 *739:io_oeb_o[12] *71:19 43.9628 
2 *71:19 *71:21 1106.41 
3 *71:21 *71:23 15 
4 *71:23 *71:25 3024 
5 *71:25 *71:27 15 
6 *71:27 *71:29 114.011 
7 *71:29 io_oeb[12] 27.8918 
*END

*D_NET *72 0.471791
*CONN
*P io_oeb[13] O
*I *739:io_oeb_o[13] O *D ntt_wb_bridge
*CAP
1 io_oeb[13] 0.00120978
2 *739:io_oeb_o[13] 0.00170614
3 *72:33 0.00560621
4 *72:31 0.00439643
5 *72:29 0.142355
6 *72:27 0.142355
7 *72:25 0.0325943
8 *72:23 0.0343004
9 *72:23 *93:19 6.54456e-05
10 *72:23 *96:14 0.000143678
11 *72:23 *99:23 8.01802e-05
12 *72:25 *81:15 0
13 *72:25 *96:14 0.00499989
14 *72:25 *357:31 0.000112274
15 *72:29 la_data_out[123] 0
16 *71:21 *72:25 0.101867
*RES
1 *739:io_oeb_o[13] *72:23 43.2672 
2 *72:23 *72:25 1111.65 
3 *72:25 *72:27 15 
4 *72:27 *72:29 3295.15 
5 *72:29 *72:31 15 
6 *72:31 *72:33 92.5721 
7 *72:33 io_oeb[13] 31.0611 
*END

*D_NET *73 0.589111
*CONN
*P io_oeb[14] O
*I *739:io_oeb_o[14] O *D ntt_wb_bridge
*CAP
1 io_oeb[14] 0.00105553
2 *739:io_oeb_o[14] 0.0014606
3 *73:28 0.00881405
4 *73:26 0.00775852
5 *73:24 0.116799
6 *73:22 0.116799
7 *73:20 0.0257297
8 *73:18 0.0271903
9 *73:18 *93:19 0.000155894
10 *73:18 *96:14 0.000322875
11 *73:20 *79:14 0.00818301
12 *73:20 *95:13 0.0228137
13 *73:20 *357:31 0.000352315
14 *73:24 la_data_out[119] 0
15 *73:24 *75:17 0
16 *73:24 *78:145 0.0160968
17 *73:24 *112:17 0
18 *73:24 *113:19 0
19 *73:24 *115:203 0.0394
20 *73:24 *665:11 0.0733996
21 *73:24 *665:21 0.00200067
22 *73:24 *669:11 0.00197375
23 *73:24 *680:11 0.0166069
24 *73:24 *686:11 0.00556648
25 *73:24 *686:21 0.000772198
26 *73:24 *721:11 0
27 *70:22 *73:20 0.0958606
*RES
1 *739:io_oeb_o[14] *73:18 44.1874 
2 *73:18 *73:20 1025.9 
3 *73:20 *73:22 15 
4 *73:22 *73:24 3575.1 
5 *73:24 *73:26 15 
6 *73:26 *73:28 164.036 
7 *73:28 io_oeb[14] 27.5396 
*END

*D_NET *74 0.736582
*CONN
*P io_oeb[15] O
*I *739:io_oeb_o[15] O *D ntt_wb_bridge
*CAP
1 io_oeb[15] 0.000750258
2 *739:io_oeb_o[15] 0.00144734
3 *74:35 0.00369721
4 *74:33 0.00294695
5 *74:31 0.104453
6 *74:29 0.104453
7 *74:27 0.0240514
8 *74:25 0.0240514
9 *74:23 0.00144734
10 *74:23 *75:11 1.64926e-05
11 *74:23 *92:23 0.000576344
12 *74:23 *99:23 0.000502023
13 *74:23 *109:13 0.000248557
14 *74:23 *110:13 0.000215788
15 *74:23 *115:29 6.85548e-05
16 *74:23 *141:13 0.000286961
17 *74:27 *75:13 0.0900721
18 *74:27 *76:19 0.0159362
19 *74:27 *105:15 0.001397
20 *74:27 *112:13 7.13587e-05
21 *74:27 *140:13 0.00638652
22 *74:27 *143:15 0.0271799
23 *74:31 *78:129 0
24 *74:31 *141:17 0
25 *74:31 *648:11 0
26 *74:31 *694:11 2.12347e-06
27 *74:31 *699:19 0
28 *74:31 *715:19 0
29 *74:31 *723:11 0.0422834
30 *74:31 *732:11 0.253492
31 *74:31 *732:15 0.00354438
32 *74:31 *738:11 0.0163639
33 *74:35 *113:23 0.00917306
34 *68:19 *74:23 0.0014667
*RES
1 *739:io_oeb_o[15] *74:23 38.1553 
2 *74:23 *74:25 15 
3 *74:25 *74:27 986.829 
4 *74:27 *74:29 15 
5 *74:29 *74:31 3586.72 
6 *74:31 *74:33 15 
7 *74:33 *74:35 100.195 
8 *74:35 io_oeb[15] 31.4471 
*END

*D_NET *75 0.980916
*CONN
*P io_oeb[16] O
*I *739:io_oeb_o[16] O *D ntt_wb_bridge
*CAP
1 io_oeb[16] 0.000801712
2 *739:io_oeb_o[16] 0.00106255
3 *75:21 0.015325
4 *75:19 0.0145233
5 *75:17 0.0406684
6 *75:15 0.0406684
7 *75:13 0.0122279
8 *75:11 0.0132905
9 *75:11 *80:13 0.000140677
10 *75:11 *82:13 0.000162413
11 *75:11 *87:13 0.000162413
12 *75:11 *99:23 0.000437521
13 *75:11 *115:29 0
14 *75:13 *76:19 0.00912095
15 *75:13 *112:13 0.0907634
16 *75:13 *140:13 0.00542206
17 *75:17 *76:23 0.282295
18 *75:17 *102:27 0.00213034
19 *75:17 *113:19 0.281753
20 *75:17 *659:15 0.00419783
21 *75:17 *669:11 0.032316
22 *75:17 *686:21 0.00186186
23 *75:21 *76:27 0.00104903
24 *75:21 *78:241 0.00749848
25 *75:21 *112:21 0
26 *75:21 *113:23 0.0329492
27 *73:24 *75:17 0
28 *74:23 *75:11 1.64926e-05
29 *74:27 *75:13 0.0900721
*RES
1 *739:io_oeb_o[16] *75:11 36.0531 
2 *75:11 *75:13 993.022 
3 *75:13 *75:15 15 
4 *75:15 *75:17 3585.66 
5 *75:17 *75:19 15 
6 *75:19 *75:21 443.7 
7 *75:21 io_oeb[16] 32.1514 
*END

*D_NET *76 0.90925
*CONN
*P io_oeb[17] O
*I *739:io_oeb_o[17] O *D ntt_wb_bridge
*CAP
1 io_oeb[17] 0.000688718
2 *739:io_oeb_o[17] 0.000812536
3 *76:27 0.0199737
4 *76:25 0.019285
5 *76:23 0.0603121
6 *76:21 0.0603121
7 *76:19 0.0469026
8 *76:17 0.0477152
9 *76:17 *92:23 5.45304e-05
10 *76:17 *99:23 0.000127191
11 *76:19 *92:23 0.00541775
12 *76:19 *106:13 1.82674e-05
13 *76:19 *109:13 0.0164078
14 *76:19 *110:13 0.0139937
15 *76:19 *112:13 0.0117693
16 *76:19 *117:13 0.00336854
17 *76:19 *128:29 0
18 *76:19 *140:13 0.00373582
19 *76:19 *141:13 0.0191533
20 *76:23 *102:27 0.00213034
21 *76:23 *113:19 1.12487e-05
22 *76:23 *141:17 0
23 *76:23 *648:11 0
24 *76:23 *653:11 0.0879982
25 *76:23 *659:15 0.00462364
26 *76:23 *669:11 0.0281866
27 *76:23 *686:21 0.00163085
28 *76:27 *77:241 0.0460483
29 *76:27 *78:241 0.00450446
30 *76:27 *113:23 0.00356647
31 *76:27 *114:49 0.066251
32 *68:19 *76:17 8.8182e-06
33 *68:19 *76:19 0.025841
34 *74:27 *76:19 0.0159362
35 *75:13 *76:19 0.00912095
36 *75:17 *76:23 0.282295
37 *75:21 *76:27 0.00104903
*RES
1 *739:io_oeb_o[17] *76:17 25.3972 
2 *76:17 *76:19 177.843 
3 *76:19 *76:21 8 
4 *76:21 *76:23 3586.37 
5 *76:23 *76:25 8 
6 *76:25 *76:27 140.448 
7 *76:27 io_oeb[17] 23.5668 
*END

*D_NET *77 0.912262
*CONN
*P io_oeb[18] O
*I *739:io_oeb_o[18] O *D ntt_wb_bridge
*CAP
1 io_oeb[18] 0.000719569
2 *739:io_oeb_o[18] 0.00110514
3 *77:241 0.0202456
4 *77:239 0.019526
5 *77:237 0.00350172
6 *77:225 0.00648152
7 *77:219 0.00363361
8 *77:209 0.00404381
9 *77:203 0.00512865
10 *77:193 0.00347249
11 *77:189 0.00644828
12 *77:177 0.00623555
13 *77:167 0.00323362
14 *77:159 0.00452444
15 *77:145 0.0272703
16 *77:143 0.0248528
17 *77:137 0.010721
18 *77:135 0.0103266
19 *77:133 0.012249
20 *77:127 0.0137965
21 *77:123 0.00334568
22 *77:119 0.00645989
23 *77:113 0.00624733
24 *77:111 0.00453383
25 *77:107 0.00400008
26 *77:103 0.00456148
27 *77:97 0.00607634
28 *77:95 0.00747533
29 *77:89 0.0114483
30 *77:87 0.0108097
31 *77:83 0.00523162
32 *77:73 0.00441199
33 *77:71 0.00431755
34 *77:65 0.00235509
35 *77:63 0.00630168
36 *77:57 0.00574341
37 *77:55 0.00173672
38 *77:49 0.00380032
39 *77:47 0.0046433
40 *77:39 0.00667355
41 *77:33 0.00644878
42 *77:31 0.00330416
43 *77:21 0.00500602
44 *77:19 0.0039171
45 *77:13 0.0032504
46 *77:11 0.00356558
47 *77:11 *99:23 0.000147331
48 *77:13 *81:15 0.00116063
49 *77:13 *104:15 0.00281941
50 *77:13 *105:15 0.0088669
51 *77:21 *78:13 0
52 *77:21 *87:13 0
53 *77:21 *103:19 0.00133477
54 *77:21 *108:15 0.00950977
55 *77:31 *99:23 0.00705161
56 *77:31 *103:19 0.00372559
57 *77:31 *108:15 0.00117119
58 *77:33 *143:19 0
59 *77:33 *363:11 0.00354457
60 *77:39 *729:9 2.55744e-05
61 *77:39 *730:7 0
62 *77:47 *78:37 0.000335786
63 *77:47 *285:17 0
64 *77:47 *732:7 0.000510127
65 *77:49 la_data_out[86] 0
66 *77:49 *78:41 0.00372547
67 *77:55 *281:23 0.000185291
68 *77:55 *694:7 0
69 *77:57 la_data_out[87] 0.0047997
70 *77:57 *78:53 0.000339409
71 *77:57 *651:11 0.00376016
72 *77:65 *115:83 0.00281879
73 *77:71 io_out[1] 0
74 *77:71 *721:7 0
75 *77:83 la_data_out[93] 0.000829236
76 *77:83 *724:15 0.000222486
77 *77:87 *700:7 0.00284378
78 *77:89 *115:115 0
79 *77:95 *720:7 0
80 *77:107 la_data_out[107] 0.00274431
81 *77:111 *140:21 0
82 *77:113 *115:163 0.00174069
83 *77:119 *665:23 0
84 *77:119 *666:13 0.00112567
85 *77:123 la_data_out[115] 0
86 *77:127 *672:10 0
87 *77:127 *708:15 0
88 *77:133 *658:15 0.000609171
89 *77:137 *114:35 0.000617684
90 *77:137 *646:41 0.000489495
91 *77:137 *672:6 0.0225927
92 *77:145 *114:45 0.0159673
93 *77:145 *654:11 0.00899146
94 *77:145 *666:9 0.00310824
95 *77:145 *679:15 0.171365
96 *77:145 *714:27 0.171373
97 *77:159 *78:173 0.00149216
98 *77:159 *115:223 0.00123498
99 *77:167 *78:181 9.63916e-05
100 *77:177 *78:189 0.000839729
101 *77:189 *78:189 0
102 *77:209 *78:227 0
103 *77:225 *78:237 0
104 *77:237 *78:241 0
105 *77:241 *78:241 0.0789172
106 *76:27 *77:241 0.0460483
*RES
1 *739:io_oeb_o[18] *77:11 36.4985 
2 *77:11 *77:13 96.86 
3 *77:13 *77:19 40.7093 
4 *77:19 *77:21 104.006 
5 *77:21 *77:31 44.5147 
6 *77:31 *77:33 45.9236 
7 *77:33 *77:39 31.2544 
8 *77:39 *77:47 44.7324 
9 *77:47 *77:49 85.3636 
10 *77:49 *77:55 18.7179 
11 *77:55 *77:57 61.4179 
12 *77:57 *77:63 31.512 
13 *77:63 *77:65 46.6279 
14 *77:65 *77:71 18.5461 
15 *77:71 *77:73 78.3207 
16 *77:73 *77:83 36.7402 
17 *77:83 *77:87 26.6891 
18 *77:87 *77:89 150.158 
19 *77:89 *77:95 31.512 
20 *77:95 *77:97 57.8964 
21 *77:97 *77:103 28.2491 
22 *77:103 *77:107 43.3593 
23 *77:107 *77:111 17.8448 
24 *77:111 *77:113 43.1064 
25 *77:113 *77:119 32.1131 
26 *77:119 *77:123 48.2893 
27 *77:123 *77:127 13.6803 
28 *77:127 *77:133 49.7088 
29 *77:133 *77:135 8 
30 *77:135 *77:137 53.6219 
31 *77:137 *77:143 16.7 
32 *77:143 *77:145 2175.68 
33 *77:145 *77:159 45.4378 
34 *77:159 *77:167 43.708 
35 *77:167 *77:177 46.063 
36 *77:177 *77:189 45.382 
37 *77:189 *77:193 46.8807 
38 *77:193 *77:203 21.5739 
39 *77:203 *77:209 46.1621 
40 *77:209 *77:219 34.2154 
41 *77:219 *77:225 47.0555 
42 *77:225 *77:237 48.8563 
43 *77:237 *77:239 8 
44 *77:239 *77:241 145.686 
45 *77:241 io_oeb[18] 24.2711 
*END

*D_NET *78 0.828394
*CONN
*P io_oeb[19] O
*I *739:io_oeb_o[19] O *D ntt_wb_bridge
*CAP
1 io_oeb[19] 0.000750419
2 *739:io_oeb_o[19] 0.00030239
3 *78:241 0.0502368
4 *78:239 0.0494864
5 *78:237 0.00238914
6 *78:227 0.00542661
7 *78:217 0.00579727
8 *78:211 0.00607275
9 *78:199 0.00476059
10 *78:189 0.00395098
11 *78:181 0.00428847
12 *78:173 0.00516226
13 *78:161 0.0240396
14 *78:159 0.0212441
15 *78:153 0.00925705
16 *78:151 0.0093159
17 *78:145 0.00620463
18 *78:143 0.00622324
19 *78:137 0.00734663
20 *78:135 0.00725335
21 *78:129 0.0131009
22 *78:127 0.0157299
23 *78:121 0.00970424
24 *78:115 0.00810032
25 *78:111 0.00755427
26 *78:105 0.0092552
27 *78:103 0.00431393
28 *78:97 0.00326442
29 *78:89 0.00805793
30 *78:87 0.00979683
31 *78:81 0.00593323
32 *78:73 0.00360705
33 *78:71 0.00561079
34 *78:67 0.00483283
35 *78:63 0.0053518
36 *78:59 0.00578436
37 *78:53 0.00294844
38 *78:47 0.0024595
39 *78:41 0.00212653
40 *78:39 0.00130582
41 *78:37 0.00394932
42 *78:25 0.0064587
43 *78:23 0.00552499
44 *78:13 0.00909698
45 *78:11 0.00638376
46 *78:11 *99:23 0.000138666
47 *78:13 *86:11 0.00010887
48 *78:13 *86:13 0.00741621
49 *78:13 *87:13 0.000515624
50 *78:13 *95:11 0.000111566
51 *78:13 *99:23 0.00177263
52 *78:13 *108:15 0
53 *78:13 *137:29 0.0168332
54 *78:13 *139:21 0.00373806
55 *78:23 *104:23 0.000848764
56 *78:23 *359:41 0
57 *78:25 *357:27 0
58 *78:25 *378:27 0
59 *78:37 *732:7 0
60 *78:53 la_data_out[87] 0.00141631
61 *78:53 *694:7 0.00118509
62 *78:63 *653:7 0.00336572
63 *78:63 *654:7 0
64 *78:67 la_data_out[93] 0.00224734
65 *78:73 la_data_out[97] 0.00221708
66 *78:81 la_data_out[98] 0
67 *78:81 *721:7 0.00141673
68 *78:111 *115:151 0.00119251
69 *78:115 *115:163 0
70 *78:121 la_data_out[115] 0
71 *78:121 *296:19 0
72 *78:127 *140:21 0
73 *78:129 *699:19 0.000335862
74 *78:129 *705:23 0.000660097
75 *78:129 *730:19 0
76 *78:129 *738:19 0
77 *78:137 *141:17 0.038799
78 *78:137 *648:11 0.0202905
79 *78:137 *681:11 0.00549271
80 *78:145 *112:17 0
81 *78:153 *115:211 0.0110812
82 *78:153 *648:11 0.00909211
83 *78:153 *671:17 0.0470749
84 *78:153 *674:13 0.00546328
85 *78:161 *115:219 0.0927482
86 *78:161 *685:25 0
87 *78:161 *715:19 0.0460702
88 *78:173 *679:11 0
89 *78:173 *682:11 0.000247282
90 *78:173 *732:25 0
91 *78:241 *116:179 0.00260414
92 *68:27 *78:13 0.000303727
93 *73:24 *78:145 0.0160968
94 *74:31 *78:129 0
95 *75:21 *78:241 0.00749848
96 *76:27 *78:241 0.00450446
97 *77:21 *78:13 0
98 *77:47 *78:37 0.000335786
99 *77:49 *78:41 0.00372547
100 *77:57 *78:53 0.000339409
101 *77:159 *78:173 0.00149216
102 *77:167 *78:181 9.63916e-05
103 *77:177 *78:189 0.000839729
104 *77:189 *78:189 0
105 *77:209 *78:227 0
106 *77:225 *78:237 0
107 *77:237 *78:241 0
108 *77:241 *78:241 0.0789172
*RES
1 *739:io_oeb_o[19] *78:11 24.1125 
2 *78:11 *78:13 251.223 
3 *78:13 *78:23 42.7896 
4 *78:23 *78:25 55.7836 
5 *78:25 *78:37 48.612 
6 *78:37 *78:39 8 
7 *78:39 *78:41 47.3321 
8 *78:41 *78:47 18.5461 
9 *78:47 *78:53 49.0834 
10 *78:53 *78:59 44.3164 
11 *78:59 *78:63 25.9163 
12 *78:63 *78:67 37.0207 
13 *78:67 *78:71 21.5371 
14 *78:71 *78:73 54.375 
15 *78:73 *78:81 49.7656 
16 *78:81 *78:87 28.936 
17 *78:87 *78:89 133.255 
18 *78:89 *78:97 48.2538 
19 *78:97 *78:103 19.3189 
20 *78:103 *78:105 74.095 
21 *78:105 *78:111 36.0629 
22 *78:111 *78:115 44.0636 
23 *78:115 *78:121 47.2757 
24 *78:121 *78:127 26.0165 
25 *78:127 *78:129 283.268 
26 *78:129 *78:135 17.1723 
27 *78:135 *78:137 492.441 
28 *78:137 *78:143 17.344 
29 *78:143 *78:145 204.388 
30 *78:145 *78:151 17.4299 
31 *78:151 *78:153 597.379 
32 *78:153 *78:159 17.2581 
33 *78:159 *78:161 1196.02 
34 *78:161 *78:173 46.6197 
35 *78:173 *78:181 47.6701 
36 *78:181 *78:189 44.5944 
37 *78:189 *78:199 49.3086 
38 *78:199 *78:211 49.998 
39 *78:211 *78:217 42.9933 
40 *78:217 *78:227 49.3644 
41 *78:227 *78:237 44.1123 
42 *78:237 *78:239 8 
43 *78:239 *78:241 221.592 
44 *78:241 io_oeb[19] 24.9754 
*END

*D_NET *79 0.285389
*CONN
*P io_oeb[1] O
*I *739:io_oeb_o[1] O *D ntt_wb_bridge
*CAP
1 io_oeb[1] 0.0500876
2 *739:io_oeb_o[1] 0.00124782
3 *79:24 0.0527339
4 *79:18 0.0133223
5 *79:16 0.010676
6 *79:14 0.0116234
7 *79:12 0.0128712
8 io_oeb[1] *727:9 0.000142978
9 *79:14 *83:17 0.00108191
10 *79:14 *84:17 0.000930658
11 *79:14 *85:13 0.00238861
12 *79:14 *95:13 0.00275943
13 *79:14 *96:14 0.0408089
14 *79:14 *98:14 0
15 *79:14 *101:15 0
16 *79:14 *104:15 0
17 *79:14 *350:35 0.000185503
18 *79:14 *352:23 0.0034181
19 *79:14 *357:31 0.0335758
20 *79:18 *115:35 0.000809459
21 *79:18 *117:17 0.0199351
22 *79:18 *359:41 0.00344338
23 *79:18 *656:9 0.000210019
24 *79:18 *693:11 0.000847532
25 *79:18 *695:13 0.000287215
26 *79:18 *696:11 0.000336262
27 *79:18 *722:13 0.000441607
28 *79:18 *729:9 0.000441607
29 *79:18 *731:9 0.000441607
30 *79:18 *735:9 0.000364411
31 *79:18 *736:6 0.00534762
32 *79:18 *737:9 0.000364411
33 *79:24 *736:6 0
34 *70:22 *79:14 0.0060815
35 *73:20 *79:14 0.00818301
*RES
1 *739:io_oeb_o[1] *79:12 19.4981 
2 *79:12 *79:14 87.64 
3 *79:14 *79:16 8 
4 *79:16 *79:18 54.4357 
5 *79:18 *79:24 16.0192 
6 *79:24 io_oeb[1] 159.912 
*END

*D_NET *80 0.964115
*CONN
*P io_oeb[20] O
*I *739:io_oeb_o[20] O *D ntt_wb_bridge
*CAP
1 io_oeb[20] 0.000719569
2 *739:io_oeb_o[20] 0.000112597
3 *80:33 0.0176689
4 *80:31 0.0169493
5 *80:29 0.0745519
6 *80:27 0.0745519
7 *80:25 0.0192442
8 *80:23 0.0198249
9 *80:13 0.0170075
10 *80:11 0.0165394
11 *80:11 *99:23 5.28642e-05
12 *80:13 *87:13 0.0614218
13 *80:13 *97:23 0.00632284
14 *80:13 *99:23 0.00154474
15 *80:13 *103:17 0.000120607
16 *80:13 *120:13 0
17 *80:13 *136:31 0.0031325
18 *80:13 *137:21 0.00197351
19 *80:13 *139:11 0.000199898
20 *80:13 *139:13 0.00412703
21 *80:23 *91:23 0.00263854
22 *80:23 *97:39 3.13273e-05
23 *80:23 *136:49 0.00254632
24 *80:25 *91:23 0.0451451
25 *80:25 *97:39 0.000873686
26 *80:25 *119:49 0.00390585
27 *80:25 *123:23 0.000106919
28 *80:25 *136:65 9.05439e-05
29 *80:25 *136:67 0.0798402
30 *80:29 *120:29 0.278168
31 *80:29 *580:5 0
32 *80:29 *662:19 0.096996
33 *80:33 io_oeb[22] 5.77181e-06
34 *80:33 *81:23 9.31896e-05
35 *80:33 *118:31 0.0712248
36 *80:33 *119:61 0.0457317
37 *80:33 *120:35 0.000510361
38 *75:11 *80:13 0.000140677
*RES
1 *739:io_oeb_o[20] *80:11 23.8487 
2 *80:11 *80:13 671.909 
3 *80:13 *80:23 30.4385 
4 *80:23 *80:25 157.75 
5 *80:25 *80:27 8 
6 *80:27 *80:29 3577.21 
7 *80:29 *80:31 8 
8 *80:31 *80:33 132.806 
9 *80:33 io_oeb[20] 24.2711 
*END

*D_NET *81 0.762465
*CONN
*P io_oeb[21] O
*I *739:io_oeb_o[21] O *D ntt_wb_bridge
*CAP
1 io_oeb[21] 0.000657868
2 *739:io_oeb_o[21] 0.00107538
3 *81:23 0.0117349
4 *81:21 0.011077
5 *81:19 0.0805947
6 *81:17 0.0805947
7 *81:15 0.0600531
8 *81:13 0.0611285
9 *81:13 *99:23 0.000137489
10 *81:15 *93:19 0.00471026
11 *81:15 *100:19 0.00651087
12 *81:15 *105:15 0.00264118
13 *81:15 *124:15 0.0158558
14 *81:15 *129:15 0.0288662
15 *81:15 *129:23 0.00941207
16 *81:15 *131:15 0.000342174
17 *81:15 *132:17 0.000103353
18 *81:15 *132:19 0.0153875
19 *81:15 *133:21 0.000321908
20 *81:15 *143:15 0.00182146
21 *81:15 *345:43 0
22 *81:15 *346:35 0
23 *81:19 wbs_dat_o[14] 0
24 *81:19 *82:23 0.000313171
25 *81:19 *119:57 0
26 *81:19 *581:5 0.018017
27 *81:19 *704:35 0.000196798
28 *81:19 *710:35 0.0691138
29 *81:19 *716:27 0.00269443
30 *81:19 *717:27 0.00517227
31 *81:19 *725:27 0.0105122
32 *81:19 *733:43 0.197001
33 *81:19 *737:35 0.000456788
34 *81:19 *737:43 0.0141897
35 *81:23 *119:61 0.0374708
36 *81:23 *120:35 0.0130477
37 *71:21 *81:15 0
38 *72:25 *81:15 0
39 *77:13 *81:15 0.00116063
40 *80:33 *81:23 9.31896e-05
*RES
1 *739:io_oeb_o[21] *81:13 36.761 
2 *81:13 *81:15 1570.93 
3 *81:15 *81:17 15 
4 *81:17 *81:19 3590.42 
5 *81:19 *81:21 8 
6 *81:21 *81:23 69.5221 
7 *81:23 io_oeb[21] 22.8625 
*END

*D_NET *82 0.684364
*CONN
*P io_oeb[22] O
*I *739:io_oeb_o[22] O *D ntt_wb_bridge
*CAP
1 io_oeb[22] 0.00314848
2 *739:io_oeb_o[22] 0.000342287
3 *82:25 0.130056
4 *82:23 0.128137
5 *82:13 0.0485218
6 *82:11 0.0476348
7 io_oeb[22] *120:35 0.00631244
8 *82:11 *99:23 0.000247342
9 *82:13 *86:13 0.0738849
10 *82:13 *87:13 0.0738866
11 *82:13 *87:21 0.0146321
12 *82:13 *97:39 0.000275069
13 *82:13 *99:23 0.00111054
14 *82:13 *106:11 0.000104298
15 *82:13 *117:11 0.000138266
16 *82:13 *119:49 0.000353207
17 *82:13 *119:53 0.000449624
18 *82:13 *122:11 0.000115403
19 *82:13 *136:31 0.00223407
20 *82:13 *136:49 0.00016202
21 *82:13 *137:21 0.00112271
22 *82:13 *139:11 0.000230784
23 *82:23 wbs_dat_o[14] 0
24 *82:23 *86:21 0.000996623
25 *82:23 *119:57 7.55909e-05
26 *82:25 *84:29 0.136633
27 *82:25 *91:27 0.00247686
28 *82:25 *92:27 0.00301392
29 *82:25 *93:23 0.00758671
30 *82:25 *580:5 0
31 *82:25 *675:15 0
32 *82:25 *734:35 0
33 *75:11 *82:13 0.000162413
34 *80:33 io_oeb[22] 5.77181e-06
35 *81:19 *82:23 0.000313171
*RES
1 *739:io_oeb_o[22] *82:11 24.2021 
2 *82:11 *82:13 1579.51 
3 *82:13 *82:23 39.2005 
4 *82:23 *82:25 3573.69 
5 *82:25 io_oeb[22] 42.3041 
*END

*D_NET *83 0.71301
*CONN
*P io_oeb[23] O
*I *739:io_oeb_o[23] O *D ntt_wb_bridge
*CAP
1 io_oeb[23] 0.000750419
2 *739:io_oeb_o[23] 0.00145366
3 *83:33 0.0121571
4 *83:31 0.0114067
5 *83:29 0.155669
6 *83:27 0.155669
7 *83:25 0.0175038
8 *83:23 0.0175897
9 *83:17 0.0140177
10 *83:15 0.0153855
11 *83:15 *99:23 4.27273e-05
12 *83:17 *84:17 0.0779012
13 *83:17 *96:14 0.00089261
14 *83:17 *342:45 0.00919472
15 *83:17 *343:39 0.000289738
16 *83:17 *349:39 0.0520247
17 *83:17 *350:35 0.000970746
18 *83:17 *351:39 0.000609337
19 *83:17 *352:23 0.0092347
20 *83:23 *84:23 7.50412e-05
21 *83:23 *85:19 9.47613e-05
22 *83:23 *317:19 3.0594e-05
23 *83:23 *325:19 1.223e-05
24 *83:25 *84:25 0.0741335
25 *83:25 *85:21 0.0764497
26 *83:25 *95:27 5.96737e-06
27 *83:25 *98:14 0
28 *83:25 *343:39 8.70465e-06
29 *83:29 wbs_dat_o[11] 0
30 *83:29 *546:5 0
31 *83:33 io_out[23] 0.00835428
32 *79:14 *83:17 0.00108191
*RES
1 *739:io_oeb_o[23] *83:15 43.6084 
2 *83:15 *83:17 831.989 
3 *83:17 *83:23 25.0818 
4 *83:23 *83:25 146.373 
5 *83:25 *83:27 8 
6 *83:27 *83:29 3592 
7 *83:29 *83:31 8 
8 *83:31 *83:33 43.3328 
9 *83:33 io_oeb[23] 24.9754 
*END

*D_NET *84 0.889976
*CONN
*P io_oeb[24] O
*I *739:io_oeb_o[24] O *D ntt_wb_bridge
*CAP
1 io_oeb[24] 0.0163277
2 *739:io_oeb_o[24] 0.00147498
3 *84:39 0.0163277
4 *84:37 0.0659714
5 *84:35 0.0664107
6 *84:29 0.0259927
7 *84:27 0.0255534
8 *84:25 0.0301325
9 *84:23 0.0301561
10 *84:17 0.0102336
11 *84:15 0.011685
12 *84:15 *99:23 5.28502e-05
13 *84:17 *85:13 0.0790218
14 *84:17 *96:14 0.00109385
15 *84:17 *342:45 0.00797137
16 *84:17 *343:39 0.000257486
17 *84:17 *348:51 2.57772e-05
18 *84:17 *349:39 2.50118e-05
19 *84:17 *352:23 0.00444032
20 *84:23 *317:19 7.73233e-05
21 *84:25 *98:14 0
22 *84:25 *343:39 0.000547409
23 *84:29 *86:25 0.114815
24 *84:29 *87:25 9.94172e-05
25 *84:29 *93:23 0.0187408
26 *84:29 *121:23 4.89546e-05
27 *84:29 *547:5 0
28 *84:29 *580:5 0
29 *84:35 io_oeb[30] 0
30 *84:37 *86:33 0.0112826
31 *84:37 *87:33 0.0615364
32 *79:14 *84:17 0.000930658
33 *82:25 *84:29 0.136633
34 *83:17 *84:17 0.0779012
35 *83:23 *84:23 7.50412e-05
36 *83:25 *84:25 0.0741335
*RES
1 *739:io_oeb_o[24] *84:15 43.7663 
2 *84:15 *84:17 844.853 
3 *84:17 *84:23 24.0254 
4 *84:23 *84:25 141.908 
5 *84:25 *84:27 8 
6 *84:27 *84:29 1759.45 
7 *84:29 *84:35 17.1293 
8 *84:35 *84:37 291.114 
9 *84:37 *84:39 8 
10 *84:39 io_oeb[24] 53.9523 
*END

*D_NET *85 0.718034
*CONN
*P io_oeb[25] O
*I *739:io_oeb_o[25] O *D ntt_wb_bridge
*CAP
1 io_oeb[25] 0.0144927
2 *739:io_oeb_o[25] 0.00172584
3 *85:27 0.0144927
4 *85:25 0.164674
5 *85:23 0.164674
6 *85:21 0.021751
7 *85:19 0.0218596
8 *85:13 0.0106069
9 *85:11 0.0122242
10 *85:11 *99:23 0.000208552
11 *85:11 *137:27 0
12 *85:13 *95:13 0.0801192
13 *85:13 *96:14 0.00149639
14 *85:13 *341:53 0.00881413
15 *85:13 *342:45 0.000297398
16 *85:13 *348:51 0.000254247
17 *85:13 *357:31 0.00403637
18 *85:19 *317:19 8.98567e-06
19 *85:19 *325:19 5.96035e-05
20 *85:21 *93:19 0.0364172
21 *85:21 *95:27 1.67025e-05
22 *85:21 *98:14 0
23 *85:21 *131:15 0.00105215
24 *85:25 *89:25 0
25 *85:25 *545:5 0.000797022
26 *79:14 *85:13 0.00238861
27 *83:23 *85:19 9.47613e-05
28 *83:25 *85:21 0.0764497
29 *84:17 *85:13 0.0790218
*RES
1 *739:io_oeb_o[25] *85:11 42.806 
2 *85:11 *85:13 861.051 
3 *85:13 *85:19 25.0818 
4 *85:19 *85:21 149.163 
5 *85:21 *85:23 8 
6 *85:23 *85:25 559.324 
7 *85:25 *85:27 8 
8 *85:27 io_oeb[25] 47.9416 
*END

*D_NET *86 0.793722
*CONN
*P io_oeb[26] O
*I *739:io_oeb_o[26] O *D ntt_wb_bridge
*CAP
1 io_oeb[26] 0.0162211
2 *739:io_oeb_o[26] 0.000216986
3 *86:35 0.0162211
4 *86:33 0.0417736
5 *86:31 0.0420766
6 *86:25 0.0214347
7 *86:23 0.0211318
8 *86:21 0.0311783
9 *86:19 0.0312468
10 *86:13 0.0139797
11 *86:11 0.0141282
12 *86:11 *99:23 0.000206269
13 *86:11 *137:29 0.000101467
14 *86:13 *87:13 0.00257963
15 *86:13 *97:39 0.000225312
16 *86:13 *99:23 0.00172936
17 *86:13 *119:13 0.0166212
18 *86:13 *119:29 0.00478794
19 *86:13 *136:31 0.000700771
20 *86:13 *136:49 0.000143326
21 *86:13 *137:21 0.0034223
22 *86:13 *139:11 0.000207083
23 *86:13 *139:21 0.0156822
24 *86:19 *323:23 8.48957e-05
25 *86:19 *327:39 0.000178831
26 *86:21 *97:59 0.00846123
27 *86:21 *132:27 0.0573904
28 *86:25 *87:25 0.0939524
29 *86:25 *92:27 0.0202898
30 *86:31 io_oeb[31] 5.63016e-05
31 *86:33 *87:33 0.0827425
32 *86:33 *129:27 0.026045
33 *86:33 *661:11 0
34 *78:13 *86:11 0.00010887
35 *78:13 *86:13 0.00741621
36 *82:13 *86:13 0.0738849
37 *82:23 *86:21 0.000996623
38 *84:29 *86:25 0.114815
39 *84:37 *86:33 0.0112826
*RES
1 *739:io_oeb_o[26] *86:11 24.3253 
2 *86:11 *86:13 857.716 
3 *86:13 *86:19 25.4339 
4 *86:19 *86:21 143.282 
5 *86:21 *86:23 8 
6 *86:23 *86:25 1460.13 
7 *86:25 *86:31 16.7 
8 *86:31 *86:33 243.895 
9 *86:33 *86:35 8 
10 *86:35 io_oeb[26] 54.2957 
*END

*D_NET *87 0.79671
*CONN
*P io_oeb[27] O
*I *739:io_oeb_o[27] O *D ntt_wb_bridge
*CAP
1 io_oeb[27] 0.0165541
2 *739:io_oeb_o[27] 0.000249996
3 *87:35 0.0165541
4 *87:33 0.0333998
5 *87:31 0.0336909
6 *87:25 0.0334602
7 *87:23 0.0331691
8 *87:21 0.018003
9 *87:19 0.0180186
10 *87:13 0.0133218
11 *87:11 0.0135562
12 *87:11 *99:23 0.000205218
13 *87:13 *97:23 0
14 *87:13 *97:39 0.000311546
15 *87:13 *99:23 0.00234044
16 *87:13 *103:17 0.000111652
17 *87:13 *106:11 0.000104298
18 *87:13 *108:15 0
19 *87:13 *117:11 0.000138266
20 *87:13 *119:49 0.000295342
21 *87:13 *120:13 0
22 *87:13 *122:11 0.000115403
23 *87:13 *136:31 0.00268734
24 *87:13 *136:49 0.000183508
25 *87:13 *136:55 0.00384682
26 *87:13 *136:67 0.000492434
27 *87:13 *137:21 0.00125024
28 *87:13 *139:11 0.000230784
29 *87:19 *323:23 9.85586e-06
30 *87:19 *327:39 2.05503e-05
31 *87:21 *97:59 0.00122471
32 *87:21 *119:53 0.0747617
33 *87:21 *136:67 0.0410368
34 *87:25 *92:27 0.0345955
35 *87:25 *547:5 0
36 *87:31 io_oeb[32] 0.000112235
37 *87:33 *129:27 0.0111289
38 *75:11 *87:13 0.000162413
39 *77:21 *87:13 0
40 *78:13 *87:13 0.000515624
41 *80:13 *87:13 0.0614218
42 *82:13 *87:13 0.0738866
43 *82:13 *87:21 0.0146321
44 *84:29 *87:25 9.94172e-05
45 *84:37 *87:33 0.0615364
46 *86:13 *87:13 0.00257963
47 *86:25 *87:25 0.0939524
48 *86:33 *87:33 0.0827425
*RES
1 *739:io_oeb_o[27] *87:11 24.0341 
2 *87:11 *87:13 872.009 
3 *87:13 *87:19 23.3211 
4 *87:19 *87:21 143.367 
5 *87:21 *87:23 8 
6 *87:23 *87:25 1198.14 
7 *87:25 *87:31 16.7859 
8 *87:31 *87:33 243.006 
9 *87:33 *87:35 8 
10 *87:35 io_oeb[27] 54.124 
*END

*D_NET *88 0.655472
*CONN
*P io_oeb[28] O
*I *739:io_oeb_o[28] O *D ntt_wb_bridge
*CAP
1 io_oeb[28] 0.0131928
2 *739:io_oeb_o[28] 0.000392991
3 *88:29 0.0131928
4 *88:27 0.120955
5 *88:25 0.120955
6 *88:23 0.0168954
7 *88:21 0.016975
8 *88:15 0.0108121
9 *88:13 0.0111255
10 *88:13 *99:23 9.61898e-05
11 *88:15 *89:13 0.0752603
12 *88:15 *91:23 0.000130115
13 *88:15 *102:19 0.00561524
14 *88:15 *113:15 0.015498
15 *88:15 *118:23 0.00205319
16 *88:15 *120:13 0.0248516
17 *88:15 *121:13 0.000391608
18 *88:15 *142:17 0.000210039
19 *88:15 *142:19 0.00639083
20 *88:15 *142:27 0.0236801
21 *88:23 *91:23 0.00068268
22 *88:23 *118:23 0.081168
23 *88:23 *121:23 0.00586212
24 *88:23 *133:27 0.0883606
25 *88:27 *544:5 0.000723923
*RES
1 *739:io_oeb_o[28] *88:13 26.8376 
2 *88:13 *88:15 831.036 
3 *88:15 *88:21 24.0254 
4 *88:21 *88:23 164.276 
5 *88:23 *88:25 8 
6 *88:25 *88:27 411.066 
7 *88:27 *88:29 8 
8 *88:29 io_oeb[28] 44.1635 
*END

*D_NET *89 0.62284
*CONN
*P io_oeb[29] O
*I *739:io_oeb_o[29] O *D ntt_wb_bridge
*CAP
1 io_oeb[29] 0.014361
2 *739:io_oeb_o[29] 0.00035386
3 *89:27 0.014361
4 *89:25 0.108916
5 *89:23 0.108916
6 *89:21 0.0171345
7 *89:19 0.0172843
8 *89:13 0.0133917
9 *89:11 0.0135958
10 *89:11 *99:23 5.17254e-05
11 *89:13 *102:19 0.00560873
12 *89:13 *114:13 0.00997967
13 *89:13 *115:31 0.00576434
14 *89:13 *118:23 0.00189293
15 *89:13 *121:13 0.0255455
16 *89:13 *122:13 0.000318889
17 *89:13 *123:15 0.000649702
18 *89:13 *133:27 0.000311664
19 *89:13 *142:19 0.00783396
20 *89:13 *142:27 0.000739201
21 *89:21 *92:23 0.00245429
22 *89:21 *106:13 0.000805864
23 *89:21 *120:21 0.0729269
24 *89:21 *120:27 0.00107552
25 *89:21 *122:21 0.00487273
26 *89:21 *133:27 0.0877447
27 *89:25 wbs_dat_o[10] 0.0106893
28 *85:25 *89:25 0
29 *88:15 *89:13 0.0752603
*RES
1 *739:io_oeb_o[29] *89:11 27.7297 
2 *89:11 *89:13 837.706 
3 *89:13 *89:19 25.0818 
4 *89:19 *89:21 163.074 
5 *89:21 *89:23 8 
6 *89:23 *89:25 362.705 
7 *89:25 *89:27 8 
8 *89:27 io_oeb[29] 46.7395 
*END

*D_NET *90 0.401072
*CONN
*P io_oeb[2] O
*I *739:io_oeb_o[2] O *D ntt_wb_bridge
*CAP
1 io_oeb[2] 0.000924664
2 *739:io_oeb_o[2] 0.00270631
3 *90:31 0.0174291
4 *90:29 0.0165044
5 *90:27 0.0234063
6 *90:25 0.0234063
7 *90:23 0.00270631
8 *90:23 *92:23 0.00341652
9 *90:23 *99:17 0.00560931
10 *90:23 *109:13 0.000143687
11 *90:23 *110:13 0.00132881
12 *90:23 *137:21 0.000559319
13 *90:23 *141:13 0.000132945
14 *90:27 *99:23 0
15 *90:27 *100:27 0.0970206
16 *90:27 *102:19 0.0144177
17 *90:27 *115:31 0.00582559
18 *90:27 *128:29 0.12421
19 *90:27 *142:19 6.52177e-06
20 *90:31 *99:27 0.0407896
21 *90:31 *100:31 0.000151409
22 *90:31 *128:33 0.00228992
23 *90:31 *137:33 0.00867173
24 io_oeb[0] *90:31 0.00900434
25 *68:19 *90:23 0.000409798
26 *68:27 *90:27 0
*RES
1 *739:io_oeb_o[2] *90:23 46.0284 
2 *90:23 *90:25 8 
3 *90:25 *90:27 230.179 
4 *90:27 *90:29 8 
5 *90:29 *90:31 96.9061 
6 *90:31 io_oeb[2] 10.7757 
*END

*D_NET *91 0.665983
*CONN
*P io_oeb[30] O
*I *739:io_oeb_o[30] O *D ntt_wb_bridge
*CAP
1 io_oeb[30] 0.0169062
2 *739:io_oeb_o[30] 0.000526654
3 *91:29 0.0169062
4 *91:27 0.0359528
5 *91:25 0.0359528
6 *91:23 0.0206306
7 *91:21 0.0208716
8 *91:15 0.0225598
9 *91:13 0.0228455
10 *91:13 *99:23 0.000112796
11 *91:15 *106:13 0.0137589
12 *91:15 *107:35 0.0547491
13 *91:15 *109:13 0
14 *91:15 *110:13 0
15 *91:15 *114:13 0.000510747
16 *91:15 *118:15 0.0128112
17 *91:21 *143:13 0
18 *91:23 *97:39 0.00103943
19 *91:23 *118:23 0.0909886
20 *91:23 *119:25 0.000430787
21 *91:23 *121:23 0.000266093
22 *91:23 *123:23 0.000970488
23 *91:23 *133:27 0.000278205
24 *91:23 *136:49 0.000784933
25 *91:23 *142:17 0.000784643
26 *91:27 *92:27 0.111815
27 *91:27 *129:27 0.132456
28 *91:27 *661:11 0
29 *80:23 *91:23 0.00263854
30 *80:25 *91:23 0.0451451
31 *82:25 *91:27 0.00247686
32 *84:35 io_oeb[30] 0
33 *88:15 *91:23 0.000130115
34 *88:23 *91:23 0.00068268
*RES
1 *739:io_oeb_o[30] *91:13 29.3212 
2 *91:13 *91:15 748.614 
3 *91:15 *91:21 26.1382 
4 *91:21 *91:23 173.206 
5 *91:23 *91:25 8 
6 *91:25 *91:27 313.581 
7 *91:27 *91:29 8 
8 *91:29 io_oeb[30] 54.6392 
*END

*D_NET *92 0.677237
*CONN
*P io_oeb[31] O
*I *739:io_oeb_o[31] O *D ntt_wb_bridge
*CAP
1 io_oeb[31] 0.0169991
2 *739:io_oeb_o[31] 0.000844514
3 *92:29 0.0169991
4 *92:27 0.0335787
5 *92:25 0.0335787
6 *92:23 0.0385102
7 *92:21 0.0387951
8 *92:15 0.00112946
9 *92:15 *99:23 0.000472903
10 *92:15 *100:27 0.000268907
11 *92:15 *115:31 0.000559787
12 *92:15 *142:27 0.000813509
13 *92:23 *99:17 0.000964196
14 *92:23 *106:13 0.000733936
15 *92:23 *110:13 0.00167673
16 *92:23 *116:27 0.00441097
17 *92:23 *117:13 0.0816715
18 *92:23 *120:21 0.0388865
19 *92:23 *120:27 0.0020979
20 *92:23 *122:21 0.000284474
21 *92:23 *124:23 0.0316355
22 *92:23 *126:23 0.000668181
23 *92:23 *130:15 0.00407161
24 *92:23 *134:15 0.0500325
25 *92:23 *136:19 0.000791067
26 *92:23 *140:13 0.000341527
27 *92:27 *93:23 0.0915433
28 *92:27 *129:27 0.000188176
29 *92:27 *650:35 2.67829e-05
30 *92:27 *661:11 0
31 *68:17 *92:23 0.000135094
32 *68:19 *92:23 0.00283711
33 *74:23 *92:23 0.000576344
34 *76:17 *92:23 5.45304e-05
35 *76:19 *92:23 0.00541775
36 *82:25 *92:27 0.00301392
37 *86:25 *92:27 0.0202898
38 *86:31 io_oeb[31] 5.63016e-05
39 *87:25 *92:27 0.0345955
40 *89:21 *92:23 0.00245429
41 *90:23 *92:23 0.00341652
42 *91:27 *92:27 0.111815
*RES
1 *739:io_oeb_o[31] *92:15 43.7288 
2 *92:15 *92:21 27.1946 
3 *92:21 *92:23 306.729 
4 *92:23 *92:25 8 
5 *92:25 *92:27 265.727 
6 *92:27 *92:29 8 
7 *92:29 io_oeb[31] 54.8109 
*END

*D_NET *93 0.557766
*CONN
*P io_oeb[32] O
*I *739:io_oeb_o[32] O *D ntt_wb_bridge
*CAP
1 io_oeb[32] 0.0167239
2 *739:io_oeb_o[32] 0.00116654
3 *93:25 0.0167239
4 *93:23 0.0420791
5 *93:21 0.0420791
6 *93:19 0.0496081
7 *93:17 0.0507746
8 *93:17 *96:14 2.20987e-05
9 *93:17 *99:23 0.000170413
10 *93:17 *104:15 0.000189259
11 *93:19 *95:27 7.72896e-05
12 *93:19 *96:14 0.0230102
13 *93:19 *100:17 1.54005e-05
14 *93:19 *100:19 0.0149557
15 *93:19 *104:15 0.000799102
16 *93:19 *131:15 0.118236
17 *93:19 *132:17 0.000160205
18 *93:19 *132:19 5.14974e-05
19 *93:19 *133:21 0.000297512
20 *93:19 *137:13 0.00838161
21 *93:19 *140:13 0.00137042
22 *93:23 *129:27 0.00012679
23 *93:23 *580:5 0.00164474
24 *93:23 *650:35 0.00964008
25 *93:23 *661:11 2.75108e-05
26 *71:19 *93:19 0.000102866
27 *72:23 *93:19 6.54456e-05
28 *73:18 *93:19 0.000155894
29 *81:15 *93:19 0.00471026
30 *82:25 *93:23 0.00758671
31 *84:29 *93:23 0.0187408
32 *85:21 *93:19 0.0364172
33 *87:31 io_oeb[32] 0.000112235
34 *92:27 *93:23 0.0915433
*RES
1 *739:io_oeb_o[32] *93:17 30.6632 
2 *93:17 *93:19 311.924 
3 *93:19 *93:21 8 
4 *93:21 *93:23 218.381 
5 *93:23 *93:25 8 
6 *93:25 io_oeb[32] 54.9827 
*END

*D_NET *94 0.409117
*CONN
*P io_oeb[33] O
*I *739:io_oeb_o[33] O *D ntt_wb_bridge
*CAP
1 io_oeb[33] 0.0186829
2 *739:io_oeb_o[33] 0.00213862
3 *94:23 0.0186829
4 *94:21 0.0501786
5 *94:19 0.0501786
6 *94:17 0.0591664
7 *94:15 0.061305
8 *94:15 *99:23 8.24412e-05
9 *94:17 *98:14 0.0456238
10 *94:17 *138:13 0.0831484
11 *94:17 *334:43 0
12 *94:17 *337:61 0
13 *94:17 *344:23 0.0122073
14 *94:21 *683:11 0.00054362
15 *94:21 *688:11 0.000460576
16 *94:21 *688:21 0.000578216
17 *94:21 *701:27 0.00550662
18 *94:21 *725:27 4.10868e-05
19 *94:21 *726:27 0.000592169
*RES
1 *739:io_oeb_o[33] *94:15 21.2061 
2 *94:15 *94:17 311.409 
3 *94:17 *94:19 8 
4 *94:19 *94:21 171.416 
5 *94:21 *94:23 8 
6 *94:23 io_oeb[33] 58.2456 
*END

*D_NET *95 0.481072
*CONN
*P io_oeb[34] O
*I *739:io_oeb_o[34] O *D ntt_wb_bridge
*CAP
1 io_oeb[34] 0.0467646
2 *739:io_oeb_o[34] 0.0016621
3 *95:31 0.0467646
4 *95:29 0.0160747
5 *95:27 0.0185281
6 *95:13 0.017962
7 *95:11 0.0171708
8 io_oeb[34] *611:7 0
9 io_oeb[34] *612:7 0.0734281
10 *95:11 *99:23 0.000320722
11 *95:13 *96:14 0.00169157
12 *95:13 *341:53 0.00764172
13 *95:13 *342:45 0.000264261
14 *95:13 *348:51 0.0497832
15 *95:13 *357:31 0.0069302
16 *95:27 *96:14 4.82958e-05
17 *95:27 *272:25 0.00197641
18 *95:27 *283:25 0.0019623
19 *95:27 *323:23 2.26406e-05
20 *95:27 *327:39 7.57281e-06
21 *95:27 *341:53 0.000242785
22 *95:27 *343:39 8.33458e-05
23 *95:29 *272:25 0.0174629
24 *95:29 *283:25 0.0469972
25 *70:22 *95:13 0.000994189
26 *71:21 *95:13 0.000384421
27 *73:20 *95:13 0.0228137
28 *78:13 *95:11 0.000111566
29 *79:14 *95:13 0.00275943
30 *83:25 *95:27 5.96737e-06
31 *85:13 *95:13 0.0801192
32 *85:21 *95:27 1.67025e-05
33 *93:19 *95:27 7.72896e-05
*RES
1 *739:io_oeb_o[34] *95:11 42.8832 
2 *95:11 *95:13 958.243 
3 *95:13 *95:27 42.0339 
4 *95:27 *95:29 112.231 
5 *95:29 *95:31 8 
6 *95:31 io_oeb[34] 196.834 
*END

*D_NET *96 0.38955
*CONN
*P io_oeb[35] O
*I *739:io_oeb_o[35] O *D ntt_wb_bridge
*CAP
1 io_oeb[35] 0.0483485
2 *739:io_oeb_o[35] 0.0014155
3 *96:24 0.0520861
4 *96:18 0.02098
5 *96:16 0.0172424
6 *96:14 0.0293455
7 *96:12 0.030761
8 io_oeb[35] *605:9 0
9 io_oeb[35] *606:9 0.0218019
10 *96:14 *98:14 0
11 *96:14 *104:15 0
12 *96:14 *135:14 0
13 *96:14 *137:13 0.00416007
14 *96:14 *341:53 0.0197848
15 *96:14 *342:45 0.000504126
16 *96:14 *343:39 0.000375898
17 *96:14 *345:43 0.0086409
18 *96:14 *346:35 0.0103566
19 *96:14 *347:43 0.0107272
20 *96:14 *348:51 0.00962119
21 *96:18 *311:25 0.0112227
22 *96:18 *327:39 0.00471071
23 *96:18 *342:41 0.00545571
24 *96:24 *605:9 0.00147584
25 *96:24 *606:9 0
26 *71:19 *96:14 0.000224424
27 *71:21 *96:14 0.00577895
28 *72:23 *96:14 0.000143678
29 *72:25 *96:14 0.00499989
30 *73:18 *96:14 0.000322875
31 *79:14 *96:14 0.0408089
32 *83:17 *96:14 0.00089261
33 *84:17 *96:14 0.00109385
34 *85:13 *96:14 0.00149639
35 *93:17 *96:14 2.20987e-05
36 *93:19 *96:14 0.0230102
37 *95:13 *96:14 0.00169157
38 *95:27 *96:14 4.82958e-05
*RES
1 *739:io_oeb_o[35] *96:12 19.3712 
2 *96:12 *96:14 176.254 
3 *96:14 *96:16 8 
4 *96:16 *96:18 72.5349 
5 *96:18 *96:24 19.872 
6 *96:24 io_oeb[35] 186.53 
*END

*D_NET *97 0.444519
*CONN
*P io_oeb[36] O
*I *739:io_oeb_o[36] O *D ntt_wb_bridge
*CAP
1 io_oeb[36] 0.0012086
2 *739:io_oeb_o[36] 0.00076066
3 *97:65 0.00774393
4 *97:59 0.033629
5 *97:57 0.0278182
6 *97:43 0.00209023
7 *97:41 0.00136571
8 *97:39 0.00201187
9 *97:23 0.0178904
10 *97:21 0.0164902
11 *97:15 0.00291701
12 *97:13 0.003066
13 io_oeb[36] *123:33 0
14 *97:13 *99:23 9.63342e-05
15 *97:15 *112:13 0.0179867
16 *97:15 *141:13 0.0179826
17 *97:23 *103:17 0.000112764
18 *97:23 *108:15 0.0549196
19 *97:23 *120:13 0.000556959
20 *97:23 *137:21 0.0122391
21 *97:23 *139:13 2.45549e-06
22 *97:23 *142:17 0.000182169
23 *97:39 *119:25 0.000781176
24 *97:39 *119:29 0.000117396
25 *97:39 *119:49 8.21456e-06
26 *97:39 *136:31 0.00423037
27 *97:39 *136:49 0.00492947
28 *97:39 *137:13 0.00012821
29 *97:39 *138:11 4.41875e-05
30 *97:39 *139:11 0.000617498
31 *97:39 *139:13 0.000130115
32 *97:39 *140:11 4.83734e-05
33 *97:39 *142:17 0.00149038
34 *97:43 *119:49 0.000816072
35 *97:43 *120:13 0
36 *97:43 *136:55 0.00214351
37 *97:57 *119:49 0.00111436
38 *97:57 *136:65 2.11066e-05
39 *97:59 *119:53 0.0749112
40 *97:59 *132:27 0.0842452
41 *97:59 *136:67 0.007416
42 *97:65 *123:27 0.00322161
43 *97:65 *124:27 0.00100498
44 *97:65 *125:27 0
45 *97:65 *132:31 0.0138308
46 *97:65 *133:31 2.34539e-05
47 *68:19 *97:15 0.00340939
48 *80:13 *97:23 0.00632284
49 *80:23 *97:39 3.13273e-05
50 *80:25 *97:39 0.000873686
51 *82:13 *97:39 0.000275069
52 *86:13 *97:39 0.000225312
53 *86:21 *97:59 0.00846123
54 *87:13 *97:23 0
55 *87:13 *97:39 0.000311546
56 *87:21 *97:59 0.00122471
57 *91:23 *97:39 0.00103943
*RES
1 *739:io_oeb_o[36] *97:13 33.5171 
2 *97:13 *97:15 196.434 
3 *97:15 *97:21 38.5964 
4 *97:21 *97:23 621.408 
5 *97:23 *97:39 48.5952 
6 *97:39 *97:41 15 
7 *97:41 *97:43 41.5943 
8 *97:43 *97:57 45.7819 
9 *97:57 *97:59 199.481 
10 *97:59 *97:65 48.8048 
11 *97:65 io_oeb[36] 3.29093 
*END

*D_NET *98 0.321384
*CONN
*P io_oeb[37] O
*I *739:io_oeb_o[37] O *D ntt_wb_bridge
*CAP
1 io_oeb[37] 0.00119094
2 *739:io_oeb_o[37] 0.00193398
3 *98:14 0.0714549
4 *98:12 0.0721979
5 *98:14 *135:14 0.028153
6 *98:14 *138:13 0.0881347
7 *98:14 *343:39 5.02353e-05
8 *98:14 *352:23 0
9 *98:14 *353:27 0.000671106
10 *69:17 *98:14 0.0119735
11 *79:14 *98:14 0
12 *83:25 *98:14 0
13 *84:25 *98:14 0
14 *85:21 *98:14 0
15 *94:17 *98:14 0.0456238
16 *96:14 *98:14 0
*RES
1 *739:io_oeb_o[37] *98:12 20.5211 
2 *98:12 *98:14 376.495 
3 *98:14 io_oeb[37] 4.28773 
*END

*D_NET *99 0.368257
*CONN
*P io_oeb[3] O
*I *739:io_oeb_o[3] O *D ntt_wb_bridge
*CAP
1 io_oeb[3] 0.00101892
2 *739:io_oeb_o[3] 0.00240895
3 *99:27 0.0146839
4 *99:25 0.0136649
5 *99:23 0.0403234
6 *99:21 0.0409746
7 *99:17 0.00306013
8 *99:17 *109:13 0.00151231
9 *99:17 *110:13 0.000339509
10 *99:17 *137:21 5.72277e-05
11 *99:17 *141:13 0.00174598
12 *99:23 *100:27 0.00263333
13 *99:23 *102:19 1.1743e-05
14 *99:23 *102:25 0.00256651
15 *99:23 *103:19 0.0256212
16 *99:23 *103:35 0.00178901
17 *99:23 *108:15 0.0017413
18 *99:23 *137:21 0.0188459
19 *99:23 *137:29 0.00106247
20 *99:27 *100:31 0.056518
21 *99:27 *104:27 0.00951573
22 *99:27 *140:25 0.0116021
23 *99:27 *143:27 0.0104238
24 *68:19 *99:17 0.0083102
25 *68:27 *99:23 0.0306696
26 *69:15 *99:21 0
27 *69:15 *99:23 7.56811e-05
28 *71:19 *99:23 0.000178674
29 *72:23 *99:23 8.01802e-05
30 *74:23 *99:23 0.000502023
31 *75:11 *99:23 0.000437521
32 *76:17 *99:23 0.000127191
33 *77:11 *99:23 0.000147331
34 *77:31 *99:23 0.00705161
35 *78:11 *99:23 0.000138666
36 *78:13 *99:23 0.00177263
37 *80:11 *99:23 5.28642e-05
38 *80:13 *99:23 0.00154474
39 *81:13 *99:23 0.000137489
40 *82:11 *99:23 0.000247342
41 *82:13 *99:23 0.00111054
42 *83:15 *99:23 4.27273e-05
43 *84:15 *99:23 5.28502e-05
44 *85:11 *99:23 0.000208552
45 *86:11 *99:23 0.000206269
46 *86:13 *99:23 0.00172936
47 *87:11 *99:23 0.000205218
48 *87:13 *99:23 0.00234044
49 *88:13 *99:23 9.61898e-05
50 *89:11 *99:23 5.17254e-05
51 *90:23 *99:17 0.00560931
52 *90:27 *99:23 0
53 *90:31 *99:27 0.0407896
54 *91:13 *99:23 0.000112796
55 *92:15 *99:23 0.000472903
56 *92:23 *99:17 0.000964196
57 *93:17 *99:23 0.000170413
58 *94:15 *99:23 8.24412e-05
59 *95:11 *99:23 0.000320722
60 *97:13 *99:23 9.63342e-05
*RES
1 *739:io_oeb_o[3] *99:17 49.0759 
2 *99:17 *99:21 9.70613 
3 *99:21 *99:23 225.027 
4 *99:23 *99:25 8 
5 *99:25 *99:27 133.336 
6 *99:27 io_oeb[3] 10.9475 
*END

*D_NET *100 0.46999
*CONN
*P io_oeb[4] O
*I *739:io_oeb_o[4] O *D ntt_wb_bridge
*CAP
1 io_oeb[4] 0.00112099
2 *739:io_oeb_o[4] 0.00103335
3 *100:31 0.0345551
4 *100:29 0.0334341
5 *100:27 0.0195156
6 *100:25 0.0203288
7 *100:19 0.0089695
8 *100:17 0.00918963
9 *100:17 *137:21 0.000123076
10 *100:17 *140:13 9.6934e-05
11 *100:19 *101:15 0.0016371
12 *100:19 *104:15 0.0256843
13 *100:19 *140:13 0.000372809
14 *100:27 *102:19 0.0761676
15 *100:27 *102:25 1.49526e-05
16 *100:27 *103:35 0.00293944
17 *100:27 *111:15 0.00038077
18 *100:27 *114:23 0.000663113
19 *100:27 *142:27 0.00134597
20 *100:31 *101:27 0.00661004
21 *100:31 *107:39 0.0120141
22 *100:31 *108:19 0.0307849
23 *100:31 *140:25 0.00493311
24 *81:15 *100:19 0.00651087
25 *90:27 *100:27 0.0970206
26 *90:31 *100:31 0.000151409
27 *92:15 *100:27 0.000268907
28 *93:19 *100:17 1.54005e-05
29 *93:19 *100:19 0.0149557
30 *99:23 *100:27 0.00263333
31 *99:27 *100:31 0.056518
*RES
1 *739:io_oeb_o[4] *100:17 28.4197 
2 *100:17 *100:19 57.8443 
3 *100:19 *100:25 17.7061 
4 *100:25 *100:27 179.861 
5 *100:27 *100:29 8 
6 *100:29 *100:31 171.162 
7 *100:31 io_oeb[4] 11.1192 
*END

*D_NET *101 0.420376
*CONN
*P io_oeb[5] O
*I *739:io_oeb_o[5] O *D ntt_wb_bridge
*CAP
1 io_oeb[5] 0.0010178
2 *739:io_oeb_o[5] 0.00102615
3 *101:27 0.00969055
4 *101:25 0.00867275
5 *101:23 0.0473764
6 *101:21 0.0473764
7 *101:19 0.0500753
8 *101:17 0.0500753
9 *101:15 0.0089974
10 *101:13 0.0100235
11 *101:13 *137:21 0.000330909
12 *101:15 *104:15 0.0371683
13 *101:15 *105:15 0.0119323
14 *101:15 *140:13 0.0441315
15 *101:15 *143:15 0.00776712
16 *101:15 *357:31 0
17 *101:19 *284:17 0.0111326
18 *101:19 *360:31 0.00394734
19 *101:19 *367:27 0.00556438
20 *101:19 *369:19 0.00394734
21 *101:19 *373:17 0.00505183
22 *101:19 *649:15 0.000672801
23 *101:19 *662:43 0.0100752
24 *101:19 *689:27 0
25 *101:19 *737:11 0
26 *101:23 *358:23 0.00131233
27 *101:23 *362:23 0.000176157
28 *101:23 *651:15 0
29 *101:23 *664:27 0.000112274
30 *101:23 *670:13 0
31 *101:23 *676:27 0.000137587
32 *101:27 *104:27 0.00415195
33 *101:27 *107:39 0.00113011
34 *101:27 *108:19 0.00197093
35 *101:27 *140:25 0.0223317
36 *101:27 *143:27 0.00475301
37 *79:14 *101:15 0
38 *100:19 *101:15 0.0016371
39 *100:31 *101:27 0.00661004
*RES
1 *739:io_oeb_o[5] *101:13 28.3021 
2 *101:13 *101:15 81.7581 
3 *101:15 *101:17 8 
4 *101:17 *101:19 157.073 
5 *101:19 *101:21 8 
6 *101:21 *101:23 153.586 
7 *101:23 *101:25 8 
8 *101:25 *101:27 52.7333 
9 *101:27 io_oeb[5] 10.9475 
*END

*D_NET *102 0.489747
*CONN
*P io_oeb[6] O
*I *739:io_oeb_o[6] O *D ntt_wb_bridge
*CAP
1 io_oeb[6] 0.0101414
2 *739:io_oeb_o[6] 0.000636542
3 *102:27 0.0642523
4 *102:25 0.0554202
5 *102:19 0.0217502
6 *102:17 0.0210775
7 *102:17 *137:21 0.000314862
8 *102:19 *103:17 0.000388452
9 *102:19 *103:19 0.100068
10 *102:19 *103:35 0.00129414
11 *102:19 *111:15 0.000198859
12 *102:19 *113:15 0.000224797
13 *102:19 *137:21 0.000478534
14 *102:19 *142:19 0.00148595
15 *102:19 *142:27 0.0176947
16 *102:25 *103:35 0.00476818
17 *102:25 *108:15 0.000802963
18 *102:27 *113:19 0.00309258
19 *102:27 *115:203 0.00800103
20 *102:27 *659:15 0.00272763
21 *102:27 *665:21 0.00938243
22 *102:27 *669:11 0.000676593
23 *102:27 *669:17 0.005222
24 *102:27 *680:11 0.046261
25 *102:27 *686:21 0.00472338
26 *75:17 *102:27 0.00213034
27 *76:23 *102:27 0.00213034
28 *88:15 *102:19 0.00561524
29 *89:13 *102:19 0.00560873
30 *90:27 *102:19 0.0144177
31 *99:23 *102:19 1.1743e-05
32 *99:23 *102:25 0.00256651
33 *100:27 *102:19 0.0761676
34 *100:27 *102:25 1.49526e-05
*RES
1 *739:io_oeb_o[6] *102:17 19.7195 
2 *102:17 *102:19 193.943 
3 *102:19 *102:25 17.296 
4 *102:25 *102:27 245.164 
5 *102:27 io_oeb[6] 40.8291 
*END

*D_NET *103 0.521644
*CONN
*P io_oeb[7] O
*I *739:io_oeb_o[7] O *D ntt_wb_bridge
*CAP
1 io_oeb[7] 0.00908971
2 *739:io_oeb_o[7] 0.000831586
3 *103:37 0.0657149
4 *103:35 0.0595478
5 *103:19 0.0277028
6 *103:17 0.0256118
7 *103:17 *108:15 0.000130187
8 *103:17 *111:15 0.000138462
9 *103:17 *113:15 0.000119931
10 *103:17 *137:21 0.0010673
11 *103:19 *108:15 0.0116079
12 *103:19 *111:15 0.0172783
13 *103:19 *113:15 0.0201683
14 *103:19 *137:21 0.0111448
15 *103:35 la_data_out[116] 1.32324e-05
16 *103:35 *108:15 0.000531547
17 *103:35 *111:15 0.00115998
18 *103:35 *113:15 0.00111176
19 *103:35 *114:23 0.000657184
20 *103:35 *142:27 0.00084956
21 *69:21 *103:37 0.124893
22 *77:21 *103:19 0.00133477
23 *77:31 *103:19 0.00372559
24 *80:13 *103:17 0.000120607
25 *87:13 *103:17 0.000111652
26 *97:23 *103:17 0.000112764
27 *99:23 *103:19 0.0256212
28 *99:23 *103:35 0.00178901
29 *100:27 *103:35 0.00293944
30 *102:19 *103:17 0.000388452
31 *102:19 *103:19 0.100068
32 *102:19 *103:35 0.00129414
33 *102:25 *103:35 0.00476818
*RES
1 *739:io_oeb_o[7] *103:17 21.1717 
2 *103:17 *103:19 185.528 
3 *103:19 *103:35 42.6038 
4 *103:35 *103:37 294.795 
5 *103:37 io_oeb[7] 38.0813 
*END

*D_NET *104 0.601677
*CONN
*P io_oeb[8] O
*I *739:io_oeb_o[8] O *D ntt_wb_bridge
*CAP
1 io_oeb[8] 0.000894044
2 *739:io_oeb_o[8] 0.000944733
3 *104:27 0.0254905
4 *104:25 0.0245964
5 *104:23 0.0337277
6 *104:21 0.0347709
7 *104:15 0.00950782
8 *104:13 0.00940942
9 *104:13 *137:21 5.517e-05
10 *104:23 *139:21 0.0141251
11 *104:27 *105:27 0.0831825
12 *104:27 *107:39 0.00407146
13 *104:27 *137:33 0.0525982
14 *104:27 *140:25 0.000117177
15 *104:27 *143:27 0.142292
16 *68:25 *104:21 0.000879872
17 *68:27 *104:23 0.0838373
18 *77:13 *104:15 0.00281941
19 *78:23 *104:23 0.000848764
20 *79:14 *104:15 0
21 *93:17 *104:15 0.000189259
22 *93:19 *104:15 0.000799102
23 *96:14 *104:15 0
24 *99:27 *104:27 0.00951573
25 *100:19 *104:15 0.0256843
26 *101:15 *104:15 0.0371683
27 *101:27 *104:27 0.00415195
*RES
1 *739:io_oeb_o[8] *104:13 28.5061 
2 *104:13 *104:15 68.7064 
3 *104:15 *104:21 18.7216 
4 *104:21 *104:23 160.412 
5 *104:23 *104:25 8 
6 *104:25 *104:27 1905.94 
7 *104:27 io_oeb[8] 10.8187 
*END

*D_NET *105 0.470958
*CONN
*P io_oeb[9] O
*I *739:io_oeb_o[9] O *D ntt_wb_bridge
*CAP
1 io_oeb[9] 0.000869355
2 *739:io_oeb_o[9] 0.00105074
3 *105:27 0.0378827
4 *105:25 0.0370133
5 *105:23 0.0383131
6 *105:21 0.0383131
7 *105:19 0.0158547
8 *105:17 0.0158547
9 *105:15 0.00978057
10 *105:13 0.0108313
11 *105:13 *137:21 0.000212088
12 *105:15 *143:15 0.0357379
13 *105:19 *292:19 0.0650069
14 *105:19 *354:27 0
15 *105:19 *376:19 0
16 *105:19 *675:31 0.000597045
17 *105:19 *677:27 0.00968081
18 *105:19 *733:11 0.00402911
19 *105:19 *733:33 0.000448077
20 *105:19 *734:19 0.017175
21 *105:23 *115:191 0.00288914
22 *105:23 *378:23 0.000441978
23 *105:23 *384:21 0.00242938
24 *105:23 *386:23 0.000958701
25 *105:23 *390:15 0
26 *105:23 *394:15 0
27 *105:27 *107:39 0.00193809
28 *105:27 *140:25 0.00712205
29 *105:27 *143:27 0.00850815
30 *74:27 *105:15 0.001397
31 *77:13 *105:15 0.0088669
32 *81:15 *105:15 0.00264118
33 *101:15 *105:15 0.0119323
34 *104:27 *105:27 0.0831825
*RES
1 *739:io_oeb_o[9] *105:13 34.917 
2 *105:13 *105:15 418.926 
3 *105:15 *105:17 15 
4 *105:17 *105:19 863.951 
5 *105:19 *105:21 15 
6 *105:21 *105:23 838.183 
7 *105:23 *105:25 15 
8 *105:25 *105:27 1331.42 
9 *105:27 io_oeb[9] 10.7328 
*END

*D_NET *106 0.383894
*CONN
*P io_out[0] O
*I *739:io_out_o[0] O *D ntt_wb_bridge
*CAP
1 io_out[0] 0.0365602
2 *739:io_out_o[0] 0.000747203
3 *106:19 0.0391968
4 *106:13 0.019095
5 *106:11 0.0172056
6 io_out[0] *730:7 0.0669169
7 *106:11 *119:49 0.000262393
8 *106:13 *117:13 0.0939971
9 *106:13 *128:29 0.0848769
10 *106:13 *133:27 0.00527754
11 *106:19 *117:17 0.00423262
12 *76:19 *106:13 1.82674e-05
13 *82:13 *106:11 0.000104298
14 *87:13 *106:11 0.000104298
15 *89:21 *106:13 0.000805864
16 *91:15 *106:13 0.0137589
17 *92:23 *106:13 0.000733936
*RES
1 *739:io_out_o[0] *106:11 18.2195 
2 *106:11 *106:13 176.254 
3 *106:13 *106:19 26.3376 
4 *106:19 io_out[0] 159.912 
*END

*D_NET *107 0.761228
*CONN
*P io_out[10] O
*I *739:io_out_o[10] O *D ntt_wb_bridge
*CAP
1 io_out[10] 0.000920148
2 *739:io_out_o[10] 0.0033735
3 *107:39 0.0318677
4 *107:37 0.0309476
5 *107:35 0.0407501
6 *107:33 0.0411155
7 *107:27 0.000779834
8 *107:25 0.000585429
9 *107:19 0.00354446
10 *107:19 *124:15 0.00194658
11 *107:19 *125:15 0.00168607
12 *107:19 *132:19 0.00901234
13 *107:19 *136:31 0.000382353
14 *107:19 *140:13 0.00525019
15 *107:25 *115:13 0
16 *107:27 *112:13 0.00326782
17 *107:27 *126:15 0.00326952
18 *107:27 *140:13 0.000572572
19 *107:35 *108:15 0
20 *107:35 *110:13 0
21 *107:35 *114:13 0.127406
22 *107:35 *128:29 0.0320032
23 *107:35 *142:27 0
24 *107:39 *108:19 0.188391
25 *107:39 *128:33 0
26 *107:39 *137:33 2.12347e-06
27 *107:39 *140:25 0.00168945
28 *107:39 *143:27 0.158562
29 *91:15 *107:35 0.0547491
30 *100:31 *107:39 0.0120141
31 *101:27 *107:39 0.00113011
32 *104:27 *107:39 0.00407146
33 *105:27 *107:39 0.00193809
*RES
1 *739:io_out_o[10] *107:19 46.6987 
2 *107:19 *107:25 25.0818 
3 *107:25 *107:27 35.8771 
4 *107:27 *107:33 35.4271 
5 *107:33 *107:35 1590.46 
6 *107:35 *107:37 15 
7 *107:37 *107:39 2395.24 
8 *107:39 io_out[10] 10.9904 
*END

*D_NET *108 0.701317
*CONN
*P io_out[11] O
*I *739:io_out_o[11] O *D ntt_wb_bridge
*CAP
1 io_out[11] 0.000958855
2 *739:io_out_o[11] 0.000263184
3 *108:19 0.0777467
4 *108:17 0.0767878
5 *108:15 0.0399753
6 *108:13 0.0402384
7 *108:13 *136:31 0.000116903
8 *108:15 *111:15 0.146498
9 *108:15 *120:13 0.00138758
10 *108:15 *137:21 0.0103875
11 *108:15 *142:27 0.00154424
12 *108:19 io_out[5] 0.000408065
13 *108:19 io_out[7] 7.60729e-05
14 *108:19 io_out[8] 0.000298437
15 *108:19 *140:25 0.003069
16 *77:21 *108:15 0.00950977
17 *77:31 *108:15 0.00117119
18 *78:13 *108:15 0
19 *87:13 *108:15 0
20 *97:23 *108:15 0.0549196
21 *99:23 *108:15 0.0017413
22 *100:31 *108:19 0.0307849
23 *101:27 *108:19 0.00197093
24 *102:25 *108:15 0.000802963
25 *103:17 *108:15 0.000130187
26 *103:19 *108:15 0.0116079
27 *103:35 *108:15 0.000531547
28 *107:35 *108:15 0
29 *107:39 *108:19 0.188391
*RES
1 *739:io_out_o[11] *108:13 25.4551 
2 *108:13 *108:15 1712.43 
3 *108:15 *108:17 15 
4 *108:17 *108:19 2666.39 
5 *108:19 io_out[11] 11.0763 
*END

*D_NET *109 0.620622
*CONN
*P io_out[12] O
*I *739:io_out_o[12] O *D ntt_wb_bridge
*CAP
1 io_out[12] 0.00117893
2 *739:io_out_o[12] 0.00092926
3 *109:21 0.00389493
4 *109:19 0.00271601
5 *109:17 0.127245
6 *109:15 0.127245
7 *109:13 0.0219322
8 *109:11 0.0228615
9 *109:11 *136:31 0.000167577
10 *109:13 *110:13 0.148678
11 *109:13 *112:13 0.000384437
12 *109:13 *116:19 0.00136372
13 *109:13 *130:15 0.00145577
14 *109:13 *136:19 0.00213103
15 *109:13 *140:13 0.000196339
16 *109:13 *141:13 0.139533
17 *68:19 *109:13 0.000397703
18 *74:23 *109:13 0.000248557
19 *76:19 *109:13 0.0164078
20 *90:23 *109:13 0.000143687
21 *91:15 *109:13 0
22 *99:17 *109:13 0.00151231
*RES
1 *739:io_out_o[12] *109:11 33.7485 
2 *109:11 *109:13 1640.49 
3 *109:13 *109:15 15 
4 *109:15 *109:17 2945.12 
5 *109:17 *109:19 15 
6 *109:19 *109:21 56.84 
7 *109:21 io_out[12] 30.3568 
*END

*D_NET *110 0.557454
*CONN
*P io_out[13] O
*I *739:io_out_o[13] O *D ntt_wb_bridge
*CAP
1 io_out[13] 0.00102114
2 *739:io_out_o[13] 0.00106309
3 *110:21 0.00292442
4 *110:19 0.00190328
5 *110:17 0.139213
6 *110:15 0.139213
7 *110:13 0.0496288
8 *110:11 0.0506919
9 *110:11 *136:31 0.000249133
10 *110:13 *116:19 0.00109517
11 *110:13 *134:15 0.00387497
12 *110:13 *136:19 0.000343523
13 *74:23 *110:13 0.000215788
14 *76:19 *110:13 0.0139937
15 *90:23 *110:13 0.00132881
16 *91:15 *110:13 0
17 *92:23 *110:13 0.00167673
18 *99:17 *110:13 0.000339509
19 *107:35 *110:13 0
20 *109:13 *110:13 0.148678
*RES
1 *739:io_out_o[13] *110:11 33.6876 
2 *110:11 *110:13 1640.49 
3 *110:13 *110:15 15 
4 *110:15 *110:17 3223.31 
5 *110:17 *110:19 15 
6 *110:19 *110:21 42.5471 
7 *110:21 io_out[13] 27.1875 
*END

*D_NET *111 0.663837
*CONN
*P io_out[14] O
*I *739:io_out_o[14] O *D ntt_wb_bridge
*CAP
1 io_out[14] 0.0011635
2 *739:io_out_o[14] 0.000297943
3 *111:23 0.0045364
4 *111:21 0.0033729
5 *111:19 0.150618
6 *111:17 0.150618
7 *111:15 0.0198957
8 *111:13 0.0201937
9 *111:13 *136:31 0.000125134
10 *111:15 *113:15 0.135466
11 *111:15 *120:13 0.00130647
12 *111:15 *137:21 0.00567582
13 *111:15 *142:27 0.00491236
14 *111:19 la_data_out[124] 0
15 *100:27 *111:15 0.00038077
16 *102:19 *111:15 0.000198859
17 *103:17 *111:15 0.000138462
18 *103:19 *111:15 0.0172783
19 *103:35 *111:15 0.00115998
20 *108:15 *111:15 0.146498
*RES
1 *739:io_out_o[14] *111:13 25.8222 
2 *111:13 *111:15 1602.85 
3 *111:15 *111:17 15 
4 *111:17 *111:19 3488.47 
5 *111:19 *111:21 15 
6 *111:21 *111:23 71.1329 
7 *111:23 io_out[14] 30.0046 
*END

*D_NET *112 0.620986
*CONN
*P io_out[15] O
*I *739:io_out_o[15] O *D ntt_wb_bridge
*CAP
1 io_out[15] 0.000950235
2 *739:io_out_o[15] 0.000848797
3 *112:21 0.0024485
4 *112:17 0.148761
5 *112:15 0.147263
6 *112:13 0.0222844
7 *112:11 0.0231332
8 *112:11 *136:31 4.27273e-05
9 *112:13 *115:23 0.0303714
10 *112:13 *126:15 0.00634695
11 *112:13 *136:19 0.0021369
12 *112:13 *140:13 0.00271681
13 *112:13 *141:13 0.0668114
14 *112:13 *143:15 0.000364684
15 *112:17 la_data_out[119] 0.0323612
16 *68:19 *112:13 0.00990236
17 *73:24 *112:17 0
18 *74:27 *112:13 7.13587e-05
19 *75:13 *112:13 0.0907634
20 *75:21 *112:21 0
21 *76:19 *112:13 0.0117693
22 *78:145 *112:17 0
23 *97:15 *112:13 0.0179867
24 *107:27 *112:13 0.00326782
25 *109:13 *112:13 0.000384437
*RES
1 *739:io_out_o[15] *112:11 34.3906 
2 *112:11 *112:13 1501.37 
3 *112:13 *112:15 15 
4 *112:15 *112:17 3582.14 
5 *112:17 *112:21 45.16 
6 *112:21 io_out[15] 35.3207 
*END

*D_NET *113 1.04909
*CONN
*P io_out[16] O
*I *739:io_out_o[16] O *D ntt_wb_bridge
*CAP
1 io_out[16] 0.000780607
2 *739:io_out_o[16] 0.000386477
3 *113:23 0.00957834
4 *113:21 0.00879773
5 *113:19 0.0479085
6 *113:17 0.0479085
7 *113:15 0.0188951
8 *113:13 0.0192815
9 *113:13 *136:31 0.000104041
10 *113:15 *120:13 0.00670639
11 *113:15 *137:21 0.00458053
12 *113:15 *142:27 0.101342
13 *113:19 *669:11 0.032316
14 *113:19 *669:17 0.000955346
15 *113:19 *686:21 0.00186186
16 *113:19 *721:11 0.24455
17 *73:24 *113:19 0
18 *74:35 *113:23 0.00917306
19 *75:17 *113:19 0.281753
20 *75:21 *113:23 0.0329492
21 *76:23 *113:19 1.12487e-05
22 *76:27 *113:23 0.00356647
23 *88:15 *113:15 0.015498
24 *102:19 *113:15 0.000224797
25 *102:27 *113:19 0.00309258
26 *103:17 *113:15 0.000119931
27 *103:19 *113:15 0.0201683
28 *103:35 *113:15 0.00111176
29 *111:15 *113:15 0.135466
*RES
1 *739:io_out_o[16] *113:13 26.1557 
2 *113:13 *113:15 1482.31 
3 *113:15 *113:17 15 
4 *113:17 *113:19 3577.92 
5 *113:19 *113:21 15 
6 *113:21 *113:23 360.325 
7 *113:23 io_out[16] 31.7993 
*END

*D_NET *114 0.923268
*CONN
*P io_out[17] O
*I *739:io_out_o[17] O *D ntt_wb_bridge
*CAP
1 io_out[17] 0.000657868
2 *739:io_out_o[17] 0.000796539
3 *114:49 0.0242706
4 *114:47 0.0236128
5 *114:45 0.108207
6 *114:43 0.108314
7 *114:37 0.00902405
8 *114:35 0.0100091
9 *114:25 0.0342141
10 *114:23 0.0333329
11 *114:13 0.0322195
12 *114:11 0.0328056
13 *114:11 *136:31 0.000208691
14 *114:13 *115:31 0.0265583
15 *114:13 *118:15 0.00305783
16 *114:13 *123:15 0.00883671
17 *114:13 *128:29 0.024464
18 *114:13 *142:27 0
19 *114:23 la_data_out[117] 0
20 *114:23 *142:27 0.000122779
21 *114:25 *646:41 0.00702373
22 *114:25 *652:11 0.0211348
23 *114:25 *672:6 0.0154422
24 *114:25 *700:11 0.00372771
25 *114:25 *730:11 0
26 *114:35 *646:41 0.00089678
27 *114:35 *672:6 0.000129537
28 *114:37 *646:23 0
29 *114:37 *654:11 0.00162542
30 *114:37 *658:19 5.62433e-06
31 *114:37 *682:23 0.0058813
32 *114:37 *685:49 0.00620781
33 *114:37 *714:19 0
34 *114:37 *714:27 0
35 *114:37 *715:11 3.15638e-05
36 *114:37 *724:23 0.00109381
37 *114:45 *740:mem_addr[3] 0.00609021
38 *114:45 *654:11 0.0583789
39 *114:45 *658:35 0.0317869
40 *114:45 *667:15 0.0118875
41 *114:45 *673:15 0.0118875
42 *114:45 *679:15 0.0145029
43 *114:45 *685:41 0.00101899
44 *114:45 *714:27 0.0217496
45 *76:27 *114:49 0.066251
46 *77:137 *114:35 0.000617684
47 *77:145 *114:45 0.0159673
48 *89:13 *114:13 0.00997967
49 *91:15 *114:13 0.000510747
50 *100:27 *114:23 0.000663113
51 *103:35 *114:23 0.000657184
52 *107:35 *114:13 0.127406
*RES
1 *739:io_out_o[17] *114:11 29.6908 
2 *114:11 *114:13 1437.05 
3 *114:13 *114:23 33.9448 
4 *114:23 *114:25 160.5 
5 *114:25 *114:35 19.7427 
6 *114:35 *114:37 293.128 
7 *114:37 *114:43 16.2707 
8 *114:43 *114:45 429.979 
9 *114:45 *114:47 8 
10 *114:47 *114:49 122.201 
11 *114:49 io_out[17] 22.8625 
*END

*D_NET *115 0.815082
*CONN
*P io_out[18] O
*I *739:io_out_o[18] O *D ntt_wb_bridge
*CAP
1 io_out[18] 0.00663182
2 *739:io_out_o[18] 0.00113938
3 *115:249 0.0077576
4 *115:245 0.0019005
5 *115:241 0.00163372
6 *115:235 0.00309709
7 *115:233 0.0026057
8 *115:229 0.000943804
9 *115:223 0.0437704
10 *115:221 0.0431942
11 *115:219 0.0385074
12 *115:217 0.0390499
13 *115:211 0.00695465
14 *115:209 0.006825
15 *115:203 0.00603131
16 *115:201 0.00753335
17 *115:197 0.00275251
18 *115:191 0.00177137
19 *115:187 0.00235292
20 *115:185 0.00213022
21 *115:179 0.00339163
22 *115:177 0.00336314
23 *115:171 0.00651841
24 *115:169 0.0058359
25 *115:167 0.00343294
26 *115:165 0.00343294
27 *115:163 0.00241115
28 *115:161 0.0036419
29 *115:157 0.00202309
30 *115:151 0.00285205
31 *115:149 0.00267232
32 *115:143 0.0018145
33 *115:137 0.00207585
34 *115:131 0.00254915
35 *115:129 0.00167519
36 *115:127 0.00260547
37 *115:125 0.00260547
38 *115:123 0.00188183
39 *115:121 0.00188183
40 *115:119 0.0022447
41 *115:117 0.0022447
42 *115:115 0.00141885
43 *115:111 0.00292148
44 *115:107 0.00381106
45 *115:105 0.00317911
46 *115:101 0.00165898
47 *115:97 0.00169971
48 *115:91 0.00328997
49 *115:89 0.00237855
50 *115:87 0.0031431
51 *115:85 0.0031431
52 *115:83 0.00240301
53 *115:81 0.00328866
54 *115:77 0.00142537
55 *115:71 0.00487547
56 *115:69 0.00433574
57 *115:67 0.00142879
58 *115:63 0.00255306
59 *115:57 0.00202077
60 *115:53 0.00187142
61 *115:49 0.00162223
62 *115:43 0.00154468
63 *115:39 0.00400427
64 *115:37 0.00310689
65 *115:35 0.00211159
66 *115:33 0.00211159
67 *115:31 0.00583775
68 *115:29 0.00624643
69 *115:23 0.00518124
70 *115:21 0.00718123
71 *115:13 0.00354806
72 *115:13 *136:31 0.000293869
73 *115:21 *124:15 0.00177698
74 *115:21 *125:15 0.00233196
75 *115:21 *127:15 0.00266421
76 *115:21 *132:19 0.00607386
77 *115:21 *133:21 6.52177e-06
78 *115:21 *140:13 0.0126989
79 *115:21 *143:15 0.00213115
80 *115:23 *140:13 0.00587057
81 *115:23 *143:15 0.0171849
82 *115:31 *142:27 0.00117376
83 *115:35 *356:31 0
84 *115:35 *359:41 0.00552936
85 *115:35 *729:9 0.000150895
86 *115:35 *731:9 0.000150895
87 *115:43 *362:27 0.0025318
88 *115:49 *143:23 0
89 *115:63 *285:17 0.00167258
90 *115:67 *530:19 0
91 *115:81 *653:7 0.000468408
92 *115:91 la_data_out[95] 0
93 *115:101 la_data_out[96] 0
94 *115:107 la_data_out[97] 0.00306179
95 *115:111 *705:7 0.000341715
96 *115:127 *715:7 0.000245078
97 *115:143 *279:19 0
98 *115:143 *671:21 0.000364338
99 *115:167 *663:27 0
100 *115:171 la_data_out[114] 0
101 *115:187 *296:19 0.0026172
102 *115:203 *665:11 0.0394
103 *115:211 *141:17 0.00796496
104 *115:211 *648:11 0.0371617
105 *115:211 *659:15 0.00526219
106 *115:211 *671:17 0.000279216
107 *115:219 *685:25 0
108 *115:219 *690:11 0.00837698
109 *115:219 *708:27 0.0125123
110 *115:219 *715:19 0.00514105
111 *115:219 *738:19 0.0167081
112 *115:233 *646:11 0.000220332
113 *115:233 *685:21 0
114 *115:233 *714:31 0.00057106
115 *73:24 *115:203 0.0394
116 *74:23 *115:29 6.85548e-05
117 *75:11 *115:29 0
118 *77:65 *115:83 0.00281879
119 *77:89 *115:115 0
120 *77:113 *115:163 0.00174069
121 *77:159 *115:223 0.00123498
122 *78:111 *115:151 0.00119251
123 *78:115 *115:163 0
124 *78:153 *115:211 0.0110812
125 *78:161 *115:219 0.0927482
126 *79:18 *115:35 0.000809459
127 *89:13 *115:31 0.00576434
128 *90:27 *115:31 0.00582559
129 *92:15 *115:31 0.000559787
130 *102:27 *115:203 0.00800103
131 *105:23 *115:191 0.00288914
132 *107:25 *115:13 0
133 *112:13 *115:23 0.0303714
134 *114:13 *115:31 0.0265583
*RES
1 *739:io_out_o[18] *115:13 28.8123 
2 *115:13 *115:21 47.5316 
3 *115:21 *115:23 331.739 
4 *115:23 *115:29 36.1314 
5 *115:29 *115:31 290.29 
6 *115:31 *115:33 15 
7 *115:33 *115:35 70.9257 
8 *115:35 *115:37 15 
9 *115:37 *115:39 54.4579 
10 *115:39 *115:43 47.19 
11 *115:43 *115:49 43.9614 
12 *115:49 *115:53 36.9779 
13 *115:53 *115:57 33.2493 
14 *115:57 *115:63 46.9 
15 *115:63 *115:67 47.19 
16 *115:67 *115:69 15 
17 *115:69 *115:71 93.0486 
18 *115:71 *115:77 41.7657 
19 *115:77 *115:81 32.7729 
20 *115:81 *115:83 67.4043 
21 *115:83 *115:85 15 
22 *115:85 *115:87 64.4629 
23 *115:87 *115:89 15 
24 *115:89 *115:91 54.0229 
25 *115:91 *115:97 48.2493 
26 *115:97 *115:101 32.7521 
27 *115:101 *115:105 32.7729 
28 *115:105 *115:107 75.1514 
29 *115:107 *115:111 47.5421 
30 *115:111 *115:115 47.19 
31 *115:115 *115:117 15 
32 *115:117 *115:119 46.3586 
33 *115:119 *115:121 15 
34 *115:121 *115:123 43.1064 
35 *115:123 *115:125 15 
36 *115:125 *115:127 57.3164 
37 *115:127 *115:129 15 
38 *115:129 *115:131 37.8243 
39 *115:131 *115:137 47.7729 
40 *115:137 *115:143 41.2036 
41 *115:143 *115:149 43.5264 
42 *115:149 *115:151 43.0236 
43 *115:151 *115:157 47.4 
44 *115:157 *115:161 40.3957 
45 *115:161 *115:163 63.1786 
46 *115:163 *115:165 15 
47 *115:165 *115:167 71.6093 
48 *115:167 *115:169 15 
49 *115:169 *115:171 132.199 
50 *115:171 *115:177 44.4379 
51 *115:177 *115:179 61.0657 
52 *115:179 *115:185 44.9143 
53 *115:185 *115:187 43.1064 
54 *115:187 *115:191 46.5893 
55 *115:191 *115:197 48.1043 
56 *115:197 *115:201 47.0657 
57 *115:201 *115:203 500.188 
58 *115:203 *115:209 35.8621 
59 *115:209 *115:211 471.664 
60 *115:211 *115:217 38.2443 
61 *115:217 *115:219 1521.4 
62 *115:219 *115:221 15 
63 *115:221 *115:223 968.248 
64 *115:223 *115:229 41.4136 
65 *115:229 *115:233 26.1029 
66 *115:233 *115:235 50.8536 
67 *115:235 *115:241 47.7729 
68 *115:241 *115:245 32.7521 
69 *115:245 *115:249 38.49 
70 *115:249 io_out[18] 149.205 
*END

*D_NET *116 0.728097
*CONN
*P io_out[19] O
*I *739:io_out_o[19] O *D ntt_wb_bridge
*CAP
1 io_out[19] 0.000767633
2 *739:io_out_o[19] 0.00342339
3 *116:179 0.00373137
4 *116:177 0.00358783
5 *116:171 0.00367702
6 *116:169 0.00383622
7 *116:163 0.00179655
8 *116:159 0.00212733
9 *116:155 0.00316251
10 *116:153 0.00274603
11 *116:147 0.00258441
12 *116:145 0.00287921
13 *116:141 0.0018473
14 *116:137 0.00139997
15 *116:131 0.0034421
16 *116:129 0.00289704
17 *116:127 0.00454534
18 *116:125 0.00454534
19 *116:123 0.0372397
20 *116:121 0.0372397
21 *116:119 0.0415933
22 *116:117 0.0418372
23 *116:111 0.0188684
24 *116:109 0.021971
25 *116:95 0.0081501
26 *116:93 0.0048036
27 *116:91 0.00338804
28 *116:89 0.00338804
29 *116:87 0.00410946
30 *116:85 0.00410946
31 *116:83 0.00165167
32 *116:81 0.00165167
33 *116:79 0.00390117
34 *116:77 0.00390117
35 *116:75 0.00225593
36 *116:73 0.00225593
37 *116:71 0.00159543
38 *116:69 0.00159543
39 *116:67 0.00258798
40 *116:65 0.00258798
41 *116:63 0.00452385
42 *116:61 0.00452385
43 *116:59 0.00336013
44 *116:57 0.00336013
45 *116:55 0.00238261
46 *116:53 0.00305832
47 *116:47 0.00938892
48 *116:45 0.00871321
49 *116:43 0.00343985
50 *116:41 0.00343985
51 *116:39 0.00627491
52 *116:37 0.00694842
53 *116:31 0.00305127
54 *116:29 0.00237776
55 *116:27 0.0245938
56 *116:25 0.0246714
57 *116:19 0.00350094
58 *116:19 *128:21 7.20213e-06
59 *116:19 *130:15 0.00981383
60 *116:19 *134:15 0.00901912
61 *116:19 *136:31 0.000357669
62 *116:19 *141:13 0.00155673
63 *116:27 *118:15 0
64 *116:27 *124:15 0
65 *116:27 *124:23 0.00333525
66 *116:27 *125:15 0
67 *116:27 *126:15 0
68 *116:27 *128:21 0.000584373
69 *116:27 *134:15 0.00240341
70 *116:27 *141:13 0.0011404
71 *116:31 la_data_out[5] 0
72 *116:43 *544:9 0.00125824
73 *116:53 *603:9 0.000334999
74 *116:55 *578:13 0.00318862
75 *116:59 *582:9 0.0012331
76 *116:63 *596:5 0
77 *116:75 *619:7 0.00145525
78 *116:79 wbs_dat_o[22] 0
79 *116:83 *612:7 0.000657707
80 *116:87 wbs_dat_o[20] 0
81 *116:109 *662:23 0.00317052
82 *116:109 *677:15 0.00316461
83 *116:109 *702:18 0.000695587
84 *116:111 *118:27 0.11933
85 *116:111 *677:11 0.00936556
86 *116:111 *683:11 0.00337683
87 *116:111 *691:11 0.0104787
88 *116:111 *702:22 0.111407
89 *116:119 *118:27 0
90 *116:119 *704:35 0
91 *78:241 *116:179 0.00260414
92 *92:23 *116:27 0.00441097
93 *109:13 *116:19 0.00136372
94 *110:13 *116:19 0.00109517
*RES
1 *739:io_out_o[19] *116:19 48.9028 
2 *116:19 *116:25 24.0254 
3 *116:25 *116:27 511.353 
4 *116:27 *116:29 15 
5 *116:29 *116:31 50.1493 
6 *116:31 *116:37 44.4379 
7 *116:37 *116:39 139.594 
8 *116:39 *116:41 15 
9 *116:41 *116:43 71.6093 
10 *116:43 *116:45 15 
11 *116:45 *116:47 189.598 
12 *116:47 *116:53 43.9614 
13 *116:53 *116:55 67.7564 
14 *116:55 *116:57 15 
15 *116:57 *116:59 72.0857 
16 *116:59 *116:61 15 
17 *116:61 *116:63 100.154 
18 *116:63 *116:65 15 
19 *116:65 *116:67 53.505 
20 *116:67 *116:69 15 
21 *116:69 *116:71 36.0636 
22 *116:71 *116:73 15 
23 *116:73 *116:75 46.835 
24 *116:75 *116:77 15 
25 *116:77 *116:79 86.0679 
26 *116:79 *116:81 15 
27 *116:81 *116:83 35.8771 
28 *116:83 *116:85 15 
29 *116:85 *116:87 92.7586 
30 *116:87 *116:89 15 
31 *116:89 *116:91 71.6093 
32 *116:91 *116:93 15 
33 *116:93 *116:95 108.077 
34 *116:95 *116:109 46.3995 
35 *116:109 *116:111 1514.89 
36 *116:111 *116:117 34.4329 
37 *116:117 *116:119 963.96 
38 *116:119 *116:121 15 
39 *116:121 *116:123 836.277 
40 *116:123 *116:125 15 
41 *116:125 *116:127 104.731 
42 *116:127 *116:129 15 
43 *116:129 *116:131 61.1279 
44 *116:131 *116:137 42.1179 
45 *116:137 *116:141 32.7729 
46 *116:141 *116:145 37.33 
47 *116:145 *116:147 39.6886 
48 *116:147 *116:153 45.9914 
49 *116:153 *116:155 43.0236 
50 *116:155 *116:159 40.4993 
51 *116:159 *116:163 36.1079 
52 *116:163 *116:169 47.7521 
53 *116:169 *116:171 64.4629 
54 *116:171 *116:177 44.2307 
55 *116:177 *116:179 62.5571 
56 *116:179 io_out[19] 32.1514 
*END

*D_NET *117 0.359774
*CONN
*P io_out[1] O
*I *739:io_out_o[1] O *D ntt_wb_bridge
*CAP
1 io_out[1] 0.0500317
2 *739:io_out_o[1] 0.000957064
3 *117:19 0.0500317
4 *117:17 0.00917959
5 *117:15 0.00917959
6 *117:13 0.0165886
7 *117:11 0.0175457
8 io_out[1] *707:9 0
9 io_out[1] *718:9 0
10 *117:11 *119:49 0.00030797
11 *117:11 *136:55 0.000119761
12 *117:17 *359:41 0.00235109
13 *76:19 *117:13 0.00336854
14 *77:71 io_out[1] 0
15 *79:18 *117:17 0.0199351
16 *82:13 *117:11 0.000138266
17 *87:13 *117:11 0.000138266
18 *92:23 *117:13 0.0816715
19 *106:13 *117:13 0.0939971
20 *106:19 *117:17 0.00423262
*RES
1 *739:io_out_o[1] *117:11 18.6376 
2 *117:11 *117:13 173.507 
3 *117:13 *117:15 8 
4 *117:15 *117:17 47.656 
5 *117:17 *117:19 8 
6 *117:19 io_out[1] 160.083 
*END

*D_NET *118 0.811223
*CONN
*P io_out[20] O
*I *739:io_out_o[20] O *D ntt_wb_bridge
*CAP
1 io_out[20] 0.000750419
2 *739:io_out_o[20] 0.000534197
3 *118:31 0.0306674
4 *118:29 0.029917
5 *118:27 0.127488
6 *118:25 0.127488
7 *118:23 0.0168923
8 *118:21 0.01705
9 *118:15 0.00236771
10 *118:13 0.00274422
11 *118:13 *136:31 0.000102507
12 *118:15 *123:15 0.0059094
13 *118:15 *128:29 0.00282438
14 *118:15 *133:27 0.000127305
15 *118:23 *121:13 0.0016396
16 *118:23 *133:27 0.00530251
17 *118:27 *548:9 0.0164077
18 *118:27 *656:27 0.000763762
19 *118:27 *656:35 0.000974923
20 *118:27 *677:11 0.0109067
21 *118:27 *683:11 0.00287006
22 *118:27 *688:21 0
23 *118:27 *691:11 0.0248834
24 *118:27 *702:22 8.47267e-05
25 *118:27 *706:27 0
26 *118:27 *717:19 0
27 *118:27 *726:27 0
28 *118:27 *729:27 0
29 *80:33 *118:31 0.0712248
30 *88:15 *118:23 0.00205319
31 *88:23 *118:23 0.081168
32 *89:13 *118:23 0.00189293
33 *91:15 *118:15 0.0128112
34 *91:23 *118:23 0.0909886
35 *114:13 *118:15 0.00305783
36 *116:27 *118:15 0
37 *116:111 *118:27 0.11933
38 *116:119 *118:27 0
*RES
1 *739:io_out_o[20] *118:13 28.9504 
2 *118:13 *118:15 147.838 
3 *118:15 *118:21 25.0818 
4 *118:21 *118:23 168.784 
5 *118:23 *118:25 8 
6 *118:25 *118:27 3578.62 
7 *118:27 *118:29 8 
8 *118:29 *118:31 146.545 
9 *118:31 io_out[20] 24.9754 
*END

*D_NET *119 0.934579
*CONN
*P io_out[21] O
*I *739:io_out_o[21] O *D ntt_wb_bridge
*CAP
1 io_out[21] 0.000688718
2 *739:io_out_o[21] 0.000179994
3 *119:61 0.00983214
4 *119:59 0.00914342
5 *119:57 0.0705372
6 *119:55 0.0705372
7 *119:53 0.0155791
8 *119:51 0.0155791
9 *119:49 0.00237154
10 *119:29 0.00381256
11 *119:27 0.00144102
12 *119:25 0.000533661
13 *119:13 0.00357217
14 *119:11 0.0032185
15 *119:11 *136:31 0.000132656
16 *119:13 *136:31 0.000901958
17 *119:13 *139:21 0.00749344
18 *119:25 *140:11 6.96832e-05
19 *119:29 *139:11 0.000182835
20 *119:49 *128:21 0.000120055
21 *119:49 *136:53 2.31116e-05
22 *119:49 *136:55 0.000333865
23 *119:49 *136:65 0.000136499
24 *119:49 *136:67 0.000260598
25 *119:53 *136:67 0.000930752
26 *119:57 wbs_dat_o[14] 0
27 *119:57 *540:13 0.258587
28 *119:57 *710:35 0.195178
29 *80:25 *119:49 0.00390585
30 *80:33 *119:61 0.0457317
31 *81:19 *119:57 0
32 *81:23 *119:61 0.0374708
33 *82:13 *119:49 0.000353207
34 *82:13 *119:53 0.000449624
35 *82:23 *119:57 7.55909e-05
36 *86:13 *119:13 0.0166212
37 *86:13 *119:29 0.00478794
38 *87:13 *119:49 0.000295342
39 *87:21 *119:53 0.0747617
40 *91:23 *119:25 0.000430787
41 *97:39 *119:25 0.000781176
42 *97:39 *119:29 0.000117396
43 *97:39 *119:49 8.21456e-06
44 *97:43 *119:49 0.000816072
45 *97:57 *119:49 0.00111436
46 *97:59 *119:53 0.0749112
47 *106:11 *119:49 0.000262393
48 *117:11 *119:49 0.00030797
*RES
1 *739:io_out_o[21] *119:11 23.9669 
2 *119:11 *119:13 177.376 
3 *119:13 *119:25 38.7063 
4 *119:25 *119:27 15 
5 *119:27 *119:29 51.1229 
6 *119:29 *119:49 45.9876 
7 *119:49 *119:51 8 
8 *119:51 *119:53 143.453 
9 *119:53 *119:55 8 
10 *119:55 *119:57 3575.1 
11 *119:57 *119:59 8 
12 *119:59 *119:61 84.3771 
13 *119:61 io_out[21] 23.5668 
*END

*D_NET *120 0.735564
*CONN
*P io_out[22] O
*I *739:io_out_o[22] O *D ntt_wb_bridge
*CAP
1 io_out[22] 0.000633163
2 *739:io_out_o[22] 0.000387822
3 *120:35 0.0047116
4 *120:29 0.101524
5 *120:27 0.098112
6 *120:21 0.0166718
7 *120:19 0.0161286
8 *120:13 0.0085715
9 *120:11 0.00883575
10 *120:11 *136:31 0.000103474
11 *120:13 *121:13 0.00248464
12 *120:13 *133:27 0.00153714
13 *120:13 *136:55 0
14 *120:13 *139:13 0
15 *120:13 *142:17 0.00028704
16 *120:13 *142:19 0.00180671
17 *120:19 *326:19 0.000244465
18 *120:19 *338:51 0.000242224
19 *120:29 wbs_dat_o[13] 0.0252487
20 *120:29 *123:21 0.000200007
21 *120:29 *718:19 0
22 *120:29 *729:27 0
23 *120:29 *736:26 0
24 io_oeb[22] *120:35 0.00631244
25 *80:13 *120:13 0
26 *80:29 *120:29 0.278168
27 *80:33 *120:35 0.000510361
28 *81:23 *120:35 0.0130477
29 *87:13 *120:13 0
30 *88:15 *120:13 0.0248516
31 *89:21 *120:21 0.0729269
32 *89:21 *120:27 0.00107552
33 *92:23 *120:21 0.0388865
34 *92:23 *120:27 0.0020979
35 *97:23 *120:13 0.000556959
36 *97:43 *120:13 0
37 *108:15 *120:13 0.00138758
38 *111:15 *120:13 0.00130647
39 *113:15 *120:13 0.00670639
*RES
1 *739:io_out_o[22] *120:11 27.1972 
2 *120:11 *120:13 343.65 
3 *120:13 *120:19 26.4904 
4 *120:19 *120:21 135.253 
5 *120:21 *120:27 12.1459 
6 *120:27 *120:29 3584.96 
7 *120:29 *120:35 42.6747 
8 *120:35 io_out[22] 14.1582 
*END

*D_NET *121 0.554747
*CONN
*P io_out[23] O
*I *739:io_out_o[23] O *D ntt_wb_bridge
*CAP
1 io_out[23] 0.00354999
2 *739:io_out_o[23] 0.000392846
3 *121:25 0.155777
4 *121:23 0.154863
5 *121:13 0.0315877
6 *121:11 0.0293443
7 *121:11 *136:31 4.61016e-05
8 *121:13 *122:13 0.103494
9 *121:13 *133:27 0.00818793
10 *121:13 *142:19 0.00324852
11 *121:23 *123:23 0.00474434
12 *121:23 *133:27 0.00179759
13 *121:25 *573:9 0.0131212
14 *83:33 io_out[23] 0.00835428
15 *84:29 *121:23 4.89546e-05
16 *88:15 *121:13 0.000391608
17 *88:23 *121:23 0.00586212
18 *89:13 *121:13 0.0255455
19 *91:23 *121:23 0.000266093
20 *118:23 *121:13 0.0016396
21 *120:13 *121:13 0.00248464
*RES
1 *739:io_out_o[23] *121:11 28.0632 
2 *121:11 *121:13 1137.86 
3 *121:13 *121:23 49.0743 
4 *121:23 *121:25 3579.32 
5 *121:25 io_out[23] 47.6113 
*END

*D_NET *122 0.659273
*CONN
*P io_out[24] O
*I *739:io_out_o[24] O *D ntt_wb_bridge
*CAP
1 io_out[24] 0.00944736
2 *739:io_out_o[24] 0.000604473
3 *122:25 0.19014
4 *122:23 0.180693
5 *122:21 0.00418062
6 *122:13 0.0186375
7 *122:11 0.0150613
8 *122:11 *136:31 0.000316055
9 *122:13 *123:15 0.103711
10 *122:13 *133:27 0.0183332
11 *122:21 *124:23 0.00341419
12 *122:21 *133:27 0.00440313
13 *122:25 *571:5 0.00112938
14 *82:13 *122:11 0.000115403
15 *87:13 *122:11 0.000115403
16 *89:13 *122:13 0.000318889
17 *89:21 *122:21 0.00487273
18 *92:23 *122:21 0.000284474
19 *121:13 *122:13 0.103494
*RES
1 *739:io_out_o[24] *122:11 29.3113 
2 *122:11 *122:13 1140.24 
3 *122:13 *122:21 49.6527 
4 *122:21 *122:23 8 
5 *122:23 *122:25 618.348 
6 *122:25 io_out[24] 39.2835 
*END

*D_NET *123 0.737844
*CONN
*P io_out[25] O
*I *739:io_out_o[25] O *D ntt_wb_bridge
*CAP
1 io_out[25] 0.000827772
2 *739:io_out_o[25] 0.000430412
3 *123:35 0.120034
4 *123:33 0.119704
5 *123:27 0.00740767
6 *123:25 0.00690968
7 *123:23 0.008951
8 *123:21 0.00903787
9 *123:15 0.0320495
10 *123:13 0.0323931
11 *123:13 *136:31 0.000104565
12 *123:15 *133:27 0.0404816
13 *123:21 wbs_dat_o[13] 0.000197917
14 *123:23 *133:27 0.00498097
15 *123:23 *136:67 0.0149345
16 *123:27 *124:27 0.00448143
17 *123:27 *542:11 0
18 *123:35 *124:35 0.206567
19 io_oeb[36] *123:33 0
20 *80:25 *123:23 0.000106919
21 *89:13 *123:15 0.000649702
22 *91:23 *123:23 0.000970488
23 *97:65 *123:27 0.00322161
24 *114:13 *123:15 0.00883671
25 *118:15 *123:15 0.0059094
26 *120:29 *123:21 0.000200007
27 *121:23 *123:23 0.00474434
28 *122:13 *123:15 0.103711
*RES
1 *739:io_out_o[25] *123:13 28.2499 
2 *123:13 *123:15 1154.06 
3 *123:15 *123:21 25.7861 
4 *123:21 *123:23 52.9499 
5 *123:23 *123:25 8 
6 *123:25 *123:27 179.738 
7 *123:27 *123:33 17.2152 
8 *123:33 *123:35 536.603 
9 *123:35 io_out[25] 10.4323 
*END

*D_NET *124 0.695107
*CONN
*P io_out[26] O
*I *739:io_out_o[26] O *D ntt_wb_bridge
*CAP
1 io_out[26] 0.000920625
2 *739:io_out_o[26] 0.000992998
3 *124:35 0.0693314
4 *124:33 0.0687568
5 *124:27 0.00228474
6 *124:25 0.00193867
7 *124:23 0.0261677
8 *124:21 0.0263125
9 *124:15 0.010889
10 *124:13 0.0117372
11 *124:13 *136:31 0.000133374
12 *124:15 *125:15 0.0373348
13 *124:15 *129:15 0.0236552
14 *124:15 *129:23 0.00252401
15 *124:15 *132:19 0.00340215
16 *124:21 la_data_out[14] 0.000257487
17 *124:23 *125:23 0.00432866
18 *124:23 *130:15 0.03951
19 *124:23 *133:27 0
20 *124:27 *542:11 0
21 *124:33 *541:9 7.63154e-05
22 *124:35 *125:27 0
23 *124:35 *126:35 0.0638531
24 *124:35 *132:31 0.00255053
25 *124:35 *133:31 0.0281316
26 *81:15 *124:15 0.0158558
27 *92:23 *124:23 0.0316355
28 *97:65 *124:27 0.00100498
29 *107:19 *124:15 0.00194658
30 *115:21 *124:15 0.00177698
31 *116:27 *124:15 0
32 *116:27 *124:23 0.00333525
33 *122:21 *124:23 0.00341419
34 *123:27 *124:27 0.00448143
35 *123:35 *124:35 0.206567
*RES
1 *739:io_out_o[26] *124:13 36.0493 
2 *124:13 *124:15 565.666 
3 *124:15 *124:21 26.4904 
4 *124:21 *124:23 161.314 
5 *124:23 *124:25 8 
6 *124:25 *124:27 64.235 
7 *124:27 *124:33 16.9576 
8 *124:33 *124:35 509.947 
9 *124:35 io_out[26] 10.604 
*END

*D_NET *125 0.603399
*CONN
*P io_out[27] O
*I *739:io_out_o[27] O *D ntt_wb_bridge
*CAP
1 io_out[27] 0.00133683
2 *739:io_out_o[27] 0.000913954
3 *125:27 0.138363
4 *125:25 0.137026
5 *125:23 0.0228613
6 *125:21 0.0228916
7 *125:15 0.00719871
8 *125:13 0.00808228
9 *125:13 *137:21 3.46839e-05
10 *125:15 *126:15 0.00075742
11 *125:15 *127:15 0.0275646
12 *125:15 *129:15 0.000717867
13 *125:15 *129:23 0.000533362
14 *125:15 *132:19 0.00215031
15 *125:21 *343:37 7.23298e-05
16 *125:21 *348:47 7.45617e-05
17 *125:23 *127:23 0.0823407
18 *125:23 *130:15 0.0893159
19 *125:23 *131:15 0.00189901
20 *125:27 *126:35 0
21 *125:27 *132:31 0
22 *125:27 *133:31 0
23 *125:27 *542:11 0.0131278
24 *125:27 *575:13 0.000456404
25 *97:65 *125:27 0
26 *107:19 *125:15 0.00168607
27 *115:21 *125:15 0.00233196
28 *116:27 *125:15 0
29 *124:15 *125:15 0.0373348
30 *124:23 *125:23 0.00432866
31 *124:35 *125:27 0
*RES
1 *739:io_out_o[27] *125:13 34.9406 
2 *125:13 *125:15 423.214 
3 *125:15 *125:21 24.0254 
4 *125:21 *125:23 188.834 
5 *125:23 *125:25 8 
6 *125:25 *125:27 473.263 
7 *125:27 io_out[27] 12.1496 
*END

*D_NET *126 0.512247
*CONN
*P io_out[28] O
*I *739:io_out_o[28] O *D ntt_wb_bridge
*CAP
1 io_out[28] 0.00104642
2 *739:io_out_o[28] 0.00122718
3 *126:35 0.0560843
4 *126:33 0.0550379
5 *126:31 0.054271
6 *126:29 0.054271
7 *126:27 0.0617758
8 *126:25 0.0617758
9 *126:23 0.00301774
10 *126:15 0.00928311
11 *126:13 0.00749255
12 *126:13 *137:21 0.000586808
13 *126:15 *127:15 0.0038586
14 *126:15 *130:15 0.00102369
15 *126:15 *140:13 0.00557883
16 *126:15 *141:13 0.00273694
17 *126:15 *143:15 0.0213844
18 *126:23 *130:15 0.00526288
19 *126:23 *134:15 0.00870393
20 *126:27 *135:18 0
21 *126:27 *345:39 0.000735299
22 *126:27 *346:31 0.00036765
23 *126:27 *347:39 0.00036765
24 *126:27 *348:47 0.00036765
25 *126:31 *333:31 0
26 *126:31 *377:31 0.00753525
27 *126:35 *132:31 0.0135594
28 *92:23 *126:23 0.000668181
29 *107:27 *126:15 0.00326952
30 *112:13 *126:15 0.00634695
31 *116:27 *126:15 0
32 *124:35 *126:35 0.0638531
33 *125:15 *126:15 0.00075742
34 *125:27 *126:35 0
*RES
1 *739:io_out_o[28] *126:13 34.9407 
2 *126:13 *126:15 329.357 
3 *126:15 *126:23 43.9855 
4 *126:23 *126:25 8 
5 *126:25 *126:27 148.822 
6 *126:27 *126:29 8 
7 *126:29 *126:31 189.306 
8 *126:31 *126:33 8 
9 *126:33 *126:35 275.374 
10 *126:35 io_out[28] 10.9475 
*END

*D_NET *127 0.543811
*CONN
*P io_out[29] O
*I *739:io_out_o[29] O *D ntt_wb_bridge
*CAP
1 io_out[29] 0.0120068
2 *739:io_out_o[29] 0.00115468
3 *127:27 0.12397
4 *127:25 0.111963
5 *127:23 0.0189413
6 *127:21 0.0189605
7 *127:15 0.00393136
8 *127:13 0.00506688
9 *127:13 *137:21 0.000452456
10 *127:15 *129:15 0.000755876
11 *127:15 *129:23 0.000465912
12 *127:15 *140:13 0.00265621
13 *127:15 *143:15 0.0226937
14 *127:21 *137:13 2.26497e-05
15 *127:23 *129:23 0.0863757
16 *127:23 *130:15 0.00613793
17 *127:23 *131:15 0.00212487
18 *127:27 wbs_dat_o[8] 0.0097033
19 *115:21 *127:15 0.00266421
20 *125:15 *127:15 0.0275646
21 *125:23 *127:23 0.0823407
22 *126:15 *127:15 0.0038586
*RES
1 *739:io_out_o[29] *127:13 35.3538 
2 *127:13 *127:15 322.687 
3 *127:15 *127:21 23.3211 
4 *127:21 *127:23 174.666 
5 *127:23 *127:25 8 
6 *127:25 *127:27 376.033 
7 *127:27 io_out[29] 48.2136 
*END

*D_NET *128 0.467667
*CONN
*P io_out[2] O
*I *739:io_out_o[2] O *D ntt_wb_bridge
*CAP
1 io_out[2] 0.000816689
2 *739:io_out_o[2] 0.00219089
3 *128:33 0.0154623
4 *128:31 0.0146456
5 *128:29 0.0479876
6 *128:27 0.0482964
7 *128:21 0.0024997
8 *128:21 *130:15 0.00692101
9 *128:21 *134:15 0.00631138
10 *128:29 *133:27 0.0242621
11 *128:29 *142:19 0.0113014
12 *128:33 user_irq[0] 0.00118478
13 *128:33 *137:33 0.0127259
14 io_oeb[0] *128:33 0.00168127
15 *68:27 *128:29 0
16 *76:19 *128:29 0
17 *90:27 *128:29 0.12421
18 *90:31 *128:33 0.00228992
19 *106:13 *128:29 0.0848769
20 *107:35 *128:29 0.0320032
21 *107:39 *128:33 0
22 *114:13 *128:29 0.024464
23 *116:19 *128:21 7.20213e-06
24 *116:27 *128:21 0.000584373
25 *118:15 *128:29 0.00282438
26 *119:49 *128:21 0.000120055
*RES
1 *739:io_out_o[2] *128:21 42.2693 
2 *128:21 *128:27 16.6907 
3 *128:27 *128:29 314.285 
4 *128:29 *128:31 8 
5 *128:31 *128:33 469.199 
6 *128:33 io_out[2] 10.4752 
*END

*D_NET *129 0.590864
*CONN
*P io_out[30] O
*I *739:io_out_o[30] O *D ntt_wb_bridge
*CAP
1 io_out[30] 0.0168614
2 *739:io_out_o[30] 0.00105492
3 *129:29 0.0168614
4 *129:27 0.0579705
5 *129:25 0.0579705
6 *129:23 0.0213592
7 *129:21 0.0213872
8 *129:15 0.00372871
9 *129:13 0.00475567
10 *129:13 *137:21 0.000295936
11 *129:15 *132:19 0.00558442
12 *129:15 *143:15 0.000375693
13 *129:23 *130:15 0.00106165
14 *129:23 *131:15 0.0283119
15 *129:23 *132:19 0.0289042
16 *129:27 *547:5 0.00112938
17 *129:27 *661:11 0
18 *81:15 *129:15 0.0288662
19 *81:15 *129:23 0.00941207
20 *86:33 *129:27 0.026045
21 *87:33 *129:27 0.0111289
22 *91:27 *129:27 0.132456
23 *92:27 *129:27 0.000188176
24 *93:23 *129:27 0.00012679
25 *124:15 *129:15 0.0236552
26 *124:15 *129:23 0.00252401
27 *125:15 *129:15 0.000717867
28 *125:15 *129:23 0.000533362
29 *127:15 *129:15 0.000755876
30 *127:15 *129:23 0.000465912
31 *127:23 *129:23 0.0863757
*RES
1 *739:io_out_o[30] *129:13 36.119 
2 *129:13 *129:15 307.918 
3 *129:15 *129:21 23.3211 
4 *129:21 *129:23 165.65 
5 *129:23 *129:25 8 
6 *129:25 *129:27 327.544 
7 *129:27 *129:29 8 
8 *129:29 io_out[30] 54.4675 
*END

*D_NET *130 0.449174
*CONN
*P io_out[31] O
*I *739:io_out_o[31] O *D ntt_wb_bridge
*CAP
1 io_out[31] 0.00839793
2 *739:io_out_o[31] 0.000849557
3 *130:19 0.0904992
4 *130:17 0.0821012
5 *130:15 0.0297464
6 *130:13 0.0305959
7 *130:13 *137:21 0.00018276
8 *130:15 *132:19 0.00014731
9 *130:15 *134:15 0.00403355
10 *130:15 *136:19 0.00487523
11 *130:15 *140:13 0.0309318
12 *130:15 *141:13 0.00164564
13 *130:19 *570:5 0.000593377
14 *92:23 *130:15 0.00407161
15 *109:13 *130:15 0.00145577
16 *116:19 *130:15 0.00981383
17 *124:23 *130:15 0.03951
18 *125:23 *130:15 0.0893159
19 *126:15 *130:15 0.00102369
20 *126:23 *130:15 0.00526288
21 *127:23 *130:15 0.00613793
22 *128:21 *130:15 0.00692101
23 *129:23 *130:15 0.00106165
*RES
1 *739:io_out_o[31] *130:13 26.6247 
2 *130:13 *130:15 250.744 
3 *130:15 *130:17 8 
4 *130:17 *130:19 278.421 
5 *130:19 io_out[31] 35.3336 
*END

*D_NET *131 0.437782
*CONN
*P io_out[32] O
*I *739:io_out_o[32] O *D ntt_wb_bridge
*CAP
1 io_out[32] 0.00743354
2 *739:io_out_o[32] 0.00106476
3 *131:19 0.0753364
4 *131:17 0.0679028
5 *131:15 0.035474
6 *131:13 0.0365388
7 *131:13 *137:21 2.98368e-05
8 *131:15 *132:19 0.0608656
9 *131:19 *643:5 0.00116978
10 *81:15 *131:15 0.000342174
11 *85:21 *131:15 0.00105215
12 *93:19 *131:15 0.118236
13 *125:23 *131:15 0.00189901
14 *127:23 *131:15 0.00212487
15 *129:23 *131:15 0.0283119
*RES
1 *739:io_out_o[32] *131:13 29.8736 
2 *131:13 *131:15 257.098 
3 *131:15 *131:17 8 
4 *131:17 *131:19 230.44 
5 *131:19 io_out[32] 31.5555 
*END

*D_NET *132 0.511673
*CONN
*P io_out[33] O
*I *739:io_out_o[33] O *D ntt_wb_bridge
*CAP
1 io_out[33] 0.00111436
2 *739:io_out_o[33] 0.00147654
3 *132:31 0.0329857
4 *132:29 0.0318713
5 *132:27 0.0240757
6 *132:25 0.0253939
7 *132:19 0.0149305
8 *132:17 0.0150889
9 *132:17 *133:21 0.000598667
10 *132:17 *137:21 0.000571675
11 *132:19 *133:21 0.00342339
12 *132:19 *140:13 0.00157195
13 *132:27 *136:67 1.82674e-05
14 *132:31 *133:31 0.0551334
15 *81:15 *132:17 0.000103353
16 *81:15 *132:19 0.0153875
17 *86:21 *132:27 0.0573904
18 *93:19 *132:17 0.000160205
19 *93:19 *132:19 5.14974e-05
20 *97:59 *132:27 0.0842452
21 *97:65 *132:31 0.0138308
22 *107:19 *132:19 0.00901234
23 *115:21 *132:19 0.00607386
24 *124:15 *132:19 0.00340215
25 *124:35 *132:31 0.00255053
26 *125:15 *132:19 0.00215031
27 *125:27 *132:31 0
28 *126:35 *132:31 0.0135594
29 *129:15 *132:19 0.00558442
30 *129:23 *132:19 0.0289042
31 *130:15 *132:19 0.00014731
32 *131:15 *132:19 0.0608656
*RES
1 *739:io_out_o[33] *132:17 30.7555 
2 *132:17 *132:19 116.148 
3 *132:19 *132:25 18.9755 
4 *132:25 *132:27 161.657 
5 *132:27 *132:29 8 
6 *132:29 *132:31 178.651 
7 *132:31 io_out[33] 11.1192 
*END

*D_NET *133 0.522621
*CONN
*P io_out[34] O
*I *739:io_out_o[34] O *D ntt_wb_bridge
*CAP
1 io_out[34] 0.00104642
2 *739:io_out_o[34] 0.00283497
3 *133:31 0.0161128
4 *133:29 0.0150664
5 *133:27 0.0359214
6 *133:25 0.0365331
7 *133:21 0.00344669
8 *133:21 *137:21 0.000389975
9 *133:21 *140:13 0.00549435
10 *133:27 *136:67 0
11 *133:27 *142:17 0.000587812
12 *133:27 *142:19 0.0221554
13 *133:31 io_out[37] 0.00370856
14 *81:15 *133:21 0.000321908
15 *88:23 *133:27 0.0883606
16 *89:13 *133:27 0.000311664
17 *89:21 *133:27 0.0877447
18 *91:23 *133:27 0.000278205
19 *93:19 *133:21 0.000297512
20 *97:65 *133:31 2.34539e-05
21 *106:13 *133:27 0.00527754
22 *115:21 *133:21 6.52177e-06
23 *118:15 *133:27 0.000127305
24 *118:23 *133:27 0.00530251
25 *120:13 *133:27 0.00153714
26 *121:13 *133:27 0.00818793
27 *121:23 *133:27 0.00179759
28 *122:13 *133:27 0.0183332
29 *122:21 *133:27 0.00440313
30 *123:15 *133:27 0.0404816
31 *123:23 *133:27 0.00498097
32 *124:23 *133:27 0
33 *124:35 *133:31 0.0281316
34 *125:27 *133:31 0
35 *128:29 *133:27 0.0242621
36 *132:17 *133:21 0.000598667
37 *132:19 *133:21 0.00342339
38 *132:31 *133:31 0.0551334
*RES
1 *739:io_out_o[34] *133:21 48.9786 
2 *133:21 *133:25 9.45227 
3 *133:25 *133:27 269.334 
4 *133:27 *133:29 8 
5 *133:29 *133:31 131.432 
6 *133:31 io_out[34] 10.9475 
*END

*D_NET *134 0.36004
*CONN
*P io_out[35] O
*I *739:io_out_o[35] O *D ntt_wb_bridge
*CAP
1 io_out[35] 0.0472324
2 *739:io_out_o[35] 0.000785687
3 *134:21 0.0472324
4 *134:19 0.0429192
5 *134:17 0.0429192
6 *134:15 0.00941051
7 *134:13 0.0101962
8 io_out[35] *584:9 0.0659884
9 io_out[35] *585:17 0
10 *134:13 *137:21 0.000271877
11 *134:15 *136:19 0.00516779
12 *134:19 la_data_out[23] 0.000448535
13 *134:19 *294:21 0.000675634
14 *134:19 *309:25 0
15 *134:19 *314:29 0.000448535
16 *134:19 *326:19 0.00036765
17 *134:19 *332:25 0.00036765
18 *134:19 *340:31 0.00036765
19 *134:19 *344:19 0.000493826
20 *134:19 *351:35 0.00036765
21 *92:23 *134:15 0.0500325
22 *110:13 *134:15 0.00387497
23 *116:19 *134:15 0.00901912
24 *116:27 *134:15 0.00240341
25 *126:23 *134:15 0.00870393
26 *128:21 *134:15 0.00631138
27 *130:15 *134:15 0.00403355
*RES
1 *739:io_out_o[35] *134:13 18.2381 
2 *134:13 *134:15 92.2768 
3 *134:15 *134:17 8 
4 *134:17 *134:19 83.3243 
5 *134:19 *134:21 8 
6 *134:21 io_out[35] 194.774 
*END

*D_NET *135 0.258019
*CONN
*P io_out[36] O
*I *739:io_out_o[36] O *D ntt_wb_bridge
*CAP
1 io_out[36] 0.0519921
2 *739:io_out_o[36] 0.00149431
3 *135:20 0.0519921
4 *135:18 0.0178636
5 *135:16 0.0178636
6 *135:14 0.0114236
7 *135:12 0.0129179
8 io_out[36] *555:9 0.00808757
9 io_out[36] *556:9 0.0109124
10 *135:14 *339:31 0.0399526
11 *135:14 *340:35 0.000968972
12 *135:14 *343:39 0.0019964
13 *135:14 *349:39 0.000502823
14 *135:14 *350:35 0.000501994
15 *135:14 *351:39 0.00102835
16 *135:18 *343:27 0.00036765
17 *96:14 *135:14 0
18 *98:14 *135:14 0.028153
19 *126:27 *135:18 0
*RES
1 *739:io_out_o[36] *135:12 20.2448 
2 *135:12 *135:14 96.3984 
3 *135:14 *135:16 8 
4 *135:16 *135:18 49.3061 
5 *135:18 *135:20 8 
6 *135:20 io_out[36] 193.4 
*END

*D_NET *136 0.319041
*CONN
*P io_out[37] O
*I *739:io_out_o[37] O *D ntt_wb_bridge
*CAP
1 io_out[37] 0.00278447
2 *739:io_out_o[37] 0.00420607
3 *136:67 0.0305143
4 *136:65 0.0278327
5 *136:55 0.00076793
6 *136:53 0.000683108
7 *136:49 0.00133614
8 *136:31 0.0104198
9 *136:25 0.0098092
10 *136:19 0.00491348
11 io_out[37] *540:9 0
12 io_out[37] *541:9 0.000175268
13 *136:19 *137:21 0.000603823
14 *136:19 *140:13 0.00373385
15 *136:19 *141:13 0.0024603
16 *136:31 *137:21 0.0209948
17 *136:31 *139:13 0.000333785
18 *136:31 *140:11 5.96737e-06
19 *136:31 *141:11 0.000116962
20 *136:31 *142:17 0.000799068
21 *136:31 *143:13 0.000127191
22 *80:13 *136:31 0.0031325
23 *80:23 *136:49 0.00254632
24 *80:25 *136:65 9.05439e-05
25 *80:25 *136:67 0.0798402
26 *82:13 *136:31 0.00223407
27 *82:13 *136:49 0.00016202
28 *86:13 *136:31 0.000700771
29 *86:13 *136:49 0.000143326
30 *87:13 *136:31 0.00268734
31 *87:13 *136:49 0.000183508
32 *87:13 *136:55 0.00384682
33 *87:13 *136:67 0.000492434
34 *87:21 *136:67 0.0410368
35 *91:23 *136:49 0.000784933
36 *92:23 *136:19 0.000791067
37 *97:39 *136:31 0.00423037
38 *97:39 *136:49 0.00492947
39 *97:43 *136:55 0.00214351
40 *97:57 *136:65 2.11066e-05
41 *97:59 *136:67 0.007416
42 *107:19 *136:31 0.000382353
43 *108:13 *136:31 0.000116903
44 *109:11 *136:31 0.000167577
45 *109:13 *136:19 0.00213103
46 *110:11 *136:31 0.000249133
47 *110:13 *136:19 0.000343523
48 *111:13 *136:31 0.000125134
49 *112:11 *136:31 4.27273e-05
50 *112:13 *136:19 0.0021369
51 *113:13 *136:31 0.000104041
52 *114:11 *136:31 0.000208691
53 *115:13 *136:31 0.000293869
54 *116:19 *136:31 0.000357669
55 *117:11 *136:55 0.000119761
56 *118:13 *136:31 0.000102507
57 *119:11 *136:31 0.000132656
58 *119:13 *136:31 0.000901958
59 *119:49 *136:53 2.31116e-05
60 *119:49 *136:55 0.000333865
61 *119:49 *136:65 0.000136499
62 *119:49 *136:67 0.000260598
63 *119:53 *136:67 0.000930752
64 *120:11 *136:31 0.000103474
65 *120:13 *136:55 0
66 *121:11 *136:31 4.61016e-05
67 *122:11 *136:31 0.000316055
68 *123:13 *136:31 0.000104565
69 *123:23 *136:67 0.0149345
70 *124:13 *136:31 0.000133374
71 *130:15 *136:19 0.00487523
72 *132:27 *136:67 1.82674e-05
73 *133:27 *136:67 0
74 *133:31 io_out[37] 0.00370856
75 *134:15 *136:19 0.00516779
*RES
1 *739:io_out_o[37] *136:19 47.7873 
2 *136:19 *136:25 17.7061 
3 *136:25 *136:31 47.8651 
4 *136:31 *136:49 49.7048 
5 *136:49 *136:53 15.3211 
6 *136:53 *136:55 42.0707 
7 *136:55 *136:65 23.8605 
8 *136:65 *136:67 201.843 
9 *136:67 io_out[37] 27.7171 
*END

*D_NET *137 0.467434
*CONN
*P io_out[3] O
*I *739:io_out_o[3] O *D ntt_wb_bridge
*CAP
1 io_out[3] 0.000897765
2 *739:io_out_o[3] 0.0028535
3 *137:33 0.0136658
4 *137:31 0.012768
5 *137:29 0.0302829
6 *137:27 0.0304932
7 *137:21 0.0204371
8 *137:19 0.0213184
9 *137:13 0.00394506
10 *137:21 *142:17 0.000636017
11 *137:21 *142:19 0.0116526
12 *137:29 *139:21 0.0857752
13 *137:33 *140:25 0.00134148
14 *68:17 *137:21 0.000140426
15 *68:27 *137:29 0.0282838
16 *78:13 *137:29 0.0168332
17 *80:13 *137:21 0.00197351
18 *82:13 *137:21 0.00112271
19 *85:11 *137:27 0
20 *86:11 *137:29 0.000101467
21 *86:13 *137:21 0.0034223
22 *87:13 *137:21 0.00125024
23 *90:23 *137:21 0.000559319
24 *90:31 *137:33 0.00867173
25 *93:19 *137:13 0.00838161
26 *96:14 *137:13 0.00416007
27 *97:23 *137:21 0.0122391
28 *97:39 *137:13 0.00012821
29 *99:17 *137:21 5.72277e-05
30 *99:23 *137:21 0.0188459
31 *99:23 *137:29 0.00106247
32 *100:17 *137:21 0.000123076
33 *101:13 *137:21 0.000330909
34 *102:17 *137:21 0.000314862
35 *102:19 *137:21 0.000478534
36 *103:17 *137:21 0.0010673
37 *103:19 *137:21 0.0111448
38 *104:13 *137:21 5.517e-05
39 *104:27 *137:33 0.0525982
40 *105:13 *137:21 0.000212088
41 *107:39 *137:33 2.12347e-06
42 *108:15 *137:21 0.0103875
43 *111:15 *137:21 0.00567582
44 *113:15 *137:21 0.00458053
45 *125:13 *137:21 3.46839e-05
46 *126:13 *137:21 0.000586808
47 *127:13 *137:21 0.000452456
48 *127:21 *137:13 2.26497e-05
49 *128:33 *137:33 0.0127259
50 *129:13 *137:21 0.000295936
51 *130:13 *137:21 0.00018276
52 *131:13 *137:21 2.98368e-05
53 *132:17 *137:21 0.000571675
54 *133:21 *137:21 0.000389975
55 *134:13 *137:21 0.000271877
56 *136:19 *137:21 0.000603823
57 *136:31 *137:21 0.0209948
*RES
1 *739:io_out_o[3] *137:13 48.5929 
2 *137:13 *137:19 18.5947 
3 *137:19 *137:21 120.913 
4 *137:21 *137:27 26.4904 
5 *137:27 *137:29 1056.39 
6 *137:29 *137:31 15 
7 *137:31 *137:33 667.984 
8 *137:33 io_out[3] 10.7328 
*END

*D_NET *138 0.417478
*CONN
*P io_out[4] O
*I *739:io_out_o[4] O *D ntt_wb_bridge
*CAP
1 io_out[4] 0.00197384
2 *739:io_out_o[4] 0.00202542
3 *138:17 0.0562642
4 *138:15 0.0542904
5 *138:13 0.0547408
6 *138:11 0.0567663
7 *138:13 la_data_out[84] 0
8 *69:17 *138:13 0.0200893
9 *94:17 *138:13 0.0831484
10 *97:39 *138:11 4.41875e-05
11 *98:14 *138:13 0.0881347
*RES
1 *739:io_out_o[4] *138:11 20.6685 
2 *138:11 *138:13 322.056 
3 *138:13 *138:15 8 
4 *138:15 *138:17 162.277 
5 *138:17 io_out[4] 13.6952 
*END

*D_NET *139 0.343815
*CONN
*P io_out[5] O
*I *739:io_out_o[5] O *D ntt_wb_bridge
*CAP
1 io_out[5] 0.00126393
2 *739:io_out_o[5] 0.000443824
3 *139:29 0.0077689
4 *139:27 0.00650496
5 *139:25 0.0465162
6 *139:23 0.0465162
7 *139:21 0.0488565
8 *139:19 0.0490357
9 *139:13 0.00157982
10 *139:11 0.00184449
11 *139:11 *140:11 0
12 *78:13 *139:21 0.00373806
13 *80:13 *139:11 0.000199898
14 *80:13 *139:13 0.00412703
15 *82:13 *139:11 0.000230784
16 *86:13 *139:11 0.000207083
17 *86:13 *139:21 0.0156822
18 *87:13 *139:11 0.000230784
19 *97:23 *139:13 2.45549e-06
20 *97:39 *139:11 0.000617498
21 *97:39 *139:13 0.000130115
22 *104:23 *139:21 0.0141251
23 *108:19 io_out[5] 0.000408065
24 *119:13 *139:21 0.00749344
25 *119:29 *139:11 0.000182835
26 *120:13 *139:13 0
27 *136:31 *139:13 0.000333785
28 *137:29 *139:21 0.0857752
*RES
1 *739:io_out_o[5] *139:11 26.075 
2 *139:11 *139:13 45.4057 
3 *139:13 *139:19 32.61 
4 *139:19 *139:21 1597.13 
5 *139:21 *139:23 15 
6 *139:23 *139:25 1075.24 
7 *139:25 *139:27 15 
8 *139:27 *139:29 135.451 
9 *139:29 io_out[5] 31.4132 
*END

*D_NET *140 0.519471
*CONN
*P io_out[6] O
*I *739:io_out_o[6] O *D ntt_wb_bridge
*CAP
1 io_out[6] 0.000894286
2 *739:io_out_o[6] 0.00084635
3 *140:25 0.0281274
4 *140:23 0.0272331
5 *140:21 0.0455513
6 *140:19 0.0455513
7 *140:17 0.0247765
8 *140:15 0.0247765
9 *140:13 0.0209912
10 *140:11 0.0218376
11 *140:13 *141:13 0.00100245
12 *140:13 *143:15 0.00629012
13 *140:13 *357:31 0
14 *140:17 *658:11 0.0274254
15 *140:17 *682:39 0.00420919
16 *140:25 *143:27 0.00170426
17 *68:17 *140:13 2.11591e-05
18 *68:19 *140:13 0.0467734
19 *74:27 *140:13 0.00638652
20 *75:13 *140:13 0.00542206
21 *76:19 *140:13 0.00373582
22 *77:111 *140:21 0
23 *78:127 *140:21 0
24 *92:23 *140:13 0.000341527
25 *93:19 *140:13 0.00137042
26 *97:39 *140:11 4.83734e-05
27 *99:27 *140:25 0.0116021
28 *100:17 *140:13 9.6934e-05
29 *100:19 *140:13 0.000372809
30 *100:31 *140:25 0.00493311
31 *101:15 *140:13 0.0441315
32 *101:27 *140:25 0.0223317
33 *104:27 *140:25 0.000117177
34 *105:27 *140:25 0.00712205
35 *107:19 *140:13 0.00525019
36 *107:27 *140:13 0.000572572
37 *107:39 *140:25 0.00168945
38 *108:19 *140:25 0.003069
39 *109:13 *140:13 0.000196339
40 *112:13 *140:13 0.00271681
41 *115:21 *140:13 0.0126989
42 *115:23 *140:13 0.00587057
43 *119:25 *140:11 6.96832e-05
44 *126:15 *140:13 0.00557883
45 *127:15 *140:13 0.00265621
46 *130:15 *140:13 0.0309318
47 *132:19 *140:13 0.00157195
48 *133:21 *140:13 0.00549435
49 *136:19 *140:13 0.00373385
50 *136:31 *140:11 5.96737e-06
51 *137:33 *140:25 0.00134148
52 *139:11 *140:11 0
*RES
1 *739:io_out_o[6] *140:11 28.312 
2 *140:11 *140:13 173.378 
3 *140:13 *140:15 8 
4 *140:15 *140:17 107.949 
5 *140:17 *140:19 8 
6 *140:19 *140:21 147.06 
7 *140:21 *140:23 8 
8 *140:23 *140:25 126.482 
9 *140:25 io_out[6] 10.7757 
*END

*D_NET *141 0.554601
*CONN
*P io_out[7] O
*I *739:io_out_o[7] O *D ntt_wb_bridge
*CAP
1 io_out[7] 0.00109536
2 *739:io_out_o[7] 0.000845197
3 *141:21 0.00945798
4 *141:19 0.00836262
5 *141:17 0.0310539
6 *141:15 0.0310539
7 *141:13 0.024183
8 *141:11 0.0250282
9 *141:17 *648:11 0.0232583
10 *141:17 *659:15 0.00420079
11 *141:17 *671:17 0.0819009
12 *141:17 *674:13 0.00204693
13 *141:17 *681:11 0.00781631
14 *141:17 *694:11 0
15 *141:17 *720:11 0.000700429
16 *141:17 *732:11 0
17 *68:19 *141:13 0.000452091
18 *74:23 *141:13 0.000286961
19 *74:31 *141:17 0
20 *76:19 *141:13 0.0191533
21 *76:23 *141:17 0
22 *78:137 *141:17 0.038799
23 *90:23 *141:13 0.000132945
24 *97:15 *141:13 0.0179826
25 *99:17 *141:13 0.00174598
26 *108:19 io_out[7] 7.60729e-05
27 *109:13 *141:13 0.139533
28 *112:13 *141:13 0.0668114
29 *115:211 *141:17 0.00796496
30 *116:19 *141:13 0.00155673
31 *116:27 *141:13 0.0011404
32 *126:15 *141:13 0.00273694
33 *130:15 *141:13 0.00164564
34 *136:19 *141:13 0.0024603
35 *136:31 *141:11 0.000116962
36 *140:13 *141:13 0.00100245
*RES
1 *739:io_out_o[7] *141:11 33.9327 
2 *141:11 *141:13 1590.46 
3 *141:13 *141:15 15 
4 *141:15 *141:17 1573.17 
5 *141:17 *141:19 15 
6 *141:19 *141:21 171.183 
7 *141:21 io_out[7] 27.1875 
*END

*D_NET *142 0.479792
*CONN
*P io_out[8] O
*I *739:io_out_o[8] O *D ntt_wb_bridge
*CAP
1 io_out[8] 0.00117232
2 *739:io_out_o[8] 0.00125117
3 *142:35 0.00252314
4 *142:31 0.0808006
5 *142:29 0.0794498
6 *142:27 0.0326385
7 *142:25 0.0327432
8 *142:19 0.0113455
9 *142:17 0.012492
10 *142:31 la_data_out[126] 0
11 *88:15 *142:17 0.000210039
12 *88:15 *142:19 0.00639083
13 *88:15 *142:27 0.0236801
14 *89:13 *142:19 0.00783396
15 *89:13 *142:27 0.000739201
16 *90:27 *142:19 6.52177e-06
17 *91:23 *142:17 0.000784643
18 *92:15 *142:27 0.000813509
19 *97:23 *142:17 0.000182169
20 *97:39 *142:17 0.00149038
21 *100:27 *142:27 0.00134597
22 *102:19 *142:19 0.00148595
23 *102:19 *142:27 0.0176947
24 *103:35 *142:27 0.00084956
25 *107:35 *142:27 0
26 *108:15 *142:27 0.00154424
27 *108:19 io_out[8] 0.000298437
28 *111:15 *142:27 0.00491236
29 *113:15 *142:27 0.101342
30 *114:13 *142:27 0
31 *114:23 *142:27 0.000122779
32 *115:31 *142:27 0.00117376
33 *120:13 *142:17 0.00028704
34 *120:13 *142:19 0.00180671
35 *121:13 *142:19 0.00324852
36 *128:29 *142:19 0.0113014
37 *133:27 *142:17 0.000587812
38 *133:27 *142:19 0.0221554
39 *136:31 *142:17 0.000799068
40 *137:21 *142:17 0.000636017
41 *137:21 *142:19 0.0116526
*RES
1 *739:io_out_o[8] *142:17 24.8192 
2 *142:17 *142:19 79.9549 
3 *142:19 *142:25 24.3775 
4 *142:25 *142:27 1246.96 
5 *142:27 *142:29 15 
6 *142:29 *142:31 1838.33 
7 *142:31 *142:35 43.2543 
8 *142:35 io_out[8] 30.0046 
*END

*D_NET *143 0.63802
*CONN
*P io_out[9] O
*I *739:io_out_o[9] O *D ntt_wb_bridge
*CAP
1 io_out[9] 0.000928564
2 *739:io_out_o[9] 0.000904381
3 *143:27 0.0240114
4 *143:25 0.0230829
5 *143:23 0.0400652
6 *143:21 0.0400652
7 *143:19 0.00540593
8 *143:17 0.00540593
9 *143:15 0.0139724
10 *143:13 0.0148768
11 *143:19 *363:11 0
12 *143:19 *729:11 0
13 *143:19 *731:11 0
14 *74:27 *143:15 0.0271799
15 *77:33 *143:19 0
16 *81:15 *143:15 0.00182146
17 *91:21 *143:13 0
18 *99:27 *143:27 0.0104238
19 *101:15 *143:15 0.00776712
20 *101:27 *143:27 0.00475301
21 *104:27 *143:27 0.142292
22 *105:15 *143:15 0.0357379
23 *105:27 *143:27 0.00850815
24 *107:39 *143:27 0.158562
25 *112:13 *143:15 0.000364684
26 *115:21 *143:15 0.00213115
27 *115:23 *143:15 0.0171849
28 *115:49 *143:23 0
29 *126:15 *143:15 0.0213844
30 *127:15 *143:15 0.0226937
31 *129:15 *143:15 0.000375693
32 *136:31 *143:13 0.000127191
33 *140:13 *143:15 0.00629012
34 *140:25 *143:27 0.00170426
*RES
1 *739:io_out_o[9] *143:13 34.9816 
2 *143:13 *143:15 872.962 
3 *143:15 *143:17 15 
4 *143:17 *143:19 113.183 
5 *143:19 *143:21 15 
6 *143:21 *143:23 865.816 
7 *143:23 *143:25 15 
8 *143:25 *143:27 2012.82 
9 *143:27 io_out[9] 10.9045 
*END

*D_NET *272 0.22969
*CONN
*P la_data_out[0] O
*I *739:la_data_out_o[0] O *D ntt_wb_bridge
*CAP
1 la_data_out[0] 0.00076928
2 *739:la_data_out_o[0] 0.000390203
3 *272:45 0.0165141
4 *272:43 0.0158552
5 *272:37 0.00360359
6 *272:35 0.00380632
7 *272:25 0.0301386
8 *272:23 0.0300409
9 *272:13 0.000605567
10 la_data_out[0] *578:13 0
11 *272:13 *311:13 0.00137277
12 *272:13 *322:15 4.53623e-05
13 *272:13 *329:17 0.00141495
14 *272:13 *337:41 0.00010101
15 *272:23 *332:23 0.000150704
16 *272:23 *337:41 0.000341084
17 *272:23 *388:25 2.33476e-05
18 *272:25 *283:25 0.0013447
19 *272:25 *309:25 0
20 *272:25 *311:25 0.064109
21 *272:25 *313:17 0.00117982
22 *272:25 *323:23 0.00732736
23 *272:25 *327:29 0
24 *272:25 *330:17 0.0118751
25 *272:35 *317:19 0.00018956
26 *272:35 *318:19 9.2467e-06
27 *272:35 *334:43 0.000272155
28 *272:35 *337:61 0.000268659
29 *272:37 *294:25 0.00154419
30 *272:37 *303:25 0.00141048
31 *272:37 *306:23 0.000189711
32 *272:37 *311:37 0.00444064
33 *272:37 *317:23 5.5792e-05
34 *272:37 *318:25 0.000100486
35 *272:37 *319:31 2.56967e-05
36 *272:45 *283:29 0.000234498
37 *272:45 *294:25 0.00048919
38 *272:45 *303:25 0.000857888
39 *272:45 *304:31 0.00915389
40 *272:45 *311:45 0
41 *272:45 *344:23 0
42 *95:27 *272:25 0.00197641
43 *95:29 *272:25 0.0174629
*RES
1 *739:la_data_out_o[0] *272:13 38.8723 
2 *272:13 *272:23 32.0211 
3 *272:23 *272:25 154.788 
4 *272:25 *272:35 34.6665 
5 *272:35 *272:37 100.671 
6 *272:37 *272:43 24.7296 
7 *272:43 *272:45 60.5061 
8 *272:45 la_data_out[0] 25.6796 
*END

*D_NET *273 0.213324
*CONN
*P la_data_out[100] O
*I *739:la_data_out_o[100] O *D ntt_wb_bridge
*CAP
1 la_data_out[100] 0.0396051
2 *739:la_data_out_o[100] 0.00117802
3 *273:17 0.0396051
4 *273:15 0.00840798
5 *273:13 0.009586
6 *273:13 *380:11 0.000319692
7 *273:15 *274:15 0.000420486
8 *273:15 *275:15 0.0547099
9 *273:15 *280:15 0.0509688
10 *273:15 *387:15 0.00567216
11 *273:15 *391:15 0.000540867
12 *273:15 *398:15 0.000746077
13 *273:15 *726:15 0.00142508
14 *273:15 *737:23 0.000139117
*RES
1 *739:la_data_out_o[100] *273:13 38.5168 
2 *273:13 *273:15 601.398 
3 *273:15 *273:17 15 
4 *273:17 la_data_out[100] 893.635 
*END

*D_NET *274 0.20702
*CONN
*P la_data_out[101] O
*I *739:la_data_out_o[101] O *D ntt_wb_bridge
*CAP
1 la_data_out[101] 0.000859417
2 *739:la_data_out_o[101] 0.00113605
3 *274:23 0.00360061
4 *274:21 0.0027412
5 *274:19 0.0388947
6 *274:17 0.0388947
7 *274:15 0.00846154
8 *274:13 0.0095976
9 *274:13 *380:11 0.000177996
10 *274:15 *275:15 0.0476184
11 *274:15 *276:15 0.0389326
12 *274:15 *385:15 0.00505774
13 *274:15 *387:15 0.000398587
14 *274:15 *391:15 0.000501959
15 *274:15 *398:15 0.000157277
16 *274:15 *737:23 0.0007887
17 *274:19 la_data_out[96] 0
18 *274:23 *276:23 0.00878061
19 *273:15 *274:15 0.000420486
*RES
1 *739:la_data_out_o[101] *274:13 38.9411 
2 *274:13 *274:15 519.452 
3 *274:15 *274:17 15 
4 *274:17 *274:19 876.629 
5 *274:19 *274:21 15 
6 *274:21 *274:23 94.0014 
7 *274:23 la_data_out[101] 32.8557 
*END

*D_NET *275 0.214693
*CONN
*P la_data_out[102] O
*I *739:la_data_out_o[102] O *D ntt_wb_bridge
*CAP
1 la_data_out[102] 0.000703895
2 *739:la_data_out_o[102] 0.00112524
3 *275:23 0.00149049
4 *275:19 0.0397383
5 *275:17 0.0389517
6 *275:15 0.00934377
7 *275:13 0.010469
8 *275:13 *358:21 0
9 *275:13 *380:11 0.000212977
10 *275:15 *280:15 0.000520533
11 *275:15 *385:15 0.0058392
12 *275:15 *387:15 0.000259099
13 *275:15 *391:15 0.000477541
14 *275:15 *398:15 0.000728403
15 *275:23 *302:21 0.00250415
16 *273:15 *275:15 0.0547099
17 *274:15 *275:15 0.0476184
*RES
1 *739:la_data_out_o[102] *275:13 38.6524 
2 *275:13 *275:15 597.11 
3 *275:15 *275:17 15 
4 *275:17 *275:19 878.389 
5 *275:19 *275:23 41.825 
6 *275:23 la_data_out[102] 30.7429 
*END

*D_NET *276 0.204966
*CONN
*P la_data_out[103] O
*I *739:la_data_out_o[103] O *D ntt_wb_bridge
*CAP
1 la_data_out[103] 0.000823159
2 *739:la_data_out_o[103] 0.00124715
3 *276:23 0.00550199
4 *276:21 0.00467883
5 *276:19 0.038962
6 *276:17 0.038962
7 *276:15 0.00886739
8 *276:13 0.0101145
9 *276:13 *358:21 0
10 *276:13 *380:11 0.000138821
11 *276:15 *360:27 0.000166134
12 *276:15 *374:15 0.00444701
13 *276:15 *385:15 0.00106467
14 *276:15 *387:15 0.000351919
15 *276:15 *391:15 0.000238294
16 *276:15 *725:15 6.67968e-05
17 *276:15 *737:23 0.0213867
18 *276:19 la_data_out[91] 0
19 *276:23 *285:21 0.0202358
20 *274:15 *276:15 0.0389326
21 *274:23 *276:23 0.00878061
*RES
1 *739:la_data_out_o[103] *276:13 39.2484 
2 *276:13 *276:15 418.449 
3 *276:15 *276:17 15 
4 *276:17 *276:19 877.333 
5 *276:19 *276:21 15 
6 *276:21 *276:23 216.444 
7 *276:23 la_data_out[103] 32.5036 
*END

*D_NET *277 0.208202
*CONN
*P la_data_out[104] O
*I *739:la_data_out_o[104] O *D ntt_wb_bridge
*CAP
1 la_data_out[104] 0.0401422
2 *739:la_data_out_o[104] 0.000470496
3 *277:17 0.0401422
4 *277:15 0.0234089
5 *277:13 0.0238794
6 *277:13 *278:13 0
7 *277:13 *380:11 3.73592e-05
8 *277:13 *381:21 0
9 *277:15 *279:15 0
10 *277:15 *298:15 0.000719983
11 *277:15 *365:15 0.00580415
12 *277:15 *369:15 0.0033904
13 *277:15 *370:15 0.00400611
14 *277:15 *382:13 0.010709
15 *277:15 *397:15 0.0517879
16 *277:15 *531:17 0.00370416
*RES
1 *739:la_data_out_o[104] *277:13 22.8084 
2 *277:13 *277:15 116.491 
3 *277:15 *277:17 8 
4 *277:17 la_data_out[104] 885.36 
*END

*D_NET *278 0.19368
*CONN
*P la_data_out[105] O
*I *739:la_data_out_o[105] O *D ntt_wb_bridge
*CAP
1 la_data_out[105] 0.0392827
2 *739:la_data_out_o[105] 0.000718332
3 *278:17 0.0392827
4 *278:15 0.0141915
5 *278:13 0.0149098
6 *278:13 *380:11 0.000122436
7 *278:13 *381:21 0
8 *278:15 *279:15 0.00330096
9 *278:15 *282:17 0.000123131
10 *278:15 *292:15 0.0120668
11 *278:15 *299:15 0.0462637
12 *278:15 *389:15 0.00779904
13 *278:15 *395:15 0.00558518
14 *278:15 *396:15 0.00279271
15 *278:15 *397:15 0.000147745
16 *278:15 *529:15 0.00709283
17 *277:13 *278:13 0
*RES
1 *739:la_data_out_o[105] *278:13 32.8539 
2 *278:13 *278:15 658.093 
3 *278:15 *278:17 15 
4 *278:17 la_data_out[105] 888.353 
*END

*D_NET *279 0.197266
*CONN
*P la_data_out[106] O
*I *739:la_data_out_o[106] O *D ntt_wb_bridge
*CAP
1 la_data_out[106] 0.00107614
2 *739:la_data_out_o[106] 0.000996409
3 *279:19 0.0397586
4 *279:17 0.0386825
5 *279:15 0.0221538
6 *279:13 0.0231502
7 la_data_out[106] *284:21 0.000128626
8 la_data_out[106] *285:21 0.000113564
9 la_data_out[106] *297:21 0.000140203
10 la_data_out[106] *302:21 0.000296955
11 *279:13 *280:13 0
12 *279:13 *380:11 0.000684203
13 *279:15 *281:17 0.0191364
14 *279:15 *282:17 0.0185095
15 *279:15 *299:15 0.00196328
16 *279:15 *356:19 0.000687504
17 *279:15 *359:15 0.000221699
18 *279:15 *360:19 0.00130996
19 *279:15 *368:15 0.00284448
20 *279:15 *396:15 0.00486468
21 *279:15 *397:15 0
22 *279:15 *398:15 0.0172466
23 *115:143 *279:19 0
24 *277:15 *279:15 0
25 *278:15 *279:15 0.00330096
*RES
1 *739:la_data_out_o[106] *279:13 28.8098 
2 *279:13 *279:15 117.951 
3 *279:15 *279:17 8 
4 *279:17 *279:19 874.164 
5 *279:19 la_data_out[106] 33.6151 
*END

*D_NET *280 0.223282
*CONN
*P la_data_out[107] O
*I *739:la_data_out_o[107] O *D ntt_wb_bridge
*CAP
1 la_data_out[107] 0.0399905
2 *739:la_data_out_o[107] 0.00111815
3 *280:17 0.0399905
4 *280:15 0.0112783
5 *280:13 0.0123965
6 *280:13 *380:11 0.000340558
7 *280:15 *296:15 0.0526722
8 *280:15 *387:15 0.00585919
9 *280:15 *391:15 0.000496517
10 *280:15 *398:15 0.000914283
11 *280:15 *726:15 0.00399179
12 *77:107 la_data_out[107] 0.00274431
13 *273:15 *280:15 0.0509688
14 *275:15 *280:15 0.000520533
15 *279:13 *280:13 0
*RES
1 *739:la_data_out_o[107] *280:13 38.1796 
2 *280:13 *280:15 675.244 
3 *280:15 *280:17 15 
4 *280:17 la_data_out[107] 893.283 
*END

*D_NET *281 0.225017
*CONN
*P la_data_out[108] O
*I *739:la_data_out_o[108] O *D ntt_wb_bridge
*CAP
1 la_data_out[108] 0.00936188
2 *739:la_data_out_o[108] 0.00107752
3 *281:25 0.00936188
4 *281:23 0.0264953
5 *281:21 0.0264953
6 *281:19 0.0137347
7 *281:17 0.0175915
8 *281:13 0.00493431
9 *281:13 *354:21 1.09111e-05
10 *281:13 *356:25 7.36323e-05
11 *281:13 *380:11 0.000546493
12 *281:17 *361:15 0.00193308
13 *281:17 *362:15 0.00223831
14 *281:17 *398:15 0.0191319
15 *281:19 *282:19 0.0166497
16 *281:19 *284:17 8.56157e-05
17 *281:19 *302:17 0.0530375
18 *281:19 *365:19 0
19 *281:19 *647:15 0.00293544
20 *281:19 *649:15 0
21 *77:55 *281:23 0.000185291
22 *279:15 *281:17 0.0191364
*RES
1 *739:la_data_out_o[108] *281:13 29.2976 
2 *281:13 *281:17 43.6907 
3 *281:17 *281:19 689.641 
4 *281:19 *281:21 8 
5 *281:21 *281:23 87.64 
6 *281:23 *281:25 8 
7 *281:25 la_data_out[108] 201.498 
*END

*D_NET *282 0.188109
*CONN
*P la_data_out[109] O
*I *739:la_data_out_o[109] O *D ntt_wb_bridge
*CAP
1 la_data_out[109] 0.0202464
2 *739:la_data_out_o[109] 0.000890373
3 *282:25 0.0202464
4 *282:23 0.0249072
5 *282:21 0.0249072
6 *282:19 0.0140625
7 *282:17 0.0192147
8 *282:13 0.00604258
9 *282:13 *380:11 0.000505178
10 *282:17 *288:17 0.00438076
11 *282:17 *295:17 0.00248571
12 *282:17 *299:15 0.000139191
13 *282:17 *359:15 0.00095839
14 *282:17 *389:15 0.00171638
15 *282:17 *396:15 0.00106025
16 *282:19 *365:19 0
17 *282:19 *647:15 0.00283301
18 *282:19 *683:27 0
19 *282:23 *705:7 0.0082307
20 *278:15 *282:17 0.000123131
21 *279:15 *282:17 0.0185095
22 *281:19 *282:19 0.0166497
*RES
1 *739:la_data_out_o[109] *282:13 27.7808 
2 *282:13 *282:17 42.5744 
3 *282:17 *282:19 445.254 
4 *282:19 *282:21 8 
5 *282:21 *282:23 90.7312 
6 *282:23 *282:25 8 
7 *282:25 la_data_out[109] 444.477 
*END

*D_NET *283 0.254839
*CONN
*P la_data_out[10] O
*I *739:la_data_out_o[10] O *D ntt_wb_bridge
*CAP
1 la_data_out[10] 0.000636682
2 *739:la_data_out_o[10] 0.000478106
3 *283:29 0.00645845
4 *283:27 0.00582176
5 *283:25 0.0237799
6 *283:23 0.0237799
7 *283:21 0.00100281
8 *283:13 0.00283611
9 *283:11 0.00231141
10 *283:11 *310:19 0.0001691
11 *283:13 *294:13 0.00887727
12 *283:13 *294:19 0.000232113
13 *283:13 *309:17 0.000893476
14 *283:13 *310:19 0.000332503
15 *283:13 *330:13 0.00850366
16 *283:21 *331:35 0.000907911
17 *283:21 *331:37 0
18 *283:21 *335:27 0.00032736
19 *283:21 *338:35 0.000278724
20 *283:21 *338:37 0.000833262
21 *283:21 *355:23 3.60341e-05
22 *283:21 *399:21 0.00011563
23 *283:21 *399:23 9.60814e-07
24 *283:25 *309:25 0.0632721
25 *283:25 *318:19 0.011482
26 *283:25 *325:19 0.000554695
27 *283:29 la_data_out[18] 0.00169347
28 *283:29 la_data_out[21] 0.00407063
29 *283:29 *294:25 0.00342656
30 *283:29 *306:23 0.0149991
31 *283:29 *311:45 0.0156861
32 *283:29 *332:37 0.00050289
33 *95:27 *283:25 0.0019623
34 *95:29 *283:25 0.0469972
35 *272:25 *283:25 0.0013447
36 *272:45 *283:29 0.000234498
*RES
1 *739:la_data_out_o[10] *283:11 26.4282 
2 *283:11 *283:13 103.054 
3 *283:13 *283:21 49.3667 
4 *283:21 *283:23 8 
5 *283:23 *283:25 151.741 
6 *283:25 *283:27 8 
7 *283:27 *283:29 45.2648 
8 *283:29 la_data_out[10] 22.1582 
*END

*D_NET *284 0.272615
*CONN
*P la_data_out[110] O
*I *739:la_data_out_o[110] O *D ntt_wb_bridge
*CAP
1 la_data_out[110] 0.000771318
2 *739:la_data_out_o[110] 0.000370228
3 *284:21 0.00804043
4 *284:19 0.00726911
5 *284:17 0.0242955
6 *284:15 0.0242955
7 *284:13 0.00332844
8 *284:11 0.00369867
9 *284:11 *380:11 0.000193754
10 *284:13 *285:13 0.00442275
11 *284:13 *288:23 0.0100066
12 *284:13 *297:13 0.00808765
13 *284:13 *380:11 0.00237127
14 *284:13 *381:23 0.00371586
15 *284:17 *302:17 0.0673799
16 *284:17 *367:27 0
17 *284:17 *649:15 0.00115458
18 *284:21 la_data_out[81] 0.000104089
19 *284:21 *285:21 0.0429514
20 *284:21 *297:21 0.0362642
21 *284:21 *302:21 0.00405984
22 *284:21 *362:31 0.00301895
23 *284:21 *375:29 0.000120171
24 *284:21 *383:41 0.00534774
25 la_data_out[106] *284:21 0.000128626
26 *101:19 *284:17 0.0111326
27 *281:19 *284:17 8.56157e-05
*RES
1 *739:la_data_out_o[110] *284:11 25.8621 
2 *284:11 *284:13 182.617 
3 *284:13 *284:15 15 
4 *284:15 *284:17 863.599 
5 *284:17 *284:19 15 
6 *284:19 *284:21 523.74 
7 *284:21 la_data_out[110] 31.7993 
*END

*D_NET *285 0.213211
*CONN
*P la_data_out[111] O
*I *739:la_data_out_o[111] O *D ntt_wb_bridge
*CAP
1 la_data_out[111] 0.000786779
2 *739:la_data_out_o[111] 0.000204332
3 *285:21 0.011029
4 *285:19 0.0102422
5 *285:17 0.0378549
6 *285:15 0.0378549
7 *285:13 0.0042688
8 *285:11 0.00447314
9 *285:11 *380:11 0.000176965
10 *285:13 *286:13 0.0211942
11 *285:13 *295:31 0.000309798
12 *285:13 *297:13 0.0138754
13 *285:13 *380:11 0.000460065
14 *285:13 *531:17 0.00011597
15 *285:21 *297:21 0.000968819
16 la_data_out[106] *285:21 0.000113564
17 *77:47 *285:17 0
18 *115:63 *285:17 0.00167258
19 *276:23 *285:21 0.0202358
20 *284:13 *285:13 0.00442275
21 *284:21 *285:21 0.0429514
*RES
1 *739:la_data_out_o[111] *285:11 25.0495 
2 *285:11 *285:13 239.789 
3 *285:13 *285:15 15 
4 *285:15 *285:17 862.543 
5 *285:17 *285:19 15 
6 *285:19 *285:21 478.003 
7 *285:21 la_data_out[111] 32.1514 
*END

*D_NET *286 0.213751
*CONN
*P la_data_out[112] O
*I *739:la_data_out_o[112] O *D ntt_wb_bridge
*CAP
1 la_data_out[112] 0.0397864
2 *739:la_data_out_o[112] 0.000116465
3 *286:15 0.0397864
4 *286:13 0.0128041
5 *286:11 0.0129205
6 *286:11 *380:11 8.06172e-05
7 *286:13 *287:13 0.0657933
8 *286:13 *288:23 0.011346
9 *286:13 *292:13 0.000127139
10 *286:13 *295:31 0.00473749
11 *286:13 *297:13 0.00367567
12 *286:13 *380:11 0.00125599
13 *286:13 *531:17 0.000127139
14 *285:13 *286:13 0.0211942
*RES
1 *739:la_data_out_o[112] *286:11 24.3315 
2 *286:11 *286:13 730.034 
3 *286:13 *286:15 15 
4 *286:15 la_data_out[112] 879.197 
*END

*D_NET *287 0.238112
*CONN
*P la_data_out[113] O
*I *739:la_data_out_o[113] O *D ntt_wb_bridge
*CAP
1 la_data_out[113] 0.0387687
2 *739:la_data_out_o[113] 0.000172931
3 *287:15 0.0387687
4 *287:13 0.010418
5 *287:11 0.0105909
6 *287:11 *380:11 0.000114965
7 *287:13 *288:23 0.000187464
8 *287:13 *289:13 0.0675472
9 *287:13 *292:13 0.000135435
10 *287:13 *295:31 0.00503794
11 *287:13 *380:11 0.000440901
12 *287:13 *531:17 0.000135435
13 *286:13 *287:13 0.0657933
*RES
1 *739:la_data_out_o[113] *287:11 24.1287 
2 *287:11 *287:13 740.039 
3 *287:13 *287:15 15 
4 *287:15 la_data_out[113] 878.845 
*END

*D_NET *288 0.185924
*CONN
*P la_data_out[114] O
*I *739:la_data_out_o[114] O *D ntt_wb_bridge
*CAP
1 la_data_out[114] 0.0388496
2 *739:la_data_out_o[114] 0.00166718
3 *288:25 0.0388496
4 *288:23 0.0155372
5 *288:21 0.0161291
6 *288:17 0.00225909
7 *288:17 *380:11 0.000112148
8 *288:17 *389:15 0.000921458
9 *288:17 *396:15 0.0015867
10 *288:21 *295:17 0
11 *288:23 *289:13 0
12 *288:23 *293:13 0.0139679
13 *288:23 *297:13 0.00684183
14 *288:23 *363:7 0.00012144
15 *288:23 *381:23 0.0124483
16 *288:23 *383:17 0.00124184
17 *288:23 *392:21 0.00946988
18 *115:171 la_data_out[114] 0
19 *282:17 *288:17 0.00438076
20 *284:13 *288:23 0.0100066
21 *286:13 *288:23 0.011346
22 *287:13 *288:23 0.000187464
*RES
1 *739:la_data_out_o[114] *288:17 42.405 
2 *288:17 *288:21 23.4204 
3 *288:21 *288:23 707.641 
4 *288:23 *288:25 15 
5 *288:25 la_data_out[114] 880.606 
*END

*D_NET *289 0.244895
*CONN
*P la_data_out[115] O
*I *739:la_data_out_o[115] O *D ntt_wb_bridge
*CAP
1 la_data_out[115] 0.0387458
2 *739:la_data_out_o[115] 0.000107552
3 *289:15 0.0387458
4 *289:13 0.0110203
5 *289:11 0.0111279
6 *289:11 *380:11 6.12648e-05
7 *289:13 *290:13 0.0704576
8 *289:13 *292:13 0.00011731
9 *289:13 *293:13 0
10 *289:13 *295:31 0.00674206
11 *289:13 *380:11 0.00010457
12 *289:13 *531:17 0.00011731
13 *77:123 la_data_out[115] 0
14 *78:121 la_data_out[115] 0
15 *287:13 *289:13 0.0675472
16 *288:23 *289:13 0
*RES
1 *739:la_data_out_o[115] *289:11 23.56 
2 *289:11 *289:13 762.431 
3 *289:13 *289:15 15 
4 *289:15 la_data_out[115] 878.493 
*END

*D_NET *290 0.207768
*CONN
*P la_data_out[116] O
*I *739:la_data_out_o[116] O *D ntt_wb_bridge
*CAP
1 la_data_out[116] 0.038711
2 *739:la_data_out_o[116] 0.000104407
3 *290:15 0.038711
4 *290:13 0.0169177
5 *290:11 0.0170221
6 *290:11 *380:11 4.50084e-05
7 *290:13 *292:13 0.000207146
8 *290:13 *293:13 0
9 *290:13 *295:27 0.000491508
10 *290:13 *295:31 0.00779196
11 *290:13 *301:27 0.0143429
12 *290:13 *302:13 0.00196766
13 *290:13 *367:23 0.000222146
14 *290:13 *383:27 0.000762937
15 *103:35 la_data_out[116] 1.32324e-05
16 *289:13 *290:13 0.0704576
*RES
1 *739:la_data_out_o[116] *290:11 23.504 
2 *290:11 *290:13 774.818 
3 *290:13 *290:15 15 
4 *290:15 la_data_out[116] 878.141 
*END

*D_NET *291 0.203676
*CONN
*P la_data_out[117] O
*I *739:la_data_out_o[117] O *D ntt_wb_bridge
*CAP
1 la_data_out[117] 0.0398781
2 *739:la_data_out_o[117] 0.000362803
3 *291:15 0.0398781
4 *291:13 0.023801
5 *291:11 0.0241638
6 *291:11 *380:11 5.40725e-05
7 *291:13 *293:13 0.0698023
8 *291:13 *298:15 0
9 *291:13 *301:21 0
10 *291:13 *363:7 0.0011182
11 *291:13 *365:15 0
12 *291:13 *372:13 0.000140203
13 *291:13 *381:23 0.000748303
14 *291:13 *383:33 0.00372909
15 *114:23 la_data_out[117] 0
*RES
1 *739:la_data_out_o[117] *291:11 27.0478 
2 *291:11 *291:13 785.776 
3 *291:13 *291:15 15 
4 *291:15 la_data_out[117] 882.014 
*END

*D_NET *292 0.239096
*CONN
*P la_data_out[118] O
*I *739:la_data_out_o[118] O *D ntt_wb_bridge
*CAP
1 la_data_out[118] 0.00294176
2 *739:la_data_out_o[118] 0.000890812
3 *292:25 0.00294176
4 *292:23 0.0233038
5 *292:21 0.0233038
6 *292:19 0.0227567
7 *292:17 0.0227567
8 *292:15 0.00236856
9 *292:13 0.00325938
10 *292:13 *380:11 0.000678029
11 *292:15 *295:17 0.00126506
12 *292:15 *395:15 0.00767639
13 *292:15 *396:15 0.000123131
14 *292:15 *529:15 0.0023474
15 *292:19 *354:27 0
16 *292:19 *531:21 0.00311664
17 *292:23 *529:23 0.041705
18 *105:19 *292:19 0.0650069
19 *278:15 *292:15 0.0120668
20 *286:13 *292:13 0.000127139
21 *287:13 *292:13 0.000135435
22 *289:13 *292:13 0.00011731
23 *290:13 *292:13 0.000207146
*RES
1 *739:la_data_out_o[118] *292:13 33.5097 
2 *292:13 *292:15 133.069 
3 *292:15 *292:17 15 
4 *292:17 *292:19 829.089 
5 *292:19 *292:21 15 
6 *292:21 *292:23 655.711 
7 *292:23 *292:25 15 
8 *292:25 la_data_out[118] 59.0564 
*END

*D_NET *293 0.233266
*CONN
*P la_data_out[119] O
*I *739:la_data_out_o[119] O *D ntt_wb_bridge
*CAP
1 la_data_out[119] 0.0288453
2 *739:la_data_out_o[119] 0.000567107
3 *293:15 0.0288453
4 *293:13 0.0151635
5 *293:11 0.0157306
6 *293:11 *380:11 0.000197611
7 *293:13 *363:7 0.00110167
8 *293:13 *381:23 0.00359424
9 *293:13 *392:21 0.0230896
10 *73:24 la_data_out[119] 0
11 *112:17 la_data_out[119] 0.0323612
12 *288:23 *293:13 0.0139679
13 *289:13 *293:13 0
14 *290:13 *293:13 0
15 *291:13 *293:13 0.0698023
*RES
1 *739:la_data_out_o[119] *293:11 27.2408 
2 *293:11 *293:13 801.974 
3 *293:13 *293:15 15 
4 *293:15 la_data_out[119] 881.662 
*END

*D_NET *294 0.196597
*CONN
*P la_data_out[11] O
*I *739:la_data_out_o[11] O *D ntt_wb_bridge
*CAP
1 la_data_out[11] 0.000708014
2 *739:la_data_out_o[11] 0.000257239
3 *294:25 0.00576519
4 *294:21 0.0304378
5 *294:19 0.0258191
6 *294:13 0.00205506
7 *294:11 0.0018738
8 *294:11 *310:19 4.3258e-05
9 *294:13 *303:13 0.00992327
10 *294:13 *303:19 1.41129e-05
11 *294:13 *309:17 0.00127189
12 *294:13 *310:19 0.000586093
13 *294:13 *330:13 0.000614394
14 *294:19 *303:19 0.000853825
15 *294:21 la_data_out[23] 0
16 *294:21 *314:29 0.000244378
17 *294:21 *332:25 0
18 *294:21 *344:19 0.0668591
19 *294:25 la_data_out[22] 0.000319223
20 *294:25 *303:25 0.0186758
21 *294:25 *306:23 0.0140815
22 *294:25 *311:37 0.000948587
23 *134:19 *294:21 0.000675634
24 *272:37 *294:25 0.00154419
25 *272:45 *294:25 0.00048919
26 *283:13 *294:13 0.00887727
27 *283:13 *294:19 0.000232113
28 *283:29 *294:25 0.00342656
*RES
1 *739:la_data_out_o[11] *294:11 25.5982 
2 *294:11 *294:13 109.724 
3 *294:13 *294:19 25.1707 
4 *294:19 *294:21 864.832 
5 *294:21 *294:25 48.1557 
6 *294:25 la_data_out[11] 23.5668 
*END

*D_NET *295 0.22395
*CONN
*P la_data_out[120] O
*I *739:la_data_out_o[120] O *D ntt_wb_bridge
*CAP
1 la_data_out[120] 0.0381213
2 *739:la_data_out_o[120] 0.0028417
3 *295:33 0.0381213
4 *295:31 0.0439147
5 *295:29 0.0439147
6 *295:27 0.000639566
7 *295:17 0.00348127
8 *295:17 *380:11 0.000322038
9 *295:17 *395:15 0.00145225
10 *295:17 *396:15 0.00706833
11 *295:27 *298:21 0.000497056
12 *295:27 *302:13 0.000493996
13 *295:27 *393:21 0.000631728
14 *295:27 *395:21 1.24585e-05
15 *295:27 *693:11 0
16 *295:31 *301:27 0.0129401
17 *295:31 *380:11 0.000549828
18 *295:31 *531:17 8.60871e-05
19 *282:17 *295:17 0.00248571
20 *285:13 *295:31 0.000309798
21 *286:13 *295:31 0.00473749
22 *287:13 *295:31 0.00503794
23 *288:21 *295:17 0
24 *289:13 *295:31 0.00674206
25 *290:13 *295:27 0.000491508
26 *290:13 *295:31 0.00779196
27 *292:15 *295:17 0.00126506
*RES
1 *739:la_data_out_o[120] *295:17 46.5292 
2 *295:17 *295:27 46.24 
3 *295:27 *295:29 8 
4 *295:29 *295:31 132.634 
5 *295:31 *295:33 8 
6 *295:33 la_data_out[120] 876.908 
*END

*D_NET *296 0.245115
*CONN
*P la_data_out[121] O
*I *739:la_data_out_o[121] O *D ntt_wb_bridge
*CAP
1 la_data_out[121] 0.000753281
2 *739:la_data_out_o[121] 0.00142062
3 *296:23 0.00374878
4 *296:21 0.0029955
5 *296:19 0.0381421
6 *296:17 0.0381421
7 *296:15 0.0117586
8 *296:13 0.0131792
9 *296:13 *380:11 0.000499005
10 *296:15 *300:15 0.0630349
11 *296:15 *391:15 0.00391968
12 *296:15 *398:15 0.00103552
13 *296:15 *726:15 0.00147072
14 *296:23 *297:21 0.0097251
15 *78:121 *296:19 0
16 *115:187 *296:19 0.0026172
17 *280:15 *296:15 0.0526722
*RES
1 *739:la_data_out_o[121] *296:13 38.1149 
2 *296:13 *296:15 718.599 
3 *296:15 *296:17 15 
4 *296:17 *296:19 876.276 
5 *296:19 *296:21 15 
6 *296:21 *296:23 104.006 
7 *296:23 la_data_out[121] 31.7993 
*END

*D_NET *297 0.244009
*CONN
*P la_data_out[122] O
*I *739:la_data_out_o[122] O *D ntt_wb_bridge
*CAP
1 la_data_out[122] 0.000728239
2 *739:la_data_out_o[122] 0.000559045
3 *297:21 0.00987961
4 *297:19 0.00915137
5 *297:17 0.038233
6 *297:15 0.038233
7 *297:13 0.00443067
8 *297:11 0.00498971
9 *297:11 *380:11 0.000190196
10 *297:13 *380:11 0.00114166
11 *297:17 la_data_out[89] 0
12 *297:21 *302:21 0.056894
13 la_data_out[106] *297:21 0.000140203
14 *284:13 *297:13 0.00808765
15 *284:21 *297:21 0.0362642
16 *285:13 *297:13 0.0138754
17 *285:21 *297:21 0.000968819
18 *286:13 *297:13 0.00367567
19 *288:23 *297:13 0.00684183
20 *296:23 *297:21 0.0097251
*RES
1 *739:la_data_out_o[122] *297:11 25.4987 
2 *297:11 *297:13 225.496 
3 *297:13 *297:15 15 
4 *297:15 *297:17 863.599 
5 *297:17 *297:19 15 
6 *297:19 *297:21 608.544 
7 *297:21 la_data_out[122] 31.4471 
*END

*D_NET *298 0.182992
*CONN
*P la_data_out[123] O
*I *739:la_data_out_o[123] O *D ntt_wb_bridge
*CAP
1 la_data_out[123] 0.0379043
2 *739:la_data_out_o[123] 0.000774114
3 *298:25 0.0379043
4 *298:23 0.0326791
5 *298:21 0.0331252
6 *298:15 0.001536
7 *298:13 0.00186405
8 *298:13 *380:11 0.000379655
9 *298:15 *301:21 0.00257096
10 *298:15 *365:15 0.00452882
11 *298:21 *301:25 0.000548078
12 *298:21 *393:21 2.09739e-05
13 *298:21 *731:41 0.000261186
14 *298:23 *301:27 0
15 *298:23 *395:23 0.027678
16 *72:29 la_data_out[123] 0
17 *277:15 *298:15 0.000719983
18 *291:13 *298:15 0
19 *295:27 *298:21 0.000497056
*RES
1 *739:la_data_out_o[123] *298:13 29.7991 
2 *298:13 *298:15 49.6936 
3 *298:15 *298:21 41.4136 
4 *298:21 *298:23 795.304 
5 *298:23 *298:25 15 
6 *298:25 la_data_out[123] 873.563 
*END

*D_NET *299 0.198088
*CONN
*P la_data_out[124] O
*I *739:la_data_out_o[124] O *D ntt_wb_bridge
*CAP
1 la_data_out[124] 0.0385553
2 *739:la_data_out_o[124] 0.00105003
3 *299:17 0.0385553
4 *299:15 0.0321185
5 *299:13 0.0331685
6 *299:13 *380:11 0.000316287
7 *299:15 *368:19 0
8 *299:15 *389:15 0.00367921
9 *299:15 *396:15 0.00227892
10 *111:19 la_data_out[124] 0
11 *278:15 *299:15 0.0462637
12 *279:15 *299:15 0.00196328
13 *282:17 *299:15 0.000139191
*RES
1 *739:la_data_out_o[124] *299:13 33.5644 
2 *299:13 *299:15 856.287 
3 *299:15 *299:17 15 
4 *299:17 la_data_out[124] 888.705 
*END

*D_NET *300 0.215958
*CONN
*P la_data_out[125] O
*I *739:la_data_out_o[125] O *D ntt_wb_bridge
*CAP
1 la_data_out[125] 0.0387113
2 *739:la_data_out_o[125] 0.00132469
3 *300:17 0.0387113
4 *300:15 0.0285999
5 *300:13 0.0299246
6 *300:13 *380:11 0.000260306
7 *300:15 *368:19 0.000976388
8 *300:15 *391:15 0.00716104
9 *300:15 *398:15 0.00183567
10 *300:15 *726:15 0.00541787
11 *296:15 *300:15 0.0630349
*RES
1 *739:la_data_out_o[125] *300:13 37.3297 
2 *300:13 *300:15 867.245 
3 *300:15 *300:17 15 
4 *300:17 la_data_out[125] 892.579 
*END

*D_NET *301 0.183605
*CONN
*P la_data_out[126] O
*I *739:la_data_out_o[126] O *D ntt_wb_bridge
*CAP
1 la_data_out[126] 0.0380014
2 *739:la_data_out_o[126] 0.000558164
3 *301:29 0.0380014
4 *301:27 0.032919
5 *301:25 0.0333548
6 *301:21 0.00141627
7 *301:17 0.0015387
8 *301:17 *367:21 0.000163974
9 *301:17 *380:11 0.000153303
10 *301:21 *365:15 2.02872e-05
11 *301:21 *382:13 0.000346987
12 *301:27 *302:13 0.000110253
13 *301:27 *367:23 0.00274809
14 *301:27 *389:27 0.00387022
15 *301:27 *389:29 0
16 *301:27 *393:23 0
17 *301:27 *395:23 0
18 *142:31 la_data_out[126] 0
19 *290:13 *301:27 0.0143429
20 *291:13 *301:21 0
21 *295:31 *301:27 0.0129401
22 *298:15 *301:21 0.00257096
23 *298:21 *301:25 0.000548078
24 *298:23 *301:27 0
*RES
1 *739:la_data_out_o[126] *301:17 29.8027 
2 *301:17 *301:21 43.7307 
3 *301:21 *301:25 22.8921 
4 *301:25 *301:27 850.094 
5 *301:27 *301:29 15 
6 *301:29 la_data_out[126] 876.732 
*END

*D_NET *302 0.28091
*CONN
*P la_data_out[127] O
*I *739:la_data_out_o[127] O *D ntt_wb_bridge
*CAP
1 la_data_out[127] 0.000703197
2 *739:la_data_out_o[127] 0.000176671
3 *302:21 0.0260908
4 *302:19 0.0253876
5 *302:17 0.0138324
6 *302:15 0.0138324
7 *302:13 0.0013398
8 *302:11 0.00151647
9 *302:11 *380:11 2.96653e-05
10 *302:13 *367:23 0.00473607
11 *302:13 *383:27 0.000767754
12 *302:17 *365:19 0
13 *302:21 *354:31 0.000399022
14 *302:21 *383:41 0.00535404
15 la_data_out[106] *302:21 0.000296955
16 *275:23 *302:21 0.00250415
17 *281:19 *302:17 0.0530375
18 *284:17 *302:17 0.0673799
19 *284:21 *302:21 0.00405984
20 *290:13 *302:13 0.00196766
21 *295:27 *302:13 0.000493996
22 *297:21 *302:21 0.056894
23 *301:27 *302:13 0.000110253
*RES
1 *739:la_data_out_o[127] *302:11 23.5488 
2 *302:11 *302:13 54.4579 
3 *302:13 *302:15 15 
4 *302:15 *302:17 861.486 
5 *302:17 *302:19 15 
6 *302:19 *302:21 835.324 
7 *302:21 la_data_out[127] 31.095 
*END

*D_NET *303 0.157549
*CONN
*P la_data_out[12] O
*I *739:la_data_out_o[12] O *D ntt_wb_bridge
*CAP
1 la_data_out[12] 0.000750225
2 *739:la_data_out_o[12] 0.000244905
3 *303:25 0.00483271
4 *303:21 0.0334137
5 *303:19 0.0301668
6 *303:13 0.00255518
7 *303:11 0.00196451
8 *303:11 *310:19 4.35727e-05
9 *303:13 *304:13 0.000205651
10 *303:13 *306:13 0.010074
11 *303:13 *310:19 0.00141606
12 *303:13 *322:15 0.000309871
13 *303:13 *330:13 0.000211841
14 *303:19 *304:13 0.000589795
15 *303:21 la_data_out[23] 0
16 *303:21 *337:43 0.0228319
17 *303:21 *339:27 0
18 *303:21 *343:27 0
19 *303:21 *343:37 0
20 *303:25 la_data_out[22] 0.00130287
21 *303:25 *304:31 0.0148999
22 *303:25 *344:23 0
23 *272:37 *303:25 0.00141048
24 *272:45 *303:25 0.000857888
25 *294:13 *303:13 0.00992327
26 *294:13 *303:19 1.41129e-05
27 *294:19 *303:19 0.000853825
28 *294:25 *303:25 0.0186758
*RES
1 *739:la_data_out_o[12] *303:11 25.2535 
2 *303:11 *303:13 115.441 
3 *303:13 *303:19 32.7936 
4 *303:19 *303:21 863.775 
5 *303:21 *303:25 43.6048 
6 *303:25 la_data_out[12] 24.2711 
*END

*D_NET *304 0.147044
*CONN
*P la_data_out[13] O
*I *739:la_data_out_o[13] O *D ntt_wb_bridge
*CAP
1 la_data_out[13] 0.000792435
2 *739:la_data_out_o[13] 0.000211309
3 *304:31 0.00477653
4 *304:25 0.0428678
5 *304:23 0.0401487
6 *304:13 0.00335399
7 *304:11 0.00230024
8 *304:11 *310:19 7.37353e-05
9 *304:13 *305:13 0.011424
10 *304:13 *306:13 0.0107235
11 *304:13 *310:19 0.000657077
12 *304:13 *322:15 0.000339654
13 *304:13 *366:17 0.000103542
14 *304:13 *399:15 0.000110331
15 *304:23 *310:19 0.00151506
16 *304:23 *314:25 0.000195006
17 *304:23 *322:23 0.00103821
18 *304:23 *326:19 0.000151383
19 *304:23 *337:41 0.000829611
20 *304:23 *338:35 0.000149142
21 *304:31 la_data_out[19] 0.000433171
22 *304:31 *344:23 0
23 *272:45 *304:31 0.00915389
24 *303:13 *304:13 0.000205651
25 *303:19 *304:13 0.000589795
26 *303:25 *304:31 0.0148999
*RES
1 *739:la_data_out_o[13] *304:11 24.6575 
2 *304:11 *304:13 129.257 
3 *304:13 *304:23 38.8909 
4 *304:23 *304:25 860.782 
5 *304:25 *304:31 44.392 
6 *304:31 la_data_out[13] 16.9754 
*END

*D_NET *305 0.144776
*CONN
*P la_data_out[14] O
*I *739:la_data_out_o[14] O *D ntt_wb_bridge
*CAP
1 la_data_out[14] 0.0397735
2 *739:la_data_out_o[14] 0.000255262
3 *305:23 0.0446726
4 *305:19 0.00501449
5 *305:13 0.00208726
6 *305:11 0.0022272
7 *305:11 *310:19 9.88397e-05
8 *305:13 *306:13 0.000366854
9 *305:13 *307:13 0.0120126
10 *305:13 *308:13 2.19403e-05
11 *305:13 *310:19 0.00068528
12 *305:13 *322:15 0.000294198
13 *305:13 *332:23 0.000210294
14 *305:13 *366:17 0.000111462
15 *305:13 *388:17 0.000107542
16 *305:13 *399:15 0.000120607
17 *305:19 *307:19 1.98354e-05
18 *305:19 *308:21 8.87328e-05
19 *305:19 *334:35 5.52597e-05
20 *305:23 *307:23 0.0133399
21 *305:23 *308:21 0.0115305
22 *305:23 *322:23 0
23 *124:21 la_data_out[14] 0.000257487
24 *304:13 *305:13 0.011424
*RES
1 *739:la_data_out_o[14] *305:11 24.4136 
2 *305:11 *305:13 133.069 
3 *305:13 *305:19 25.0818 
4 *305:19 *305:23 39.4832 
5 *305:23 la_data_out[14] 881.134 
*END

*D_NET *306 0.236957
*CONN
*P la_data_out[15] O
*I *739:la_data_out_o[15] O *D ntt_wb_bridge
*CAP
1 la_data_out[15] 0.000678892
2 *739:la_data_out_o[15] 0.000308416
3 *306:23 0.00425333
4 *306:17 0.015355
5 *306:15 0.0117805
6 *306:13 0.00198533
7 *306:11 0.00229374
8 *306:11 *310:19 0.000130757
9 *306:13 *307:13 0.000241907
10 *306:13 *310:19 0.00183275
11 *306:13 *322:15 0.000339654
12 *306:13 *330:13 0.000568366
13 *306:17 la_data_out[24] 2.64833e-05
14 *306:17 *311:25 0.0116323
15 *306:17 *311:35 0.000161637
16 *306:17 *313:17 0.0671079
17 *306:17 *328:19 0.000947454
18 *306:17 *330:17 3.48965e-05
19 *306:17 *341:37 0.00073633
20 *306:17 *341:49 0.0646415
21 *306:23 la_data_out[22] 2.63753e-05
22 *306:23 *320:23 0.000210338
23 *306:23 *331:43 0.00078677
24 *306:23 *332:37 0.000237428
25 *306:23 *336:25 1.89717e-05
26 *306:23 *336:27 3.09609e-05
27 *306:23 *338:51 0.000154413
28 *272:37 *306:23 0.000189711
29 *283:29 *306:23 0.0149991
30 *294:25 *306:23 0.0140815
31 *303:13 *306:13 0.010074
32 *304:13 *306:13 0.0107235
33 *305:13 *306:13 0.000366854
*RES
1 *739:la_data_out_o[15] *306:11 25.2262 
2 *306:11 *306:13 132.116 
3 *306:13 *306:15 15 
4 *306:15 *306:17 865.184 
5 *306:17 *306:23 45.5941 
6 *306:23 la_data_out[15] 14.8625 
*END

*D_NET *307 0.13728
*CONN
*P la_data_out[16] O
*I *739:la_data_out_o[16] O *D ntt_wb_bridge
*CAP
1 la_data_out[16] 0.0398847
2 *739:la_data_out_o[16] 0.000169431
3 *307:23 0.0443867
4 *307:19 0.0046461
5 *307:13 0.00242868
6 *307:11 0.00245403
7 *307:11 *310:19 9.14318e-05
8 *307:13 *308:13 0.0137272
9 *307:13 *310:19 0.000239433
10 *307:13 *322:15 0.000220118
11 *307:13 *330:13 0
12 *307:13 *332:23 0.00021859
13 *307:13 *366:17 0.000119736
14 *307:13 *377:17 0.000102752
15 *307:13 *388:17 0.000115816
16 *307:13 *399:15 0.000128881
17 *307:19 *308:21 0.000113362
18 *307:19 *324:19 0.000214932
19 *307:23 *308:21 1.67025e-05
20 *307:23 *310:19 1.40946e-05
21 *307:23 *312:13 0.00212588
22 *307:23 *331:31 0.000247425
23 *305:13 *307:13 0.0120126
24 *305:19 *307:19 1.98354e-05
25 *305:23 *307:23 0.0133399
26 *306:13 *307:13 0.000241907
*RES
1 *739:la_data_out_o[16] *307:11 24.0204 
2 *307:11 *307:13 147.838 
3 *307:13 *307:19 26.1382 
4 *307:19 *307:23 33.0432 
5 *307:23 la_data_out[16] 881.838 
*END

*D_NET *308 0.133077
*CONN
*P la_data_out[17] O
*I *739:la_data_out_o[17] O *D ntt_wb_bridge
*CAP
1 la_data_out[17] 0.0398117
2 *739:la_data_out_o[17] 0.000370515
3 *308:23 0.0398117
4 *308:21 0.00378286
5 *308:13 0.00635106
6 *308:11 0.00293871
7 *308:11 *310:19 0.000172035
8 *308:13 *310:19 0.000211807
9 *308:13 *322:15 0.000105749
10 *308:13 *329:13 0.00562046
11 *308:13 *329:17 0.00423801
12 *308:13 *330:13 0
13 *308:13 *366:17 0.000103711
14 *308:13 *388:17 0.000100317
15 *308:13 *399:15 0.000111633
16 *308:21 *310:19 0.00382516
17 *308:21 *322:23 0
18 *308:21 *324:19 9.2467e-06
19 *308:21 *334:35 1.33927e-05
20 *305:13 *308:13 2.19403e-05
21 *305:19 *308:21 8.87328e-05
22 *305:23 *308:21 0.0115305
23 *307:13 *308:13 0.0137272
24 *307:19 *308:21 0.000113362
25 *307:23 *308:21 1.67025e-05
*RES
1 *739:la_data_out_o[17] *308:11 24.0341 
2 *308:11 *308:13 154.031 
3 *308:13 *308:21 46.6903 
4 *308:21 *308:23 8 
5 *308:23 la_data_out[17] 880.43 
*END

*D_NET *309 0.26735
*CONN
*P la_data_out[18] O
*I *739:la_data_out_o[18] O *D ntt_wb_bridge
*CAP
1 la_data_out[18] 0.00473334
2 *739:la_data_out_o[18] 0.00277412
3 *309:25 0.0633587
4 *309:23 0.0593411
5 *309:17 0.0034899
6 la_data_out[18] la_data_out[21] 0.00407761
7 la_data_out[18] *311:45 0.00181876
8 la_data_out[18] *332:37 0.000413554
9 *309:17 *310:19 0.0116383
10 *309:17 *314:11 0.0114304
11 *309:17 *334:29 4.07138e-06
12 *309:23 *314:11 0.004078
13 *309:23 *331:31 0.00215053
14 *309:23 *332:11 0.00187319
15 *309:23 *334:29 3.07752e-05
16 *309:25 *319:27 0.0115901
17 *309:25 *320:19 0.00123022
18 *309:25 *321:21 0.00011563
19 *309:25 *321:23 0.0115901
20 *309:25 *324:19 0.00112939
21 *309:25 *329:25 0.000558692
22 *309:25 *331:37 0.00036765
23 *309:25 *334:39 0.000617541
24 *309:25 *335:29 0.00036765
25 *309:25 *366:21 0.00143957
26 *134:19 *309:25 0
27 *272:25 *309:25 0
28 *283:13 *309:17 0.000893476
29 *283:25 *309:25 0.0632721
30 *283:29 la_data_out[18] 0.00169347
31 *294:13 *309:17 0.00127189
*RES
1 *739:la_data_out_o[18] *309:17 49.8978 
2 *309:17 *309:23 23.5693 
3 *309:23 *309:25 156.692 
4 *309:25 la_data_out[18] 47.3958 
*END

*D_NET *310 0.137403
*CONN
*P la_data_out[19] O
*I *739:la_data_out_o[19] O *D ntt_wb_bridge
*CAP
1 la_data_out[19] 0.000964421
2 *739:la_data_out_o[19] 0.0104334
3 *310:23 0.039844
4 *310:21 0.0388796
5 *310:19 0.0104334
6 la_data_out[19] *311:43 0.000250601
7 *310:19 *314:11 0.00470401
8 *310:19 *314:25 3.76599e-05
9 *310:19 *322:15 0.00170552
10 *310:19 *322:23 0.001165
11 *310:19 *331:31 1.75973e-05
12 *310:19 *332:23 0.00170201
13 *310:19 *333:13 0.000278742
14 *310:19 *344:17 0.000336298
15 *310:19 *355:17 0.000132725
16 *310:19 *366:17 0.00060395
17 *310:19 *377:17 0.000485882
18 *310:19 *388:17 0.000581315
19 *310:19 *399:15 0.000637783
20 *283:11 *310:19 0.0001691
21 *283:13 *310:19 0.000332503
22 *294:11 *310:19 4.3258e-05
23 *294:13 *310:19 0.000586093
24 *303:11 *310:19 4.35727e-05
25 *303:13 *310:19 0.00141606
26 *304:11 *310:19 7.37353e-05
27 *304:13 *310:19 0.000657077
28 *304:23 *310:19 0.00151506
29 *304:31 la_data_out[19] 0.000433171
30 *305:11 *310:19 9.88397e-05
31 *305:13 *310:19 0.00068528
32 *306:11 *310:19 0.000130757
33 *306:13 *310:19 0.00183275
34 *307:11 *310:19 9.14318e-05
35 *307:13 *310:19 0.000239433
36 *307:23 *310:19 1.40946e-05
37 *308:11 *310:19 0.000172035
38 *308:13 *310:19 0.000211807
39 *308:21 *310:19 0.00382516
40 *309:17 *310:19 0.0116383
*RES
1 *739:la_data_out_o[19] *310:19 46.5621 
2 *310:19 *310:21 8 
3 *310:21 *310:23 860.782 
4 *310:23 la_data_out[19] 34.5084 
*END

*D_NET *311 0.243304
*CONN
*P la_data_out[1] O
*I *739:la_data_out_o[1] O *D ntt_wb_bridge
*CAP
1 la_data_out[1] 0.000594472
2 *739:la_data_out_o[1] 0.000553777
3 *311:45 0.0151246
4 *311:43 0.0146936
5 *311:37 0.00301156
6 *311:35 0.00298941
7 *311:25 0.0381159
8 *311:23 0.0383684
9 *311:13 0.000947619
10 *311:13 *322:15 0.000368032
11 *311:13 *329:17 0.000372096
12 *311:13 *333:25 0.000625377
13 *311:13 *337:23 0.000766948
14 *311:23 *322:21 4.89546e-05
15 *311:23 *323:21 6.3215e-05
16 *311:23 *323:23 0.000167426
17 *311:23 *333:29 0.000199243
18 *311:23 *333:31 0.000306728
19 *311:23 *335:21 1.94033e-05
20 *311:23 *377:31 0
21 *311:23 *388:25 6.85071e-05
22 *311:25 la_data_out[24] 0.00893942
23 *311:25 *327:29 0
24 *311:25 *327:31 0.00232426
25 *311:25 *328:19 0.000745065
26 *311:25 *341:49 0.0010689
27 *311:35 *330:17 0.000161637
28 *311:35 *334:43 4.82958e-05
29 *311:35 *337:61 4.51815e-05
30 *311:37 *317:23 0.000360963
31 *311:37 *326:23 0.000561999
32 la_data_out[18] *311:45 0.00181876
33 la_data_out[19] *311:43 0.000250601
34 *96:18 *311:25 0.0112227
35 *272:13 *311:13 0.00137277
36 *272:25 *311:25 0.064109
37 *272:37 *311:37 0.00444064
38 *272:45 *311:45 0
39 *283:29 *311:45 0.0156861
40 *294:25 *311:37 0.000948587
41 *306:17 *311:25 0.0116323
42 *306:17 *311:35 0.000161637
*RES
1 *739:la_data_out_o[1] *311:13 45.6506 
2 *311:13 *311:23 38.6259 
3 *311:23 *311:25 153.518 
4 *311:25 *311:35 33.5329 
5 *311:35 *311:37 89.7136 
6 *311:37 *311:43 26.4904 
7 *311:43 *311:45 59.7333 
8 *311:45 la_data_out[1] 21.4539 
*END

*D_NET *312 0.125795
*CONN
*P la_data_out[20] O
*I *739:la_data_out_o[20] O *D ntt_wb_bridge
*CAP
1 la_data_out[20] 0.0400188
2 *739:la_data_out_o[20] 0.000625392
3 *312:15 0.0400188
4 *312:13 0.00695706
5 *312:11 0.00758245
6 *312:11 *314:11 0.000102085
7 *312:13 *327:15 0.00123204
8 *312:13 *331:13 0.0127296
9 *312:13 *331:31 2.17681e-05
10 *312:13 *332:11 3.41634e-05
11 *312:13 *333:17 0.000494492
12 *312:13 *334:29 0.00447864
13 *312:13 *337:17 0.00248558
14 *312:13 *344:17 0.000563109
15 *312:13 *377:17 0.00558608
16 *312:13 *388:17 0.000739325
17 *307:23 *312:13 0.00212588
*RES
1 *739:la_data_out_o[20] *312:11 22.6454 
2 *312:11 *312:13 43.5045 
3 *312:13 *312:15 8 
4 *312:15 la_data_out[20] 883.951 
*END

*D_NET *313 0.203322
*CONN
*P la_data_out[21] O
*I *739:la_data_out_o[21] O *D ntt_wb_bridge
*CAP
1 la_data_out[21] 0.00147672
2 *739:la_data_out_o[21] 0.000443973
3 *313:27 0.00215891
4 *313:17 0.0121606
5 *313:15 0.0114784
6 *313:13 0.00514773
7 *313:11 0.0055917
8 *313:11 *314:11 0.000137043
9 *313:11 *329:13 0.000231601
10 *313:13 *314:11 0.00272399
11 *313:13 *327:15 0
12 *313:13 *330:13 0.0160148
13 *313:13 *331:21 0.000591844
14 *313:13 *333:17 0
15 *313:17 *330:17 0.067204
16 *313:17 *341:37 4.34255e-05
17 *313:17 *342:33 1.15883e-05
18 *313:27 *321:27 0.000517865
19 *313:27 *324:23 1.34995e-05
20 *313:27 *326:23 3.39275e-05
21 *313:27 *329:37 0.00060803
22 *313:27 *331:37 0
23 *313:27 *332:25 5.64222e-05
24 *313:27 *332:37 1.05441e-05
25 *313:27 *335:29 0
26 *313:27 *338:51 0.000229232
27 la_data_out[18] la_data_out[21] 0.00407761
28 *272:25 *313:17 0.00117982
29 *283:29 la_data_out[21] 0.00407063
30 *306:17 *313:17 0.0671079
*RES
1 *739:la_data_out_o[21] *313:11 27.6365 
2 *313:11 *313:13 175.471 
3 *313:13 *313:15 15 
4 *313:15 *313:17 862.191 
5 *313:17 *313:27 47.0789 
6 *313:27 la_data_out[21] 37.2379 
*END

*D_NET *314 0.214713
*CONN
*P la_data_out[22] O
*I *739:la_data_out_o[22] O *D ntt_wb_bridge
*CAP
1 la_data_out[22] 0.00159971
2 *739:la_data_out_o[22] 0.00432229
3 *314:29 0.0129148
4 *314:27 0.0113151
5 *314:25 0.00058879
6 *314:11 0.00491108
7 la_data_out[22] *336:25 0.000472862
8 la_data_out[22] *337:61 4.8769e-05
9 la_data_out[22] *344:23 0
10 *314:11 *321:21 0.0001973
11 *314:11 *324:19 0.000195788
12 *314:11 *330:13 0.00363908
13 *314:11 *331:31 8.35126e-06
14 *314:11 *332:11 3.41634e-05
15 *314:11 *334:19 0.0148191
16 *314:25 *332:23 0.000576703
17 *314:25 *337:41 0.000215417
18 *314:25 *340:31 0.000446445
19 *314:25 *351:33 0.000448903
20 *314:29 *332:25 0.000317918
21 *314:29 *340:31 2.12026e-05
22 *314:29 *344:19 0.0661954
23 *314:29 *351:35 0.0656742
24 *134:19 *314:29 0.000448535
25 *294:21 *314:29 0.000244378
26 *294:25 la_data_out[22] 0.000319223
27 *303:25 la_data_out[22] 0.00130287
28 *304:23 *314:25 0.000195006
29 *306:23 la_data_out[22] 2.63753e-05
30 *309:17 *314:11 0.0114304
31 *309:23 *314:11 0.004078
32 *310:19 *314:11 0.00470401
33 *310:19 *314:25 3.76599e-05
34 *312:11 *314:11 0.000102085
35 *313:11 *314:11 0.000137043
36 *313:13 *314:11 0.00272399
*RES
1 *739:la_data_out_o[22] *314:11 46.6976 
2 *314:11 *314:25 40.1222 
3 *314:25 *314:27 15 
4 *314:27 *314:29 854.62 
5 *314:29 la_data_out[22] 36.8954 
*END

*D_NET *315 0.131178
*CONN
*P la_data_out[23] O
*I *739:la_data_out_o[23] O *D ntt_wb_bridge
*CAP
1 la_data_out[23] 0.0328297
2 *739:la_data_out_o[23] 0.00111328
3 *315:17 0.0394543
4 *315:13 0.00773786
5 la_data_out[23] *336:19 0.0198412
6 la_data_out[23] *344:19 0
7 la_data_out[23] *351:33 0
8 *315:13 *316:17 0
9 *315:13 *334:19 5.31214e-05
10 *315:17 *336:15 0.0202556
11 *315:17 *725:23 0.00257021
12 *315:17 *726:23 0.000161626
13 *315:17 *729:15 0.002179
14 *315:17 *729:23 2.60109e-05
15 *315:17 *737:23 0.00427328
16 *315:17 *737:31 0.00023453
17 *134:19 la_data_out[23] 0.000448535
18 *294:21 la_data_out[23] 0
19 *303:21 la_data_out[23] 0
*RES
1 *739:la_data_out_o[23] *315:13 30.8691 
2 *315:13 *315:17 46.5243 
3 *315:17 la_data_out[23] 895.22 
*END

*D_NET *316 0.214392
*CONN
*P la_data_out[24] O
*I *739:la_data_out_o[24] O *D ntt_wb_bridge
*CAP
1 la_data_out[24] 0.0116509
2 *739:la_data_out_o[24] 0.000678151
3 *316:33 0.012212
4 *316:25 0.00144856
5 *316:19 0.00310856
6 *316:17 0.00289924
7 la_data_out[24] *323:23 0.000474237
8 la_data_out[24] *328:19 0.0667011
9 la_data_out[24] *342:41 0.0660627
10 *316:17 *334:19 7.18627e-05
11 *316:19 *317:15 0.0176225
12 *316:19 *328:15 0.0176199
13 *316:19 *338:17 0.00327515
14 *316:19 *366:17 0.00061595
15 *316:25 *327:29 1.11286e-05
16 *316:25 *377:23 0.000904955
17 *316:33 *323:21 3.32985e-05
18 *316:33 *323:23 2.29099e-05
19 *316:33 *328:19 6.99132e-06
20 *316:33 *342:39 6.17437e-06
21 *316:33 *377:23 0
22 *306:17 la_data_out[24] 2.64833e-05
23 *311:25 la_data_out[24] 0.00893942
24 *315:13 *316:17 0
*RES
1 *739:la_data_out_o[24] *316:17 31.2226 
2 *316:17 *316:19 192.622 
3 *316:19 *316:25 46.3436 
4 *316:25 *316:33 25.6161 
5 *316:33 la_data_out[24] 871.978 
*END

*D_NET *317 0.176942
*CONN
*P la_data_out[25] O
*I *739:la_data_out_o[25] O *D ntt_wb_bridge
*CAP
1 la_data_out[25] 0.000803117
2 *739:la_data_out_o[25] 0.000680174
3 *317:23 0.00115164
4 *317:19 0.0254762
5 *317:17 0.0251276
6 *317:15 0.00263061
7 *317:13 0.00331078
8 la_data_out[25] *329:43 9.28078e-06
9 *317:13 *334:19 0.000172471
10 *317:15 *318:15 0.019645
11 *317:15 *326:15 0.000177861
12 *317:15 *328:15 0.000877774
13 *317:15 *338:17 0.000180268
14 *317:15 *342:19 0.00255923
15 *317:15 *355:17 0.000848702
16 *317:15 *366:17 0.00010722
17 *317:19 *318:19 0.0678765
18 *317:19 *325:19 0
19 *317:19 *355:21 0.00268404
20 *317:23 *318:25 1.73995e-05
21 *317:23 *318:27 0.00214426
22 *317:23 *326:23 3.95777e-05
23 *317:23 *328:23 0.00174591
24 *317:23 *337:63 0.000330509
25 *83:23 *317:19 3.0594e-05
26 *84:23 *317:19 7.73233e-05
27 *85:19 *317:19 8.98567e-06
28 *272:35 *317:19 0.00018956
29 *272:37 *317:23 5.5792e-05
30 *311:37 *317:23 0.000360963
31 *316:19 *317:15 0.0176225
*RES
1 *739:la_data_out_o[25] *317:13 30.8667 
2 *317:13 *317:15 215.014 
3 *317:15 *317:17 15 
4 *317:17 *317:19 871.699 
5 *317:19 *317:23 38.9664 
6 *317:23 la_data_out[25] 31.4471 
*END

*D_NET *318 0.234035
*CONN
*P la_data_out[26] O
*I *739:la_data_out_o[26] O *D ntt_wb_bridge
*CAP
1 la_data_out[26] 0.00078602
2 *739:la_data_out_o[26] 0.00087077
3 *318:27 0.00133449
4 *318:25 0.00060099
5 *318:19 0.0118759
6 *318:17 0.0118234
7 *318:15 0.00272266
8 *318:13 0.00359343
9 *318:13 *334:19 0.00021026
10 *318:15 *319:15 0.0201712
11 *318:15 *320:15 8.56254e-05
12 *318:15 *326:15 8.06804e-06
13 *318:15 *328:15 0.000255896
14 *318:15 *338:17 0.000156142
15 *318:15 *342:19 0.00309486
16 *318:15 *355:17 0.00111174
17 *318:19 *320:19 0.0678764
18 *318:25 *319:31 8.24384e-05
19 *318:27 *319:31 7.57808e-05
20 *318:27 *328:23 1.57659e-05
21 *318:27 *329:45 0.00170662
22 *318:27 *330:23 0.00365756
23 *318:27 *338:53 0.000644222
24 *272:35 *318:19 9.2467e-06
25 *272:37 *318:25 0.000100486
26 *283:25 *318:19 0.011482
27 *317:15 *318:15 0.019645
28 *317:19 *318:19 0.0678765
29 *317:23 *318:25 1.73995e-05
30 *317:23 *318:27 0.00214426
*RES
1 *739:la_data_out_o[26] *318:13 30.6228 
2 *318:13 *318:15 222.637 
3 *318:15 *318:17 15 
4 *318:17 *318:19 872.051 
5 *318:19 *318:25 17.0714 
6 *318:25 *318:27 41.5943 
7 *318:27 la_data_out[26] 31.095 
*END

*D_NET *319 0.235376
*CONN
*P la_data_out[27] O
*I *739:la_data_out_o[27] O *D ntt_wb_bridge
*CAP
1 la_data_out[27] 0.000692625
2 *739:la_data_out_o[27] 0.000666495
3 *319:31 0.00173583
4 *319:29 0.00104321
5 *319:27 0.0112978
6 *319:25 0.0115191
7 *319:19 0.000959688
8 *319:15 0.0034928
9 *319:13 0.00342094
10 *319:13 *334:19 0.000291821
11 *319:15 *320:15 0.0208255
12 *319:15 *328:15 0.000181874
13 *319:15 *337:17 0.00330377
14 *319:15 *355:17 0.000722878
15 *319:19 *325:19 0.000858517
16 *319:19 *342:33 2.6179e-05
17 *319:19 *355:21 0.000904411
18 *319:27 *320:19 0.066104
19 *319:27 *321:23 0.0658407
20 *319:27 *324:19 2.0835e-05
21 *319:27 *331:37 0
22 *319:31 *320:23 0.00575528
23 *319:31 *330:23 0.0020722
24 *319:31 *330:25 0.000584181
25 *319:31 *331:45 0.0011102
26 *272:37 *319:31 2.56967e-05
27 *309:25 *319:27 0.0115901
28 *318:15 *319:15 0.0201712
29 *318:25 *319:31 8.24384e-05
30 *318:27 *319:31 7.57808e-05
*RES
1 *739:la_data_out_o[27] *319:13 30.379 
2 *319:13 *319:15 227.878 
3 *319:15 *319:19 39.795 
4 *319:19 *319:25 33.0036 
5 *319:25 *319:27 847.753 
6 *319:27 *319:29 15 
7 *319:29 *319:31 62.0807 
8 *319:31 la_data_out[27] 30.0386 
*END

*D_NET *320 0.230632
*CONN
*P la_data_out[28] O
*I *739:la_data_out_o[28] O *D ntt_wb_bridge
*CAP
1 la_data_out[28] 0.000661955
2 *739:la_data_out_o[28] 0.000659655
3 *320:23 0.00311899
4 *320:21 0.00245703
5 *320:19 0.0118509
6 *320:17 0.0118509
7 *320:15 0.00303739
8 *320:13 0.00369704
9 *320:13 *334:19 0.000351495
10 *320:15 *321:15 0.000310851
11 *320:15 *323:15 0.021089
12 *320:15 *328:15 7.49984e-05
13 *320:15 *337:17 0.00395444
14 *320:15 *355:17 0.000626135
15 *320:19 *321:21 0.00175459
16 *320:19 *321:23 9.98218e-06
17 *320:23 *330:25 0.000424225
18 *320:23 *331:45 0.000654529
19 *320:23 *332:39 0.00196058
20 *306:23 *320:23 0.000210338
21 *309:25 *320:19 0.00123022
22 *318:15 *320:15 8.56254e-05
23 *318:19 *320:19 0.0678764
24 *319:15 *320:15 0.0208255
25 *319:27 *320:19 0.066104
26 *319:31 *320:23 0.00575528
*RES
1 *739:la_data_out_o[28] *320:13 30.1351 
2 *320:13 *320:15 237.406 
3 *320:15 *320:17 15 
4 *320:17 *320:19 872.403 
5 *320:19 *320:21 15 
6 *320:21 *320:23 80.185 
7 *320:23 la_data_out[28] 29.6864 
*END

*D_NET *321 0.245282
*CONN
*P la_data_out[29] O
*I *739:la_data_out_o[29] O *D ntt_wb_bridge
*CAP
1 la_data_out[29] 0.000987716
2 *739:la_data_out_o[29] 0.000649707
3 *321:27 0.00365878
4 *321:25 0.00267107
5 *321:23 0.0110929
6 *321:21 0.0116855
7 *321:15 0.00368514
8 *321:13 0.00374228
9 *321:13 *334:19 0.000407952
10 *321:15 *323:15 0.0217449
11 *321:15 *324:15 0.000171251
12 *321:15 *325:15 0.0220362
13 *321:15 *337:17 0.00341388
14 *321:15 *344:17 0.000859598
15 *321:21 *324:19 0.000751445
16 *321:23 *324:19 0.065873
17 *321:27 *323:27 0.00847829
18 *321:27 *324:23 0.00039807
19 *321:27 *329:37 0.00103276
20 *321:27 *334:43 0.00160495
21 *309:25 *321:21 0.00011563
22 *309:25 *321:23 0.0115901
23 *313:27 *321:27 0.000517865
24 *314:11 *321:21 0.0001973
25 *319:27 *321:23 0.0658407
26 *320:15 *321:15 0.000310851
27 *320:19 *321:21 0.00175459
28 *320:19 *321:23 9.98218e-06
*RES
1 *739:la_data_out_o[29] *321:13 29.5391 
2 *321:13 *321:15 245.029 
3 *321:15 *321:21 38.9768 
4 *321:21 *321:23 844.263 
5 *321:23 *321:25 15 
6 *321:25 *321:27 99.2421 
7 *321:27 la_data_out[29] 33.9121 
*END

*D_NET *322 0.150616
*CONN
*P la_data_out[2] O
*I *739:la_data_out_o[2] O *D ntt_wb_bridge
*CAP
1 la_data_out[2] 0.039475
2 *739:la_data_out_o[2] 0.00140975
3 *322:25 0.039475
4 *322:23 0.0160314
5 *322:21 0.0160525
6 *322:15 0.00143084
7 *322:15 *332:23 5.69011e-05
8 *322:15 *333:25 0.000631689
9 *322:15 *337:23 5.5792e-05
10 *322:15 *337:41 0.000128985
11 *322:21 *333:29 4.67137e-05
12 *322:23 *333:31 0
13 *322:23 *337:41 0.00213946
14 *322:23 *388:27 0.0277015
15 *272:13 *322:15 4.53623e-05
16 *303:13 *322:15 0.000309871
17 *304:13 *322:15 0.000339654
18 *304:23 *322:23 0.00103821
19 *305:13 *322:15 0.000294198
20 *305:23 *322:23 0
21 *306:13 *322:15 0.000339654
22 *307:13 *322:15 0.000220118
23 *308:13 *322:15 0.000105749
24 *308:21 *322:23 0
25 *310:19 *322:15 0.00170552
26 *310:19 *322:23 0.001165
27 *311:13 *322:15 0.000368032
28 *311:23 *322:21 4.89546e-05
*RES
1 *739:la_data_out_o[2] *322:15 43.4484 
2 *322:15 *322:21 23.6732 
3 *322:21 *322:23 73.2144 
4 *322:23 *322:25 8 
5 *322:25 la_data_out[2] 876.204 
*END

*D_NET *323 0.209194
*CONN
*P la_data_out[30] O
*I *739:la_data_out_o[30] O *D ntt_wb_bridge
*CAP
1 la_data_out[30] 0.000961064
2 *739:la_data_out_o[30] 0.000674254
3 *323:27 0.00259178
4 *323:25 0.00163072
5 *323:23 0.0173847
6 *323:21 0.0179977
7 *323:15 0.00379587
8 *323:13 0.0038572
9 *323:13 *334:19 0.000470845
10 *323:15 *325:15 0.000366854
11 *323:15 *328:15 0
12 *323:15 *337:17 0.00394135
13 *323:15 *342:19 0.000109884
14 *323:15 *344:17 0.000744557
15 *323:21 *328:19 0.00101206
16 *323:21 *335:21 0
17 *323:21 *388:25 0.000214083
18 *323:23 *327:39 0.0145485
19 *323:23 *328:19 9.27279e-06
20 *323:23 *335:21 0
21 *323:23 *337:61 1.65299e-05
22 *323:23 *341:45 0.000835696
23 *323:23 *342:41 0.0660603
24 *323:27 *324:23 0.0102197
25 *323:27 *334:43 0.00223352
26 la_data_out[24] *323:23 0.000474237
27 *86:19 *323:23 8.48957e-05
28 *87:19 *323:23 9.85586e-06
29 *95:27 *323:23 2.26406e-05
30 *272:25 *323:23 0.00732736
31 *311:23 *323:21 6.3215e-05
32 *311:23 *323:23 0.000167426
33 *316:33 *323:21 3.32985e-05
34 *316:33 *323:23 2.29099e-05
35 *320:15 *323:15 0.021089
36 *321:15 *323:15 0.0217449
37 *321:27 *323:27 0.00847829
*RES
1 *739:la_data_out_o[30] *323:13 29.9995 
2 *323:13 *323:15 245.029 
3 *323:15 *323:21 30.1525 
4 *323:21 *323:23 854.268 
5 *323:23 *323:25 15 
6 *323:25 *323:27 109.247 
7 *323:27 la_data_out[30] 33.56 
*END

*D_NET *324 0.248969
*CONN
*P la_data_out[31] O
*I *739:la_data_out_o[31] O *D ntt_wb_bridge
*CAP
1 la_data_out[31] 0.000930394
2 *739:la_data_out_o[31] 0.000755873
3 *324:23 0.00309744
4 *324:21 0.00216705
5 *324:19 0.0117251
6 *324:17 0.0117251
7 *324:15 0.00365871
8 *324:13 0.00441459
9 *324:13 *325:13 0
10 *324:13 *334:19 0.000266161
11 *324:15 *325:15 0.0235493
12 *324:15 *326:15 0
13 *324:15 *327:15 0.022478
14 *324:15 *337:13 0.000252738
15 *324:15 *337:17 0.00172106
16 *324:15 *388:17 0.00152582
17 *324:19 *329:23 0.00113926
18 *324:19 *329:25 0.000212728
19 *324:19 *331:37 4.26047e-06
20 *324:19 *334:39 0.0655188
21 *324:19 *338:35 0
22 *324:23 *325:23 0.0123392
23 *324:23 *326:23 0.000226183
24 *324:23 *335:33 0.00226426
25 *307:19 *324:19 0.000214932
26 *308:21 *324:19 9.2467e-06
27 *309:25 *324:19 0.00112939
28 *313:27 *324:23 1.34995e-05
29 *314:11 *324:19 0.000195788
30 *319:27 *324:19 2.0835e-05
31 *321:15 *324:15 0.000171251
32 *321:21 *324:19 0.000751445
33 *321:23 *324:19 0.065873
34 *321:27 *324:23 0.00039807
35 *323:27 *324:23 0.0102197
*RES
1 *739:la_data_out_o[31] *324:13 28.622 
2 *324:13 *324:15 262.657 
3 *324:15 *324:17 15 
4 *324:17 *324:19 867.473 
5 *324:19 *324:21 15 
6 *324:21 *324:23 136.88 
7 *324:23 la_data_out[31] 33.2079 
*END

*D_NET *325 0.186646
*CONN
*P la_data_out[32] O
*I *739:la_data_out_o[32] O *D ntt_wb_bridge
*CAP
1 la_data_out[32] 0.000899725
2 *739:la_data_out_o[32] 0.000621142
3 *325:23 0.00307414
4 *325:21 0.00217442
5 *325:19 0.0276086
6 *325:17 0.0276086
7 *325:15 0.00349768
8 *325:13 0.00411882
9 *325:13 *330:13 0.000107542
10 *325:13 *334:19 0.000590195
11 *325:15 *327:15 0.000242639
12 *325:15 *328:15 0
13 *325:15 *337:13 0.000196487
14 *325:15 *337:17 0.00247797
15 *325:15 *388:17 0.00123035
16 *325:19 *330:17 0.0343288
17 *325:19 *342:33 0.00107185
18 *325:19 *355:21 0
19 *325:23 *326:23 0.0140359
20 *325:23 *335:33 0.00298468
21 *83:23 *325:19 1.223e-05
22 *85:19 *325:19 5.96035e-05
23 *283:25 *325:19 0.000554695
24 *317:19 *325:19 0
25 *319:19 *325:19 0.000858517
26 *321:15 *325:15 0.0220362
27 *323:15 *325:15 0.000366854
28 *324:13 *325:13 0
29 *324:15 *325:15 0.0235493
30 *324:23 *325:23 0.0123392
*RES
1 *739:la_data_out_o[32] *325:13 29.5117 
2 *325:13 *325:15 262.657 
3 *325:15 *325:17 15 
4 *325:17 *325:19 868.177 
5 *325:19 *325:21 15 
6 *325:21 *325:23 150.22 
7 *325:23 la_data_out[32] 32.8557 
*END

*D_NET *326 0.25233
*CONN
*P la_data_out[33] O
*I *739:la_data_out_o[33] O *D ntt_wb_bridge
*CAP
1 la_data_out[33] 0.000869055
2 *739:la_data_out_o[33] 0.000944556
3 *326:23 0.00365898
4 *326:21 0.00278993
5 *326:19 0.0116092
6 *326:17 0.0116092
7 *326:15 0.00753334
8 *326:13 0.0084779
9 *326:13 *330:13 0.000120607
10 *326:13 *334:19 0.000645496
11 *326:15 *328:15 0.0244242
12 *326:15 *340:19 0.00432686
13 *326:15 *345:27 0
14 *326:15 *346:19 0.00499253
15 *326:15 *351:23 0
16 *326:15 *399:15 0.00110761
17 *326:15 *726:15 0
18 *326:19 *332:25 0.0672117
19 *326:19 *338:35 0.000706059
20 *326:19 *338:37 0.064812
21 *326:19 *338:51 0.00195285
22 *326:19 *340:31 0.000375942
23 *326:23 *327:43 0.0152628
24 *326:23 *328:23 0.000137559
25 *326:23 *336:27 0.0029149
26 *120:19 *326:19 0.000244465
27 *134:19 *326:19 0.00036765
28 *304:23 *326:19 0.000151383
29 *311:37 *326:23 0.000561999
30 *313:27 *326:23 3.39275e-05
31 *317:15 *326:15 0.000177861
32 *317:23 *326:23 3.95777e-05
33 *318:15 *326:15 8.06804e-06
34 *324:15 *326:15 0
35 *324:23 *326:23 0.000226183
36 *325:23 *326:23 0.0140359
*RES
1 *739:la_data_out_o[33] *326:13 32.7893 
2 *326:13 *326:15 279.809 
3 *326:15 *326:17 15 
4 *326:17 *326:19 871.699 
5 *326:19 *326:21 15 
6 *326:21 *326:23 178.806 
7 *326:23 la_data_out[33] 32.5036 
*END

*D_NET *327 0.181352
*CONN
*P la_data_out[34] O
*I *739:la_data_out_o[34] O *D ntt_wb_bridge
*CAP
1 la_data_out[34] 0.000838385
2 *739:la_data_out_o[34] 0.000740146
3 *327:43 0.00330173
4 *327:41 0.00246334
5 *327:39 0.0175454
6 *327:37 0.017603
7 *327:31 0.0139663
8 *327:29 0.0172713
9 *327:15 0.0112261
10 *327:13 0.00860365
11 *327:13 *330:13 0.000133671
12 *327:13 *334:19 0.000674936
13 *327:15 *328:15 0
14 *327:15 *331:13 0.000495602
15 *327:15 *333:17 0.00147803
16 *327:15 *337:13 0.00105828
17 *327:15 *377:17 0.00097878
18 *327:15 *388:17 0.000141945
19 *327:29 *333:25 0.000515908
20 *327:29 *337:41 0.000456015
21 *327:29 *377:23 1.1531e-05
22 *327:39 *337:61 0.000135901
23 *327:43 *328:23 0.0169596
24 *327:43 *336:27 0.00373585
25 *86:19 *327:39 0.000178831
26 *87:19 *327:39 2.05503e-05
27 *95:27 *327:39 7.57281e-06
28 *96:18 *327:39 0.00471071
29 *272:25 *327:29 0
30 *311:25 *327:29 0
31 *311:25 *327:31 0.00232426
32 *312:13 *327:15 0.00123204
33 *313:13 *327:15 0
34 *316:25 *327:29 1.11286e-05
35 *323:23 *327:39 0.0145485
36 *324:15 *327:15 0.022478
37 *325:15 *327:15 0.000242639
38 *326:23 *327:43 0.0152628
*RES
1 *739:la_data_out_o[34] *327:13 29.024 
2 *327:13 *327:15 265.039 
3 *327:15 *327:29 48.4009 
4 *327:29 *327:31 50.4112 
5 *327:31 *327:37 16.0989 
6 *327:37 *327:39 538.043 
7 *327:39 *327:41 15 
8 *327:41 *327:43 181.188 
9 *327:43 la_data_out[34] 32.1514 
*END

*D_NET *328 0.266831
*CONN
*P la_data_out[35] O
*I *739:la_data_out_o[35] O *D ntt_wb_bridge
*CAP
1 la_data_out[35] 0.000807715
2 *739:la_data_out_o[35] 0.000602786
3 *328:23 0.00357882
4 *328:21 0.0027711
5 *328:19 0.0119698
6 *328:17 0.0119698
7 *328:15 0.00470227
8 *328:13 0.00530505
9 *328:13 *334:19 5.92946e-05
10 *328:15 *338:17 0.00463567
11 *328:15 *346:19 0.00110884
12 *328:15 *366:17 0.000861362
13 *328:19 *335:21 0
14 *328:19 *341:37 0.00135442
15 *328:19 *341:49 0.0646367
16 *328:23 *329:45 0.0171805
17 *328:23 *337:63 0.00357119
18 la_data_out[24] *328:19 0.0667011
19 *306:17 *328:19 0.000947454
20 *311:25 *328:19 0.000745065
21 *316:19 *328:15 0.0176199
22 *316:33 *328:19 6.99132e-06
23 *317:15 *328:15 0.000877774
24 *317:23 *328:23 0.00174591
25 *318:15 *328:15 0.000255896
26 *318:27 *328:23 1.57659e-05
27 *319:15 *328:15 0.000181874
28 *320:15 *328:15 7.49984e-05
29 *323:15 *328:15 0
30 *323:21 *328:19 0.00101206
31 *323:23 *328:19 9.27279e-06
32 *325:15 *328:15 0
33 *326:15 *328:15 0.0244242
34 *326:23 *328:23 0.000137559
35 *327:15 *328:15 0
36 *327:43 *328:23 0.0169596
*RES
1 *739:la_data_out_o[35] *328:13 31.3657 
2 *328:13 *328:15 288.384 
3 *328:15 *328:17 15 
4 *328:17 *328:19 872.051 
5 *328:19 *328:21 15 
6 *328:21 *328:23 202.627 
7 *328:23 la_data_out[35] 31.7993 
*END

*D_NET *329 0.243175
*CONN
*P la_data_out[36] O
*I *739:la_data_out_o[36] O *D ntt_wb_bridge
*CAP
1 la_data_out[36] 0.000777045
2 *739:la_data_out_o[36] 0.000128428
3 *329:45 0.00350084
4 *329:43 0.00298451
5 *329:37 0.00144199
6 *329:25 0.0123208
7 *329:23 0.0116224
8 *329:17 0.0016054
9 *329:13 0.0111391
10 *329:11 0.010145
11 *329:13 *330:13 0
12 *329:13 *337:23 4.20482e-05
13 *329:17 *337:23 0.000471174
14 *329:23 *334:35 0
15 *329:23 *366:21 0.00010083
16 *329:25 *331:37 0.0653636
17 *329:25 *334:35 0.000141694
18 *329:25 *334:39 0.0654282
19 *329:25 *366:21 0.00011563
20 *329:37 *334:43 0.000223591
21 *329:45 *330:23 2.82718e-05
22 *329:45 *330:25 0.0171126
23 *329:45 *337:63 0.0041565
24 la_data_out[25] *329:43 9.28078e-06
25 *272:13 *329:17 0.00141495
26 *308:13 *329:13 0.00562046
27 *308:13 *329:17 0.00423801
28 *309:25 *329:25 0.000558692
29 *311:13 *329:17 0.000372096
30 *313:11 *329:13 0.000231601
31 *313:27 *329:37 0.00060803
32 *318:27 *329:45 0.00170662
33 *321:27 *329:37 0.00103276
34 *324:19 *329:23 0.00113926
35 *324:19 *329:25 0.000212728
36 *328:23 *329:45 0.0171805
*RES
1 *739:la_data_out_o[36] *329:11 23.5152 
2 *329:11 *329:13 257.655 
3 *329:13 *329:17 46.6175 
4 *329:17 *329:23 30.3804 
5 *329:23 *329:25 844.055 
6 *329:25 *329:37 44.7664 
7 *329:37 *329:43 33.3143 
8 *329:43 *329:45 201.674 
9 *329:45 la_data_out[36] 31.4471 
*END

*D_NET *330 0.237476
*CONN
*P la_data_out[37] O
*I *739:la_data_out_o[37] O *D ntt_wb_bridge
*CAP
1 la_data_out[37] 0.000746376
2 *739:la_data_out_o[37] 0.000221843
3 *330:25 0.00643038
4 *330:23 0.00635142
5 *330:19 0.000667417
6 *330:17 0.014039
7 *330:15 0.014039
8 *330:13 0.00924325
9 *330:11 0.00946509
10 *330:11 *334:19 2.2236e-05
11 *330:13 *334:19 0.000848212
12 *330:17 *342:33 0.000729377
13 *330:23 *338:53 0.000747244
14 *330:25 *338:53 0.00652807
15 *272:25 *330:17 0.0118751
16 *283:13 *330:13 0.00850366
17 *294:13 *330:13 0.000614394
18 *303:13 *330:13 0.000211841
19 *306:13 *330:13 0.000568366
20 *306:17 *330:17 3.48965e-05
21 *307:13 *330:13 0
22 *308:13 *330:13 0
23 *311:35 *330:17 0.000161637
24 *313:13 *330:13 0.0160148
25 *313:17 *330:17 0.067204
26 *314:11 *330:13 0.00363908
27 *318:27 *330:23 0.00365756
28 *319:31 *330:23 0.0020722
29 *319:31 *330:25 0.000584181
30 *320:23 *330:25 0.000424225
31 *325:13 *330:13 0.000107542
32 *325:19 *330:17 0.0343288
33 *326:13 *330:13 0.000120607
34 *327:13 *330:13 0.000133671
35 *329:13 *330:13 0
36 *329:45 *330:23 2.82718e-05
37 *329:45 *330:25 0.0171126
*RES
1 *739:la_data_out_o[37] *330:11 26.4406 
2 *330:11 *330:13 304.583 
3 *330:13 *330:15 15 
4 *330:15 *330:17 865.712 
5 *330:17 *330:19 15 
6 *330:19 *330:23 40.4239 
7 *330:23 *330:25 201.436 
8 *330:25 la_data_out[37] 31.095 
*END

*D_NET *331 0.287523
*CONN
*P la_data_out[38] O
*I *739:la_data_out_o[38] O *D ntt_wb_bridge
*CAP
1 la_data_out[38] 0.00067539
2 *739:la_data_out_o[38] 0.000354471
3 *331:45 0.00539178
4 *331:43 0.00509093
5 *331:37 0.01161
6 *331:35 0.0118871
7 *331:31 0.00128594
8 *331:21 0.00119085
9 *331:13 0.00670498
10 *331:11 0.00650294
11 *331:13 *332:11 0.0265782
12 *331:13 *334:17 0.000213237
13 *331:13 *337:13 0.00360641
14 *331:13 *337:17 0.00126746
15 *331:21 *332:11 0.000354173
16 *331:21 *333:13 4.36401e-06
17 *331:21 *333:17 0.000590253
18 *331:21 *334:29 8.22421e-06
19 *331:31 *332:23 1.05441e-05
20 *331:31 *334:29 0.00244772
21 *331:35 *334:35 0.0018767
22 *331:35 *338:35 0
23 *331:37 *334:39 4.10826e-05
24 *331:37 *335:29 0.0653452
25 *331:37 *366:21 0.00011563
26 *331:43 *332:37 1.11808e-05
27 *331:43 *338:51 0.000872673
28 *331:45 *332:37 0.000787553
29 *331:45 *332:39 0.0228547
30 *331:45 *338:51 2.78792e-05
31 *331:45 *338:53 0.0243576
32 *283:21 *331:35 0.000907911
33 *283:21 *331:37 0
34 *306:23 *331:43 0.00078677
35 *307:23 *331:31 0.000247425
36 *309:23 *331:31 0.00215053
37 *309:25 *331:37 0.00036765
38 *310:19 *331:31 1.75973e-05
39 *312:13 *331:13 0.0127296
40 *312:13 *331:31 2.17681e-05
41 *313:13 *331:21 0.000591844
42 *313:27 *331:37 0
43 *314:11 *331:31 8.35126e-06
44 *319:27 *331:37 0
45 *319:31 *331:45 0.0011102
46 *320:23 *331:45 0.000654529
47 *324:19 *331:37 4.26047e-06
48 *327:15 *331:13 0.000495602
49 *329:25 *331:37 0.0653636
*RES
1 *739:la_data_out_o[38] *331:11 21.4857 
2 *331:11 *331:13 49.2576 
3 *331:13 *331:21 44.9054 
4 *331:21 *331:31 36.366 
5 *331:31 *331:35 27.0736 
6 *331:35 *331:37 841.766 
7 *331:37 *331:43 9.82747 
8 *331:43 *331:45 46.4669 
9 *331:45 la_data_out[38] 22.8625 
*END

*D_NET *332 0.283449
*CONN
*P la_data_out[39] O
*I *739:la_data_out_o[39] O *D ntt_wb_bridge
*CAP
1 la_data_out[39] 0.00063318
2 *739:la_data_out_o[39] 0.000235091
3 *332:39 0.00982675
4 *332:37 0.0102902
5 *332:25 0.0127507
6 *332:23 0.0134342
7 *332:11 0.00727927
8 *332:9 0.00573424
9 *332:9 *334:17 2.14704e-05
10 *332:11 *334:17 0.0004616
11 *332:11 *334:19 0.0264801
12 *332:11 *334:29 0.00196785
13 *332:23 *337:41 0.00062046
14 *332:25 *338:51 3.94403e-05
15 *332:25 *340:31 0.0662831
16 *332:39 *338:53 0.000859796
17 la_data_out[18] *332:37 0.000413554
18 *134:19 *332:25 0.00036765
19 *272:23 *332:23 0.000150704
20 *283:29 *332:37 0.00050289
21 *294:21 *332:25 0
22 *305:13 *332:23 0.000210294
23 *306:23 *332:37 0.000237428
24 *307:13 *332:23 0.00021859
25 *309:23 *332:11 0.00187319
26 *310:19 *332:23 0.00170201
27 *312:13 *332:11 3.41634e-05
28 *313:27 *332:25 5.64222e-05
29 *313:27 *332:37 1.05441e-05
30 *314:11 *332:11 3.41634e-05
31 *314:25 *332:23 0.000576703
32 *314:29 *332:25 0.000317918
33 *320:23 *332:39 0.00196058
34 *322:15 *332:23 5.69011e-05
35 *326:19 *332:25 0.0672117
36 *331:13 *332:11 0.0265782
37 *331:21 *332:11 0.000354173
38 *331:31 *332:23 1.05441e-05
39 *331:43 *332:37 1.11808e-05
40 *331:45 *332:37 0.000787553
41 *331:45 *332:39 0.0228547
*RES
1 *739:la_data_out_o[39] *332:9 1.00613 
2 *332:9 *332:11 54.6243 
3 *332:11 *332:23 33.5817 
4 *332:23 *332:25 866.416 
5 *332:25 *332:37 16.6977 
6 *332:37 *332:39 46.8104 
7 *332:39 la_data_out[39] 22.1582 
*END

*D_NET *333 0.131985
*CONN
*P la_data_out[3] O
*I *739:la_data_out_o[3] O *D ntt_wb_bridge
*CAP
1 la_data_out[3] 0.0392694
2 *739:la_data_out_o[3] 0.000585609
3 *333:33 0.0392694
4 *333:31 0.0216101
5 *333:29 0.0217399
6 *333:25 0.000545271
7 *333:17 0.00113782
8 *333:13 0.00130794
9 *333:13 *337:23 0.00037997
10 *333:25 *377:23 0.000515077
11 *333:29 *335:21 0.000453012
12 *333:31 *337:41 0
13 *333:31 *388:27 0
14 *126:31 *333:31 0
15 *310:19 *333:13 0.000278742
16 *311:13 *333:25 0.000625377
17 *311:23 *333:29 0.000199243
18 *311:23 *333:31 0.000306728
19 *312:13 *333:17 0.000494492
20 *313:13 *333:17 0
21 *322:15 *333:25 0.000631689
22 *322:21 *333:29 4.67137e-05
23 *322:23 *333:31 0
24 *327:15 *333:17 0.00147803
25 *327:29 *333:25 0.000515908
26 *331:21 *333:13 4.36401e-06
27 *331:21 *333:17 0.000590253
*RES
1 *739:la_data_out_o[3] *333:13 29.2715 
2 *333:13 *333:17 43.7307 
3 *333:17 *333:25 44.355 
4 *333:25 *333:29 13.9554 
5 *333:29 *333:31 70.0373 
6 *333:31 *333:33 8 
7 *333:33 la_data_out[3] 871.274 
*END

*D_NET *334 0.288263
*CONN
*P la_data_out[40] O
*I *739:la_data_out_o[40] O *D ntt_wb_bridge
*CAP
1 la_data_out[40] 0.000850722
2 *739:la_data_out_o[40] 0.000948617
3 *334:43 0.011206
4 *334:41 0.0103553
5 *334:39 0.0110598
6 *334:37 0.0110598
7 *334:35 0.000918491
8 *334:29 0.00181174
9 *334:19 0.00732785
10 *334:17 0.00738322
11 *334:17 *337:13 0.00188158
12 *334:35 *338:35 0
13 *334:39 *366:21 0.000108097
14 *334:43 *335:33 0.0286501
15 *334:43 *337:61 0.000557546
16 *94:17 *334:43 0
17 *272:35 *334:43 0.000272155
18 *305:19 *334:35 5.52597e-05
19 *308:21 *334:35 1.33927e-05
20 *309:17 *334:29 4.07138e-06
21 *309:23 *334:29 3.07752e-05
22 *309:25 *334:39 0.000617541
23 *311:35 *334:43 4.82958e-05
24 *312:13 *334:29 0.00447864
25 *314:11 *334:19 0.0148191
26 *315:13 *334:19 5.31214e-05
27 *316:17 *334:19 7.18627e-05
28 *317:13 *334:19 0.000172471
29 *318:13 *334:19 0.00021026
30 *319:13 *334:19 0.000291821
31 *320:13 *334:19 0.000351495
32 *321:13 *334:19 0.000407952
33 *321:27 *334:43 0.00160495
34 *323:13 *334:19 0.000470845
35 *323:27 *334:43 0.00223352
36 *324:13 *334:19 0.000266161
37 *324:19 *334:39 0.0655188
38 *325:13 *334:19 0.000590195
39 *326:13 *334:19 0.000645496
40 *327:13 *334:19 0.000674936
41 *328:13 *334:19 5.92946e-05
42 *329:23 *334:35 0
43 *329:25 *334:35 0.000141694
44 *329:25 *334:39 0.0654282
45 *329:37 *334:43 0.000223591
46 *330:11 *334:19 2.2236e-05
47 *330:13 *334:19 0.000848212
48 *331:13 *334:17 0.000213237
49 *331:21 *334:29 8.22421e-06
50 *331:31 *334:29 0.00244772
51 *331:35 *334:35 0.0018767
52 *331:37 *334:39 4.10826e-05
53 *332:9 *334:17 2.14704e-05
54 *332:11 *334:17 0.0004616
55 *332:11 *334:19 0.0264801
56 *332:11 *334:29 0.00196785
*RES
1 *739:la_data_out_o[40] *334:17 22.988 
2 *334:17 *334:19 49.0859 
3 *334:19 *334:29 33.8528 
4 *334:29 *334:35 42.3739 
5 *334:35 *334:37 15 
6 *334:37 *334:39 839.83 
7 *334:39 *334:41 8 
8 *334:41 *334:43 54.4955 
9 *334:43 la_data_out[40] 26.3839 
*END

*D_NET *335 0.275087
*CONN
*P la_data_out[41] O
*I *739:la_data_out_o[41] O *D ntt_wb_bridge
*CAP
1 la_data_out[41] 0.000808511
2 *739:la_data_out_o[41] 0.00143536
3 *335:33 0.00701278
4 *335:31 0.00620427
5 *335:29 0.0244663
6 *335:27 0.0254191
7 *335:21 0.0031634
8 *335:17 0.0022106
9 *335:15 0.0104269
10 *335:13 0.0118623
11 *335:13 *337:13 0.00038583
12 *335:15 *740:mem_we 7.59073e-05
13 *335:15 *343:23 0.00748759
14 *335:15 *348:43 0.0039892
15 *335:15 *349:31 0.00227492
16 *335:15 *350:27 0.00500793
17 *335:15 *725:23 0.0310515
18 *335:15 *728:23 0
19 *335:21 *341:37 0
20 *335:21 *341:45 0.000104853
21 *335:21 *377:29 0.00027278
22 *335:21 *388:25 0.000217497
23 *335:27 *355:23 8.03368e-05
24 *335:29 *338:37 0
25 *335:29 *338:51 0
26 *335:29 *366:21 0.00010083
27 *335:33 *336:27 0.0305527
28 *335:33 *337:61 6.39642e-05
29 *283:21 *335:27 0.00032736
30 *309:25 *335:29 0.00036765
31 *311:23 *335:21 1.94033e-05
32 *313:27 *335:29 0
33 *323:21 *335:21 0
34 *323:23 *335:21 0
35 *324:23 *335:33 0.00226426
36 *325:23 *335:33 0.00298468
37 *328:19 *335:21 0
38 *331:37 *335:29 0.0653452
39 *333:29 *335:21 0.000453012
40 *334:43 *335:33 0.0286501
*RES
1 *739:la_data_out_o[41] *335:13 33.4462 
2 *335:13 *335:15 59.1323 
3 *335:15 *335:17 8 
4 *335:17 *335:21 45.1364 
5 *335:21 *335:27 18.2885 
6 *335:27 *335:29 837.541 
7 *335:29 *335:31 8 
8 *335:31 *335:33 58.1019 
9 *335:33 la_data_out[41] 25.6796 
*END

*D_NET *336 0.273317
*CONN
*P la_data_out[42] O
*I *739:la_data_out_o[42] O *D ntt_wb_bridge
*CAP
1 la_data_out[42] 0.000766301
2 *739:la_data_out_o[42] 0.00102921
3 *336:27 0.00743568
4 *336:25 0.00692814
5 *336:19 0.0193651
6 *336:17 0.0191063
7 *336:15 0.0120253
8 *336:13 0.0130545
9 *336:13 *337:13 0.000549929
10 *336:15 *339:15 0.00474604
11 *336:15 *339:25 0.000927301
12 *336:15 *341:31 0.00633123
13 *336:15 *345:35 0.000214456
14 *336:15 *346:27 0.00203274
15 *336:15 *725:23 0
16 *336:15 *729:15 0.00132811
17 *336:15 *737:31 3.47247e-05
18 *336:19 *337:43 0
19 *336:19 *339:27 3.30926e-05
20 *336:19 *350:31 0.0666751
21 *336:25 *337:61 0.000280835
22 *336:27 *337:61 9.81891e-05
23 *336:27 *337:63 0.03123
24 *336:27 *338:51 0.001237
25 *336:27 *338:53 6.43955e-05
26 la_data_out[22] *336:25 0.000472862
27 la_data_out[23] *336:19 0.0198412
28 *306:23 *336:25 1.89717e-05
29 *306:23 *336:27 3.09609e-05
30 *315:17 *336:15 0.0202556
31 *326:23 *336:27 0.0029149
32 *327:43 *336:27 0.00373585
33 *335:33 *336:27 0.0305527
*RES
1 *739:la_data_out_o[42] *336:13 28.6245 
2 *336:13 *336:15 64.5419 
3 *336:15 *336:17 8 
4 *336:17 *336:19 876.981 
5 *336:19 *336:25 9.31227 
6 *336:25 *336:27 62.1805 
7 *336:27 la_data_out[42] 24.9754 
*END

*D_NET *337 0.299697
*CONN
*P la_data_out[43] O
*I *739:la_data_out_o[43] O *D ntt_wb_bridge
*CAP
1 la_data_out[43] 0.000724091
2 *739:la_data_out_o[43] 0.00402144
3 *337:63 0.00707567
4 *337:61 0.00807587
5 *337:43 0.0182041
6 *337:41 0.0184402
7 *337:23 0.00331837
8 *337:17 0.00670352
9 *337:13 0.00936705
10 *337:13 *342:17 0.00087764
11 *337:13 *342:19 0.00263296
12 *337:17 *338:17 0.000521595
13 *337:17 *342:19 0.0166681
14 *337:17 *344:17 0.00068652
15 *337:17 *355:17 0.00182503
16 *337:17 *388:17 0.00144505
17 *337:43 *339:27 0.0654701
18 *337:61 *344:23 0
19 *337:63 *338:53 0.0329594
20 la_data_out[22] *337:61 4.8769e-05
21 *94:17 *337:61 0
22 *272:13 *337:41 0.00010101
23 *272:23 *337:41 0.000341084
24 *272:35 *337:61 0.000268659
25 *303:21 *337:43 0.0228319
26 *304:23 *337:41 0.000829611
27 *311:13 *337:23 0.000766948
28 *311:35 *337:61 4.51815e-05
29 *312:13 *337:17 0.00248558
30 *314:25 *337:41 0.000215417
31 *317:23 *337:63 0.000330509
32 *319:15 *337:17 0.00330377
33 *320:15 *337:17 0.00395444
34 *321:15 *337:17 0.00341388
35 *322:15 *337:23 5.5792e-05
36 *322:15 *337:41 0.000128985
37 *322:23 *337:41 0.00213946
38 *323:15 *337:17 0.00394135
39 *323:23 *337:61 1.65299e-05
40 *324:15 *337:13 0.000252738
41 *324:15 *337:17 0.00172106
42 *325:15 *337:13 0.000196487
43 *325:15 *337:17 0.00247797
44 *327:15 *337:13 0.00105828
45 *327:29 *337:41 0.000456015
46 *327:39 *337:61 0.000135901
47 *328:23 *337:63 0.00357119
48 *329:13 *337:23 4.20482e-05
49 *329:17 *337:23 0.000471174
50 *329:45 *337:63 0.0041565
51 *331:13 *337:13 0.00360641
52 *331:13 *337:17 0.00126746
53 *332:23 *337:41 0.00062046
54 *333:13 *337:23 0.00037997
55 *333:31 *337:41 0
56 *334:17 *337:13 0.00188158
57 *334:43 *337:61 0.000557546
58 *335:13 *337:13 0.00038583
59 *335:33 *337:61 6.39642e-05
60 *336:13 *337:13 0.000549929
61 *336:19 *337:43 0
62 *336:25 *337:61 0.000280835
63 *336:27 *337:61 9.81891e-05
64 *336:27 *337:63 0.03123
*RES
1 *739:la_data_out_o[43] *337:13 22.0621 
2 *337:13 *337:17 43.9912 
3 *337:17 *337:23 47.8425 
4 *337:23 *337:41 38.5525 
5 *337:41 *337:43 857.965 
6 *337:43 *337:61 31.7893 
7 *337:61 *337:63 62.5669 
8 *337:63 la_data_out[43] 24.2711 
*END

*D_NET *338 0.302841
*CONN
*P la_data_out[44] O
*I *739:la_data_out_o[44] O *D ntt_wb_bridge
*CAP
1 la_data_out[44] 0.000681881
2 *739:la_data_out_o[44] 0.000568069
3 *338:53 0.00892626
4 *338:51 0.0101298
5 *338:37 0.025476
6 *338:35 0.0241819
7 *338:27 0.0016762
8 *338:17 0.00650441
9 *338:15 0.00598749
10 *338:15 *339:13 0
11 *338:15 *340:17 0.000238973
12 *338:15 *342:17 0.000172652
13 *338:15 *346:17 0
14 *338:17 *340:19 0.0289311
15 *338:17 *342:17 0.000499505
16 *338:17 *342:19 0.0263946
17 *338:17 *355:17 0.00121323
18 *338:17 *366:17 0.00130788
19 *338:17 *399:15 3.41634e-05
20 *338:27 *339:25 0.00568653
21 *338:27 *340:29 0.00569072
22 *338:27 *347:35 0.000890553
23 *338:27 *351:23 0.00101158
24 *338:35 *340:31 7.25186e-05
25 *338:35 *351:33 0
26 *338:37 *399:21 0.00010083
27 *120:19 *338:51 0.000242224
28 *283:21 *338:35 0.000278724
29 *283:21 *338:37 0.000833262
30 *304:23 *338:35 0.000149142
31 *306:23 *338:51 0.000154413
32 *313:27 *338:51 0.000229232
33 *316:19 *338:17 0.00327515
34 *317:15 *338:17 0.000180268
35 *318:15 *338:17 0.000156142
36 *318:27 *338:53 0.000644222
37 *324:19 *338:35 0
38 *326:19 *338:35 0.000706059
39 *326:19 *338:37 0.064812
40 *326:19 *338:51 0.00195285
41 *328:15 *338:17 0.00463567
42 *330:23 *338:53 0.000747244
43 *330:25 *338:53 0.00652807
44 *331:35 *338:35 0
45 *331:43 *338:51 0.000872673
46 *331:45 *338:51 2.78792e-05
47 *331:45 *338:53 0.0243576
48 *332:25 *338:51 3.94403e-05
49 *332:39 *338:53 0.000859796
50 *334:35 *338:35 0
51 *335:29 *338:37 0
52 *335:29 *338:51 0
53 *336:27 *338:51 0.001237
54 *336:27 *338:53 6.43955e-05
55 *337:17 *338:17 0.000521595
56 *337:63 *338:53 0.0329594
*RES
1 *739:la_data_out_o[44] *338:15 20.3112 
2 *338:15 *338:17 56.0411 
3 *338:17 *338:27 38.7307 
4 *338:27 *338:35 17.0271 
5 *338:35 *338:37 829.089 
6 *338:37 *338:51 43.826 
7 *338:51 *338:53 66.2163 
8 *338:53 la_data_out[44] 23.5668 
*END

*D_NET *339 0.343074
*CONN
*P la_data_out[45] O
*I *739:la_data_out_o[45] O *D ntt_wb_bridge
*CAP
1 la_data_out[45] 0.00130318
2 *739:la_data_out_o[45] 0.000820398
3 *339:31 0.00729255
4 *339:29 0.00598937
5 *339:27 0.013797
6 *339:25 0.0158682
7 *339:15 0.0105248
8 *339:13 0.00927397
9 *339:13 *346:17 0.00102665
10 *339:15 *341:19 0.0285964
11 *339:15 *341:31 0.000197501
12 *339:15 *345:27 0.0049363
13 *339:15 *347:35 0.00146455
14 *339:15 *349:23 0.00275434
15 *339:15 *351:23 0.00217161
16 *339:15 *399:15 0.000375111
17 *339:15 *726:15 0.00398298
18 *339:25 *340:29 0.000817455
19 *339:25 *341:31 0.00563402
20 *339:25 *344:17 0
21 *339:25 *345:35 0.00116233
22 *339:25 *346:27 0.00142268
23 *339:25 *347:35 0.000394525
24 *339:25 *351:23 0.000243276
25 *339:25 *399:15 1.10496e-05
26 *339:25 *737:31 1.04745e-05
27 *339:27 *349:35 0.0665517
28 *339:27 *350:31 1.21819e-05
29 *339:31 *340:35 0.0392849
30 *339:31 *343:39 0.000338999
31 *135:14 *339:31 0.0399526
32 *303:21 *339:27 0
33 *336:15 *339:15 0.00474604
34 *336:15 *339:25 0.000927301
35 *336:19 *339:27 3.30926e-05
36 *337:43 *339:27 0.0654701
37 *338:15 *339:13 0
38 *338:27 *339:25 0.00568653
*RES
1 *739:la_data_out_o[45] *339:13 25.4279 
2 *339:13 *339:15 54.1091 
3 *339:15 *339:25 23.1592 
4 *339:25 *339:27 864.304 
5 *339:27 *339:29 8 
6 *339:29 *339:31 73.3861 
7 *339:31 la_data_out[45] 36.9482 
*END

*D_NET *340 0.361852
*CONN
*P la_data_out[46] O
*I *739:la_data_out_o[46] O *D ntt_wb_bridge
*CAP
1 la_data_out[46] 0.00136297
2 *739:la_data_out_o[46] 0.000872045
3 *340:35 0.00759788
4 *340:33 0.00623492
5 *340:31 0.0114415
6 *340:29 0.0131797
7 *340:19 0.00667473
8 *340:17 0.00580857
9 *340:17 *341:17 0
10 *340:17 *342:17 0.0017938
11 *340:17 *343:15 2.60111e-05
12 *340:17 *345:23 0.000462157
13 *340:17 *346:17 5.24727e-05
14 *340:17 *348:31 1.41966e-05
15 *340:19 *341:19 3.41634e-05
16 *340:19 *342:17 7.24936e-06
17 *340:19 *343:15 0.0267829
18 *340:19 *346:19 0.00360597
19 *340:19 *399:15 0.00216454
20 *340:29 *344:17 0
21 *340:29 *366:17 3.41998e-06
22 *340:29 *399:15 0.00254967
23 *340:29 *726:15 0.000989361
24 *340:31 *351:33 0.00093333
25 *340:31 *351:35 0.065713
26 *340:35 *343:39 0.0410971
27 *340:35 *351:39 0.0146241
28 *134:19 *340:31 0.00036765
29 *135:14 *340:35 0.000968972
30 *314:25 *340:31 0.000446445
31 *314:29 *340:31 2.12026e-05
32 *326:15 *340:19 0.00432686
33 *326:19 *340:31 0.000375942
34 *332:25 *340:31 0.0662831
35 *338:15 *340:17 0.000238973
36 *338:17 *340:19 0.0289311
37 *338:27 *340:29 0.00569072
38 *338:35 *340:31 7.25186e-05
39 *339:25 *340:29 0.000817455
40 *339:31 *340:35 0.0392849
*RES
1 *739:la_data_out_o[46] *340:17 23.2363 
2 *340:17 *340:19 53.5939 
3 *340:19 *340:29 40.1557 
4 *340:29 *340:31 862.191 
5 *340:31 *340:33 8 
6 *340:33 *340:35 75.4469 
7 *340:35 la_data_out[46] 37.6525 
*END

*D_NET *341 0.350634
*CONN
*P la_data_out[47] O
*I *739:la_data_out_o[47] O *D ntt_wb_bridge
*CAP
1 la_data_out[47] 0.00152835
2 *739:la_data_out_o[47] 0.000669172
3 *341:53 0.0106338
4 *341:51 0.00910547
5 *341:49 0.0107522
6 *341:47 0.0107522
7 *341:45 0.000360656
8 *341:37 0.0015694
9 *341:31 0.00266339
10 *341:19 0.00679183
11 *341:17 0.00600636
12 *341:17 *346:17 8.14539e-06
13 *341:19 *343:15 0.0292516
14 *341:19 *347:23 0.0018224
15 *341:19 *350:19 0.00286449
16 *341:19 *351:15 0.0023582
17 *341:19 *399:15 0.00140728
18 *341:31 *342:27 0.000263742
19 *341:31 *345:35 0.000156969
20 *341:31 *346:27 0.000135774
21 *341:31 *347:35 0.000104722
22 *341:37 *342:33 0
23 *341:37 *342:39 2.66596e-05
24 *341:45 *377:29 0.000520799
25 *341:53 *342:45 0.0401214
26 *341:53 *343:39 6.0182e-05
27 *85:13 *341:53 0.00881413
28 *95:13 *341:53 0.00764172
29 *95:27 *341:53 0.000242785
30 *96:14 *341:53 0.0197848
31 *306:17 *341:37 0.00073633
32 *306:17 *341:49 0.0646415
33 *311:25 *341:49 0.0010689
34 *313:17 *341:37 4.34255e-05
35 *323:23 *341:45 0.000835696
36 *328:19 *341:37 0.00135442
37 *328:19 *341:49 0.0646367
38 *335:21 *341:37 0
39 *335:21 *341:45 0.000104853
40 *336:15 *341:31 0.00633123
41 *339:15 *341:19 0.0285964
42 *339:15 *341:31 0.000197501
43 *339:25 *341:31 0.00563402
44 *340:17 *341:17 0
45 *340:19 *341:19 3.41634e-05
*RES
1 *739:la_data_out_o[47] *341:17 26.1594 
2 *341:17 *341:19 56.728 
3 *341:19 *341:31 40.7558 
4 *341:31 *341:37 41.4418 
5 *341:37 *341:45 43.2364 
6 *341:45 *341:47 15 
7 *341:47 *341:49 827.857 
8 *341:49 *341:51 8 
9 *341:51 *341:53 76.3056 
10 *341:53 la_data_out[47] 39.7654 
*END

*D_NET *342 0.366937
*CONN
*P la_data_out[48] O
*I *739:la_data_out_o[48] O *D ntt_wb_bridge
*CAP
1 la_data_out[48] 0.00146701
2 *739:la_data_out_o[48] 0.00151686
3 *342:45 0.00918967
4 *342:43 0.00772266
5 *342:41 0.0098361
6 *342:39 0.0100962
7 *342:33 0.00165801
8 *342:27 0.00356894
9 *342:19 0.00766256
10 *342:17 0.00700835
11 *342:17 *346:17 0.00303043
12 *342:17 *348:31 0.000521138
13 *342:27 *740:mem_we 0.000321688
14 *342:27 *343:23 0.0068411
15 *342:27 *656:23 0.00017023
16 *342:27 *701:23 0.0015715
17 *342:33 *726:21 0
18 *342:45 *343:39 0.0418762
19 la_data_out[24] *342:41 0.0660627
20 *83:17 *342:45 0.00919472
21 *84:17 *342:45 0.00797137
22 *85:13 *342:45 0.000297398
23 *95:13 *342:45 0.000264261
24 *96:14 *342:45 0.000504126
25 *96:18 *342:41 0.00545571
26 *313:17 *342:33 1.15883e-05
27 *316:33 *342:39 6.17437e-06
28 *317:15 *342:19 0.00255923
29 *318:15 *342:19 0.00309486
30 *319:19 *342:33 2.6179e-05
31 *323:15 *342:19 0.000109884
32 *323:23 *342:41 0.0660603
33 *325:19 *342:33 0.00107185
34 *330:17 *342:33 0.000729377
35 *337:13 *342:17 0.00087764
36 *337:13 *342:19 0.00263296
37 *337:17 *342:19 0.0166681
38 *338:15 *342:17 0.000172652
39 *338:17 *342:17 0.000499505
40 *338:17 *342:19 0.0263946
41 *340:17 *342:17 0.0017938
42 *340:19 *342:17 7.24936e-06
43 *341:31 *342:27 0.000263742
44 *341:37 *342:33 0
45 *341:37 *342:39 2.66596e-05
46 *341:53 *342:45 0.0401214
*RES
1 *739:la_data_out_o[48] *342:17 28.3821 
2 *342:17 *342:19 48.8712 
3 *342:19 *342:27 42.0331 
4 *342:27 *342:33 38.1704 
5 *342:33 *342:39 33.48 
6 *342:39 *342:41 840.534 
7 *342:41 *342:43 8 
8 *342:43 *342:45 79.3968 
9 *342:45 la_data_out[48] 39.0611 
*END

*D_NET *343 0.351601
*CONN
*P la_data_out[49] O
*I *739:la_data_out_o[49] O *D ntt_wb_bridge
*CAP
1 la_data_out[49] 0.00137639
2 *739:la_data_out_o[49] 0.000576759
3 *343:39 0.0105651
4 *343:37 0.00969822
5 *343:27 0.0255449
6 *343:25 0.0250354
7 *343:23 0.00292569
8 *343:15 0.00813403
9 *343:13 0.00578509
10 *343:13 *345:23 0
11 *343:13 *346:17 0.000188284
12 *343:13 *350:17 0.000326595
13 *343:15 *345:23 0.00374112
14 *343:15 *346:19 0.000240386
15 *343:15 *347:23 0.000763804
16 *343:15 *347:27 0.00259697
17 *343:15 *348:35 0.00328865
18 *343:23 *740:mem_we 0.000382259
19 *343:23 *345:33 7.42484e-05
20 *343:23 *348:43 0.000722835
21 *343:23 *349:31 0.00164911
22 *343:23 *350:27 0.000445456
23 *343:23 *399:15 4.77164e-06
24 *343:23 *656:23 0.000667076
25 *343:23 *725:23 0.00139286
26 *343:27 *348:47 0.0671858
27 *343:37 *348:47 0.000373344
28 *343:39 *349:39 0.00829235
29 *343:39 *350:35 0.0095653
30 *343:39 *351:39 0.00224696
31 *83:17 *343:39 0.000289738
32 *83:25 *343:39 8.70465e-06
33 *84:17 *343:39 0.000257486
34 *84:25 *343:39 0.000547409
35 *95:27 *343:39 8.33458e-05
36 *96:14 *343:39 0.000375898
37 *98:14 *343:39 5.02353e-05
38 *125:21 *343:37 7.23298e-05
39 *135:14 *343:39 0.0019964
40 *135:18 *343:27 0.00036765
41 *303:21 *343:27 0
42 *303:21 *343:37 0
43 *335:15 *343:23 0.00748759
44 *339:31 *343:39 0.000338999
45 *340:17 *343:15 2.60111e-05
46 *340:19 *343:15 0.0267829
47 *340:35 *343:39 0.0410971
48 *341:19 *343:15 0.0292516
49 *341:53 *343:39 6.0182e-05
50 *342:27 *343:23 0.0068411
51 *342:45 *343:39 0.0418762
*RES
1 *739:la_data_out_o[49] *343:13 23.1644 
2 *343:13 *343:15 56.5563 
3 *343:15 *343:23 46.3429 
4 *343:23 *343:25 8 
5 *343:25 *343:27 860.782 
6 *343:27 *343:37 18.6886 
7 *343:37 *343:39 87.64 
8 *343:39 la_data_out[49] 38.3568 
*END

*D_NET *344 0.215639
*CONN
*P la_data_out[4] O
*I *739:la_data_out_o[4] O *D ntt_wb_bridge
*CAP
1 la_data_out[4] 0.00103707
2 *739:la_data_out_o[4] 0.00241529
3 *344:23 0.0156067
4 *344:21 0.0145696
5 *344:19 0.0115126
6 *344:17 0.0139279
7 *344:17 *355:17 0.00231728
8 *344:17 *366:17 9.37475e-05
9 *344:17 *388:17 0.00426668
10 *344:17 *399:15 4.70854e-05
11 *344:19 *351:33 0.000884814
12 *344:19 *351:35 1.45215e-05
13 la_data_out[22] *344:23 0
14 la_data_out[23] *344:19 0
15 *94:17 *344:23 0.0122073
16 *134:19 *344:19 0.000493826
17 *272:45 *344:23 0
18 *294:21 *344:19 0.0668591
19 *303:25 *344:23 0
20 *304:31 *344:23 0
21 *310:19 *344:17 0.000336298
22 *312:13 *344:17 0.000563109
23 *314:29 *344:19 0.0661954
24 *321:15 *344:17 0.000859598
25 *323:15 *344:17 0.000744557
26 *337:17 *344:17 0.00068652
27 *337:61 *344:23 0
28 *339:25 *344:17 0
29 *340:29 *344:17 0
*RES
1 *739:la_data_out_o[4] *344:17 42.9255 
2 *344:17 *344:19 862.895 
3 *344:19 *344:21 8 
4 *344:21 *344:23 63.4256 
5 *344:23 la_data_out[4] 31.3139 
*END

*D_NET *345 0.280444
*CONN
*P la_data_out[50] O
*I *739:la_data_out_o[50] O *D ntt_wb_bridge
*CAP
1 la_data_out[50] 0.00161869
2 *739:la_data_out_o[50] 0.0019962
3 *345:43 0.0163526
4 *345:41 0.0147339
5 *345:39 0.0250468
6 *345:37 0.0250468
7 *345:35 0.00238694
8 *345:33 0.00251358
9 *345:27 0.0065799
10 *345:25 0.00645326
11 *345:23 0.0019962
12 *345:23 *346:17 7.39549e-05
13 *345:23 *347:23 0.000221447
14 *345:23 *348:31 0.00162081
15 *345:23 *351:13 0.000118752
16 *345:27 *346:19 0
17 *345:27 *347:27 0.000282647
18 *345:27 *349:23 0.012262
19 *345:27 *726:15 0.0143327
20 *345:35 *346:27 0.0101407
21 *345:35 *347:35 2.02872e-05
22 *345:35 *737:23 0.00215598
23 *345:39 *346:31 1.39826e-05
24 *345:39 *347:39 0.0670788
25 *345:39 *348:47 6.5117e-06
26 *345:43 *346:35 0.0472454
27 *345:43 *347:43 2.19403e-05
28 *81:15 *345:43 0
29 *96:14 *345:43 0.0086409
30 *126:27 *345:39 0.000735299
31 *326:15 *345:27 0
32 *336:15 *345:35 0.000214456
33 *339:15 *345:27 0.0049363
34 *339:25 *345:35 0.00116233
35 *340:17 *345:23 0.000462157
36 *341:31 *345:35 0.000156969
37 *343:13 *345:23 0
38 *343:15 *345:23 0.00374112
39 *343:23 *345:33 7.42484e-05
*RES
1 *739:la_data_out_o[50] *345:23 42.7486 
2 *345:23 *345:25 15 
3 *345:25 *345:27 276.95 
4 *345:27 *345:33 32.2579 
5 *345:33 *345:35 109.724 
6 *345:35 *345:37 15 
7 *345:37 *345:39 860.078 
8 *345:39 *345:41 15 
9 *345:41 *345:43 506.589 
10 *345:43 la_data_out[50] 48.7021 
*END

*D_NET *346 0.367294
*CONN
*P la_data_out[51] O
*I *739:la_data_out_o[51] O *D ntt_wb_bridge
*CAP
1 la_data_out[51] 0.00159203
2 *739:la_data_out_o[51] 0.00206342
3 *346:35 0.00843231
4 *346:33 0.00684028
5 *346:31 0.0112362
6 *346:29 0.0112362
7 *346:27 0.0046617
8 *346:25 0.00487356
9 *346:19 0.00330338
10 *346:17 0.00515494
11 *346:17 *348:31 3.18258e-05
12 *346:17 *349:19 0.000284567
13 *346:17 *350:17 0.00163251
14 *346:19 *347:27 0.00059359
15 *346:19 *348:35 0.0123559
16 *346:25 *347:33 0.000213921
17 *346:27 *347:35 0.0224513
18 *346:27 *737:23 0.00108735
19 *346:31 *347:39 0.0671012
20 *346:31 *348:47 0.0671237
21 *346:35 *347:43 0.0489807
22 *81:15 *346:35 0
23 *96:14 *346:35 0.0103566
24 *126:27 *346:31 0.00036765
25 *326:15 *346:19 0.00499253
26 *328:15 *346:19 0.00110884
27 *336:15 *346:27 0.00203274
28 *338:15 *346:17 0
29 *339:13 *346:17 0.00102665
30 *339:25 *346:27 0.00142268
31 *340:17 *346:17 5.24727e-05
32 *340:19 *346:19 0.00360597
33 *341:17 *346:17 8.14539e-06
34 *341:31 *346:27 0.000135774
35 *342:17 *346:17 0.00303043
36 *343:13 *346:17 0.000188284
37 *343:15 *346:19 0.000240386
38 *345:23 *346:17 7.39549e-05
39 *345:27 *346:19 0
40 *345:35 *346:27 0.0101407
41 *345:39 *346:31 1.39826e-05
42 *345:43 *346:35 0.0472454
*RES
1 *739:la_data_out_o[51] *346:17 38.8413 
2 *346:17 *346:19 146.885 
3 *346:19 *346:25 34.0186 
4 *346:25 *346:27 240.265 
5 *346:27 *346:29 15 
6 *346:29 *346:31 860.078 
7 *346:31 *346:33 15 
8 *346:33 *346:35 524.216 
9 *346:35 la_data_out[51] 48.35 
*END

*D_NET *347 0.38141
*CONN
*P la_data_out[52] O
*I *739:la_data_out_o[52] O *D ntt_wb_bridge
*CAP
1 la_data_out[52] 0.00155002
2 *739:la_data_out_o[52] 0.00307324
3 *347:43 0.00865476
4 *347:41 0.00710474
5 *347:39 0.01125
6 *347:37 0.01125
7 *347:35 0.00325162
8 *347:33 0.0033929
9 *347:27 0.0020985
10 *347:25 0.00195722
11 *347:23 0.00307324
12 *347:23 *349:23 0.000559137
13 *347:23 *350:17 0.000200771
14 *347:23 *350:19 0.000294933
15 *347:23 *351:13 0.00075213
16 *347:23 *351:15 0.000566061
17 *347:23 *726:15 0.000566822
18 *347:27 *348:35 0.0127011
19 *347:27 *349:23 0.000739765
20 *347:27 *350:19 0.0108675
21 *347:35 *351:23 0.0207765
22 *347:39 *348:47 9.2467e-06
23 *347:43 *348:51 0.0506216
24 *96:14 *347:43 0.0107272
25 *126:27 *347:39 0.00036765
26 *338:27 *347:35 0.000890553
27 *339:15 *347:35 0.00146455
28 *339:25 *347:35 0.000394525
29 *341:19 *347:23 0.0018224
30 *341:31 *347:35 0.000104722
31 *343:15 *347:23 0.000763804
32 *343:15 *347:27 0.00259697
33 *345:23 *347:23 0.000221447
34 *345:27 *347:27 0.000282647
35 *345:35 *347:35 2.02872e-05
36 *345:39 *347:39 0.0670788
37 *345:43 *347:43 2.19403e-05
38 *346:19 *347:27 0.00059359
39 *346:25 *347:33 0.000213921
40 *346:27 *347:35 0.0224513
41 *346:31 *347:39 0.0671012
42 *346:35 *347:43 0.0489807
*RES
1 *739:la_data_out_o[52] *347:23 42.062 
2 *347:23 *347:25 15 
3 *347:25 *347:27 150.22 
4 *347:27 *347:33 32.9621 
5 *347:33 *347:35 241.218 
6 *347:35 *347:37 15 
7 *347:37 *347:39 860.078 
8 *347:39 *347:41 15 
9 *347:41 *347:43 542.797 
10 *347:43 la_data_out[52] 47.9979 
*END

*D_NET *348 0.389374
*CONN
*P la_data_out[53] O
*I *739:la_data_out_o[53] O *D ntt_wb_bridge
*CAP
1 la_data_out[53] 0.00152103
2 *739:la_data_out_o[53] 0.00195749
3 *348:51 0.00924127
4 *348:49 0.00772023
5 *348:47 0.0115339
6 *348:45 0.0115339
7 *348:43 0.00322875
8 *348:41 0.00369232
9 *348:35 0.0025036
10 *348:33 0.00204003
11 *348:31 0.00195749
12 *348:31 *349:19 0.00279685
13 *348:31 *350:17 0.000218506
14 *348:31 *351:13 0.00213517
15 *348:35 *350:19 0.00056643
16 *348:41 *349:29 0.000662959
17 *348:43 *349:31 0.0223718
18 *348:43 *350:27 0.0228911
19 *348:51 *349:39 0.000108315
20 *84:17 *348:51 2.57772e-05
21 *85:13 *348:51 0.000254247
22 *95:13 *348:51 0.0497832
23 *96:14 *348:51 0.00962119
24 *125:21 *348:47 7.45617e-05
25 *126:27 *348:47 0.00036765
26 *335:15 *348:43 0.0039892
27 *340:17 *348:31 1.41966e-05
28 *342:17 *348:31 0.000521138
29 *343:15 *348:35 0.00328865
30 *343:23 *348:43 0.000722835
31 *343:27 *348:47 0.0671858
32 *343:37 *348:47 0.000373344
33 *345:23 *348:31 0.00162081
34 *345:39 *348:47 6.5117e-06
35 *346:17 *348:31 3.18258e-05
36 *346:19 *348:35 0.0123559
37 *346:31 *348:47 0.0671237
38 *347:27 *348:35 0.0127011
39 *347:39 *348:47 9.2467e-06
40 *347:43 *348:51 0.0506216
*RES
1 *739:la_data_out_o[53] *348:31 41.003 
2 *348:31 *348:33 15 
3 *348:33 *348:35 149.744 
4 *348:35 *348:41 40.3571 
5 *348:41 *348:43 251.699 
6 *348:43 *348:45 15 
7 *348:45 *348:47 867.473 
8 *348:47 *348:49 15 
9 *348:49 *348:51 560.425 
10 *348:51 la_data_out[53] 47.6457 
*END

*D_NET *349 0.381138
*CONN
*P la_data_out[54] O
*I *739:la_data_out_o[54] O *D ntt_wb_bridge
*CAP
1 la_data_out[54] 0.00139583
2 *739:la_data_out_o[54] 0.0017149
3 *349:39 0.00869827
4 *349:37 0.00730244
5 *349:35 0.0138069
6 *349:33 0.0138069
7 *349:31 0.00719468
8 *349:29 0.00758039
9 *349:23 0.00257753
10 *349:21 0.00219182
11 *349:19 0.0017149
12 *349:19 *350:17 0.00379394
13 *349:19 *351:13 0.000372496
14 *349:23 *350:19 2.18506e-05
15 *349:23 *351:15 0.0132543
16 *349:23 *726:15 0.00117749
17 *349:31 *656:15 0
18 *349:31 *725:23 0.000221343
19 *349:35 *350:31 0.0670351
20 *349:39 *350:35 0.0534164
21 *83:17 *349:39 0.0520247
22 *84:17 *349:39 2.50118e-05
23 *135:14 *349:39 0.000502823
24 *335:15 *349:31 0.00227492
25 *339:15 *349:23 0.00275434
26 *339:27 *349:35 0.0665517
27 *343:23 *349:31 0.00164911
28 *343:39 *349:39 0.00829235
29 *345:27 *349:23 0.012262
30 *346:17 *349:19 0.000284567
31 *347:23 *349:23 0.000559137
32 *347:27 *349:23 0.000739765
33 *348:31 *349:19 0.00279685
34 *348:41 *349:29 0.000662959
35 *348:43 *349:31 0.0223718
36 *348:51 *349:39 0.000108315
*RES
1 *739:la_data_out_o[54] *349:19 40.9617 
2 *349:19 *349:21 15 
3 *349:21 *349:23 165.942 
4 *349:23 *349:29 39.3007 
5 *349:29 *349:31 244.553 
6 *349:31 *349:33 15 
7 *349:33 *349:35 869.586 
8 *349:35 *349:37 15 
9 *349:37 *349:39 571.859 
10 *349:39 la_data_out[54] 45.885 
*END

*D_NET *350 0.398241
*CONN
*P la_data_out[55] O
*I *739:la_data_out_o[55] O *D ntt_wb_bridge
*CAP
1 la_data_out[55] 0.00137078
2 *739:la_data_out_o[55] 0.00221872
3 *350:35 0.00878269
4 *350:33 0.0074119
5 *350:31 0.0137489
6 *350:29 0.0137489
7 *350:27 0.00479987
8 *350:25 0.0052941
9 *350:19 0.00268949
10 *350:17 0.00441398
11 *350:17 *351:13 0.000402411
12 *350:19 *351:15 0.013729
13 *350:25 *351:21 0.000135018
14 *350:27 *656:15 0
15 *350:27 *701:15 0.0173588
16 *350:27 *729:15 0
17 *350:35 *351:39 0.0546422
18 *79:14 *350:35 0.000185503
19 *83:17 *350:35 0.000970746
20 *135:14 *350:35 0.000501994
21 *335:15 *350:27 0.00500793
22 *336:19 *350:31 0.0666751
23 *339:27 *350:31 1.21819e-05
24 *341:19 *350:19 0.00286449
25 *343:13 *350:17 0.000326595
26 *343:23 *350:27 0.000445456
27 *343:39 *350:35 0.0095653
28 *346:17 *350:17 0.00163251
29 *347:23 *350:17 0.000200771
30 *347:23 *350:19 0.000294933
31 *347:27 *350:19 0.0108675
32 *348:31 *350:17 0.000218506
33 *348:35 *350:19 0.00056643
34 *348:43 *350:27 0.0228911
35 *349:19 *350:17 0.00379394
36 *349:23 *350:19 2.18506e-05
37 *349:35 *350:31 0.0670351
38 *349:39 *350:35 0.0534164
*RES
1 *739:la_data_out_o[55] *350:17 38.4655 
2 *350:17 *350:19 150.696 
3 *350:19 *350:25 39.3007 
4 *350:25 *350:27 264.563 
5 *350:27 *350:29 15 
6 *350:29 *350:31 869.234 
7 *350:31 *350:33 15 
8 *350:33 *350:35 589.964 
9 *350:35 la_data_out[55] 45.5329 
*END

*D_NET *351 0.366038
*CONN
*P la_data_out[56] O
*I *739:la_data_out_o[56] O *D ntt_wb_bridge
*CAP
1 la_data_out[56] 0.00134574
2 *739:la_data_out_o[56] 0.00248062
3 *351:39 0.0187075
4 *351:37 0.0173617
5 *351:35 0.0110085
6 *351:33 0.0116207
7 *351:23 0.00447475
8 *351:21 0.00396355
9 *351:15 0.00215677
10 *351:13 0.00453637
11 *351:15 *726:15 0.000337968
12 *351:23 *726:15 0.0228299
13 *351:23 *737:23 0
14 la_data_out[23] *351:33 0
15 *83:17 *351:39 0.000609337
16 *134:19 *351:35 0.00036765
17 *135:14 *351:39 0.00102835
18 *314:25 *351:33 0.000448903
19 *314:29 *351:35 0.0656742
20 *326:15 *351:23 0
21 *338:27 *351:23 0.00101158
22 *338:35 *351:33 0
23 *339:15 *351:23 0.00217161
24 *339:25 *351:23 0.000243276
25 *340:31 *351:33 0.00093333
26 *340:31 *351:35 0.065713
27 *340:35 *351:39 0.0146241
28 *341:19 *351:15 0.0023582
29 *343:39 *351:39 0.00224696
30 *344:19 *351:33 0.000884814
31 *344:19 *351:35 1.45215e-05
32 *345:23 *351:13 0.000118752
33 *347:23 *351:13 0.00075213
34 *347:23 *351:15 0.000566061
35 *347:35 *351:23 0.0207765
36 *348:31 *351:13 0.00213517
37 *349:19 *351:13 0.000372496
38 *349:23 *351:15 0.0132543
39 *350:17 *351:13 0.000402411
40 *350:19 *351:15 0.013729
41 *350:25 *351:21 0.000135018
42 *350:35 *351:39 0.0546422
*RES
1 *739:la_data_out_o[56] *351:13 37.0818 
2 *351:13 *351:15 157.366 
3 *351:15 *351:21 31.9057 
4 *351:21 *351:23 259.322 
5 *351:23 *351:33 37.1332 
6 *351:33 *351:35 841.943 
7 *351:35 *351:37 15 
8 *351:37 *351:39 602.351 
9 *351:39 la_data_out[56] 45.1807 
*END

*D_NET *352 0.39037
*CONN
*P la_data_out[57] O
*I *739:la_data_out_o[57] O *D ntt_wb_bridge
*CAP
1 la_data_out[57] 0.00138456
2 *739:la_data_out_o[57] 0.000602152
3 *352:23 0.0105104
4 *352:21 0.00912586
5 *352:19 0.0141765
6 *352:17 0.0141765
7 *352:15 0.00695386
8 *352:13 0.00761637
9 *352:7 0.0106299
10 *352:5 0.0105695
11 *352:7 *353:9 0
12 *352:7 *354:15 0.000173449
13 *352:7 *356:19 0.0004374
14 *352:7 *358:15 0.0262649
15 *352:7 *361:15 0.00432887
16 *352:7 *362:15 0.00484748
17 *352:7 *374:15 0.00139158
18 *352:7 *385:15 0.000353606
19 *352:7 *387:15 0.000742899
20 *352:7 *391:15 0.00204562
21 *352:7 *726:15 0.00395147
22 *352:13 *353:17 0.00075684
23 *352:13 *386:21 6.26221e-05
24 *352:15 *353:19 0.000155325
25 *352:15 *359:25 0.00161844
26 *352:15 *657:15 0
27 *352:15 *676:19 0.00334671
28 *352:15 *693:17 0.00451211
29 *352:15 *713:15 0.0258321
30 *352:19 *356:31 0.0672591
31 *352:19 *363:11 0.0656914
32 *352:19 *656:11 0
33 *352:19 *657:11 0
34 *352:19 *728:11 9.47938e-05
35 *352:19 *729:11 0.000424916
36 *352:23 *353:27 0.0392341
37 *352:23 *357:31 0.034005
38 *79:14 *352:23 0.0034181
39 *83:17 *352:23 0.0092347
40 *84:17 *352:23 0.00444032
41 *98:14 *352:23 0
*RES
1 *739:la_data_out_o[57] *352:5 2.3128 
2 *352:5 *352:7 55.8339 
3 *352:7 *352:13 28.8221 
4 *352:13 *352:15 48.8283 
5 *352:15 *352:17 8 
6 *352:17 *352:19 872.755 
7 *352:19 *352:21 8 
8 *352:21 *352:23 78.0229 
9 *352:23 la_data_out[57] 39.0611 
*END

*D_NET *353 0.380967
*CONN
*P la_data_out[58] O
*I *739:la_data_out_o[58] O *D ntt_wb_bridge
*CAP
1 la_data_out[58] 0.00135352
2 *739:la_data_out_o[58] 0.00138108
3 *353:27 0.0106539
4 *353:25 0.00930037
5 *353:23 0.0128614
6 *353:21 0.0128614
7 *353:19 0.00816133
8 *353:17 0.00901354
9 *353:11 0.0093695
10 *353:9 0.00989837
11 *353:9 *354:13 0.000627644
12 *353:9 *354:15 0.000115659
13 *353:9 *356:17 0.000110297
14 *353:9 *357:13 4.31291e-05
15 *353:11 *354:15 0.000736047
16 *353:11 *357:13 0.00237923
17 *353:11 *359:15 0.0135907
18 *353:11 *360:17 8.8182e-05
19 *353:11 *361:13 0.000101295
20 *353:11 *362:13 8.6265e-05
21 *353:11 *363:7 0
22 *353:11 *365:15 0.00360374
23 *353:11 *367:15 0.000303609
24 *353:11 *369:15 0.00345522
25 *353:11 *370:15 0.00311425
26 *353:11 *371:15 0.00345522
27 *353:11 *372:13 0
28 *353:11 *373:13 0.00110324
29 *353:11 *382:13 0.00336245
30 *353:17 *386:21 6.81707e-05
31 *353:17 *395:13 2.82592e-05
32 *353:19 *375:15 0.00462557
33 *353:19 *378:15 0.0208322
34 *353:19 *662:41 0
35 *353:19 *668:19 0.00472808
36 *353:19 *678:19 0.00545861
37 *353:19 *711:15 0.0258288
38 *353:19 *713:15 1.67025e-05
39 *353:23 la_data_out[83] 0.0110923
40 *353:23 *358:27 0.0681826
41 *353:23 *704:19 0.0360407
42 *353:27 *357:31 0.00187764
43 *353:27 *358:31 0.0373411
44 *69:17 *353:27 0.000725658
45 *70:18 *353:27 0.00217334
46 *98:14 *353:27 0.000671106
47 *352:7 *353:9 0
48 *352:13 *353:17 0.00075684
49 *352:15 *353:19 0.000155325
50 *352:23 *353:27 0.0392341
*RES
1 *739:la_data_out_o[58] *353:9 5.38533 
2 *353:9 *353:11 50.5027 
3 *353:11 *353:17 31.6393 
4 *353:17 *353:19 56.728 
5 *353:19 *353:21 8 
6 *353:21 *353:23 871.346 
7 *353:23 *353:25 8 
8 *353:25 *353:27 82.5739 
9 *353:27 la_data_out[58] 38.3568 
*END

*D_NET *354 0.352072
*CONN
*P la_data_out[59] O
*I *739:la_data_out_o[59] O *D ntt_wb_bridge
*CAP
1 la_data_out[59] 0.000681881
2 *739:la_data_out_o[59] 0.00075728
3 *354:31 0.0139923
4 *354:29 0.0133104
5 *354:27 0.0260823
6 *354:25 0.0310712
7 *354:21 0.00617204
8 *354:15 0.00777087
9 *354:13 0.00734502
10 *354:15 *356:19 0.0361369
11 *354:15 *359:15 0.0340425
12 *354:21 *356:25 0.00150203
13 *354:21 *664:25 4.88688e-05
14 *354:25 *358:23 0.0210387
15 *354:25 *647:11 0.010303
16 *354:25 *664:19 0.00011858
17 *354:25 *733:33 2.03202e-05
18 *354:27 *375:19 0.0690794
19 *354:27 *378:27 7.40941e-05
20 *354:27 *531:21 0
21 *354:27 *650:19 0.000129592
22 *354:27 *677:27 0
23 *354:27 *690:19 0.00129952
24 *354:27 *708:11 0.00412515
25 *354:27 *710:19 0
26 *354:27 *724:13 0.000502477
27 *354:31 la_data_out[76] 0.000857888
28 *354:31 la_data_out[77] 0.00840982
29 *354:31 la_data_out[81] 0.00199497
30 *354:31 *356:39 0.035616
31 *354:31 *359:45 0.0105001
32 *354:31 *360:35 0.00173102
33 *354:31 *361:31 0.000746926
34 *354:31 *363:15 6.17969e-05
35 *354:31 *364:23 0.00399211
36 *354:31 *372:23 9.45444e-05
37 *354:31 *375:29 0.000399364
38 *105:19 *354:27 0
39 *281:13 *354:21 1.09111e-05
40 *292:19 *354:27 0
41 *302:21 *354:31 0.000399022
42 *352:7 *354:15 0.000173449
43 *353:9 *354:13 0.000627644
44 *353:9 *354:15 0.000115659
45 *353:11 *354:15 0.000736047
*RES
1 *739:la_data_out_o[59] *354:13 22.592 
2 *354:13 *354:15 68.0624 
3 *354:15 *354:21 39.3864 
4 *354:21 *354:25 47.0395 
5 *354:25 *354:27 895.996 
6 *354:27 *354:29 8 
7 *354:29 *354:31 77.7653 
8 *354:31 la_data_out[59] 23.5668 
*END

*D_NET *355 0.137038
*CONN
*P la_data_out[5] O
*I *739:la_data_out_o[5] O *D ntt_wb_bridge
*CAP
1 la_data_out[5] 0.0384538
2 *739:la_data_out_o[5] 0.0020835
3 *355:25 0.0384538
4 *355:23 0.0193429
5 *355:21 0.0202799
6 *355:17 0.00302052
7 *355:17 *366:17 0.00290066
8 *355:23 *399:23 0
9 *116:31 la_data_out[5] 0
10 *283:21 *355:23 3.60341e-05
11 *310:19 *355:17 0.000132725
12 *317:15 *355:17 0.000848702
13 *317:19 *355:21 0.00268404
14 *318:15 *355:17 0.00111174
15 *319:15 *355:17 0.000722878
16 *319:19 *355:21 0.000904411
17 *320:15 *355:17 0.000626135
18 *325:19 *355:21 0
19 *335:27 *355:23 8.03368e-05
20 *337:17 *355:17 0.00182503
21 *338:17 *355:17 0.00121323
22 *344:17 *355:17 0.00231728
*RES
1 *739:la_data_out_o[5] *355:17 44.2108 
2 *355:17 *355:21 43.3593 
3 *355:21 *355:23 62.0517 
4 *355:23 *355:25 8 
5 *355:25 la_data_out[5] 852.258 
*END

*D_NET *356 0.33911
*CONN
*P la_data_out[60] O
*I *739:la_data_out_o[60] O *D ntt_wb_bridge
*CAP
1 la_data_out[60] 0.000724091
2 *739:la_data_out_o[60] 0.000936237
3 *356:39 0.0102642
4 *356:37 0.00978038
5 *356:31 0.0277855
6 *356:29 0.0313203
7 *356:25 0.00477731
8 *356:19 0.0075754
9 *356:17 0.00750943
10 *356:17 *357:13 4.31291e-05
11 *356:19 *357:15 0.0310203
12 *356:19 *358:15 0.000720827
13 *356:19 *359:15 2.58697e-05
14 *356:19 *389:15 0.00277422
15 *356:19 *398:15 0.000338077
16 *356:25 *664:25 0.000203829
17 *356:25 *696:21 5.09387e-06
18 *356:29 *358:23 0.0175769
19 *356:29 *657:15 0.000123818
20 *356:29 *662:31 0.00314921
21 *356:29 *687:11 0.00919678
22 *356:31 *359:41 0
23 *356:31 *363:11 0.000455348
24 *356:31 *657:11 0
25 *356:31 *719:9 0
26 *356:31 *722:15 0
27 *356:37 *359:41 0
28 *356:37 *363:11 1.94234e-05
29 *356:39 *360:35 0.00390612
30 *356:39 *362:31 0.000283394
31 *356:39 *363:15 0.0234759
32 *356:39 *367:31 0.00329662
33 *115:35 *356:31 0
34 *279:15 *356:19 0.000687504
35 *281:13 *356:25 7.36323e-05
36 *352:7 *356:19 0.0004374
37 *352:19 *356:31 0.0672591
38 *353:9 *356:17 0.000110297
39 *354:15 *356:19 0.0361369
40 *354:21 *356:25 0.00150203
41 *354:31 *356:39 0.035616
*RES
1 *739:la_data_out_o[60] *356:17 25.118 
2 *356:17 *356:19 66.8603 
3 *356:19 *356:25 37.2736 
4 *356:25 *356:29 40.5136 
5 *356:29 *356:31 891.771 
6 *356:31 *356:37 10.8793 
7 *356:37 *356:39 67.8907 
8 *356:39 la_data_out[60] 24.2711 
*END

*D_NET *357 0.344792
*CONN
*P la_data_out[61] O
*I *739:la_data_out_o[61] O *D ntt_wb_bridge
*CAP
1 la_data_out[61] 0.00150783
2 *739:la_data_out_o[61] 0.00131153
3 *357:31 0.0115031
4 *357:29 0.00999523
5 *357:27 0.0258382
6 *357:25 0.0258382
7 *357:23 0.00803462
8 *357:21 0.0100521
9 *357:15 0.0072892
10 *357:13 0.00658324
11 *357:13 *358:13 0.000133365
12 *357:13 *359:13 0.000224391
13 *357:13 *360:17 5.80588e-05
14 *357:15 *358:15 0.0292272
15 *357:15 *360:19 0.000203263
16 *357:15 *368:15 0.000229775
17 *357:15 *398:15 0.000630143
18 *357:23 *649:11 0
19 *357:23 *691:23 0.00655257
20 *357:23 *712:34 0.00417287
21 *357:23 *722:19 0.000707856
22 *357:23 *727:15 3.4915e-06
23 *357:23 *733:39 0.00348752
24 *357:23 *735:35 0.00766084
25 *357:27 *358:27 0.0687797
26 *357:27 *664:31 0
27 *357:27 *676:31 0
28 *357:27 *691:27 0
29 *357:27 *704:19 9.87077e-05
30 *70:22 *357:31 0.000155832
31 *71:21 *357:31 0.000137587
32 *72:25 *357:31 0.000112274
33 *73:20 *357:31 0.000352315
34 *78:25 *357:27 0
35 *79:14 *357:31 0.0335758
36 *85:13 *357:31 0.00403637
37 *95:13 *357:31 0.0069302
38 *101:15 *357:31 0
39 *140:13 *357:31 0
40 *352:23 *357:31 0.034005
41 *353:9 *357:13 4.31291e-05
42 *353:11 *357:13 0.00237923
43 *353:27 *357:31 0.00187764
44 *356:17 *357:13 4.31291e-05
45 *356:19 *357:15 0.0310203
*RES
1 *739:la_data_out_o[61] *357:13 26.064 
2 *357:13 *357:15 57.2432 
3 *357:15 *357:21 47.1336 
4 *357:21 *357:23 45.136 
5 *357:23 *357:25 8 
6 *357:25 *357:27 888.954 
7 *357:27 *357:29 8 
8 *357:29 *357:31 72.4416 
9 *357:31 la_data_out[61] 39.7654 
*END

*D_NET *358 0.394462
*CONN
*P la_data_out[62] O
*I *739:la_data_out_o[62] O *D ntt_wb_bridge
*CAP
1 la_data_out[62] 0.00135851
2 *739:la_data_out_o[62] 0.000776796
3 *358:31 0.00802465
4 *358:29 0.00666614
5 *358:27 0.011245
6 *358:25 0.011245
7 *358:23 0.00629699
8 *358:21 0.00758517
9 *358:15 0.00655936
10 *358:13 0.00604798
11 *358:15 *360:19 0.00592807
12 *358:15 *361:15 0.000271023
13 *358:15 *362:15 0.000306373
14 *358:15 *368:15 0.00769527
15 *358:15 *391:15 0.000667356
16 *358:15 *398:15 0.0013044
17 *358:21 *650:29 0.000285027
18 *358:23 *650:31 6.80247e-05
19 *358:23 *657:15 4.8059e-05
20 *358:23 *662:41 0
21 *358:23 *664:19 0.00226617
22 *358:23 *687:11 0.00152553
23 *358:27 *704:19 0.000364015
24 *69:17 *358:31 0.0373446
25 *70:18 la_data_out[62] 4.77164e-06
26 *101:23 *358:23 0.00131233
27 *275:13 *358:21 0
28 *276:13 *358:21 0
29 *352:7 *358:15 0.0262649
30 *353:23 *358:27 0.0681826
31 *353:27 *358:31 0.0373411
32 *354:25 *358:23 0.0210387
33 *356:19 *358:15 0.000720827
34 *356:29 *358:23 0.0175769
35 *357:13 *358:13 0.000133365
36 *357:15 *358:15 0.0292272
37 *357:27 *358:27 0.0687797
*RES
1 *739:la_data_out_o[62] *358:13 24.0366 
2 *358:13 *358:15 56.3845 
3 *358:15 *358:21 36.5693 
4 *358:21 *358:23 48.5707 
5 *358:23 *358:25 8 
6 *358:25 *358:27 881.206 
7 *358:27 *358:29 8 
8 *358:29 *358:31 69.1787 
9 *358:31 la_data_out[62] 37.6525 
*END

*D_NET *359 0.294155
*CONN
*P la_data_out[63] O
*I *739:la_data_out_o[63] O *D ntt_wb_bridge
*CAP
1 la_data_out[63] 0.000720228
2 *739:la_data_out_o[63] 0.000598229
3 *359:45 0.0101203
4 *359:43 0.00940012
5 *359:41 0.0204296
6 *359:39 0.021072
7 *359:27 0.013868
8 *359:25 0.0166055
9 *359:21 0.00473638
10 *359:15 0.00916858
11 *359:13 0.00841027
12 *359:15 *367:15 0.00272665
13 *359:15 *369:15 0.000173482
14 *359:15 *382:13 0.000103147
15 *359:15 *393:15 0.000303609
16 *359:15 *396:15 0.0117394
17 *359:21 *676:25 5.43589e-05
18 *359:25 *650:23 0.0027276
19 *359:25 *657:15 0.0128422
20 *359:25 *661:23 0.000929309
21 *359:25 *664:27 0.0027276
22 *359:25 *675:27 0.000822083
23 *359:25 *676:19 7.12426e-05
24 *359:25 *676:27 0.00236256
25 *359:25 *677:23 0.00236256
26 *359:25 *693:17 0.00107533
27 *359:27 *735:29 0.0262593
28 *359:27 *736:16 0
29 *359:39 *720:7 5.31315e-07
30 *359:39 *735:27 9.14883e-05
31 *359:39 *736:16 0.000315355
32 *359:41 *693:11 0
33 *359:41 *695:13 0.000112317
34 *359:41 *696:11 0
35 *359:41 *697:11 0.00300129
36 *359:41 *702:12 0.00141043
37 *359:41 *711:11 0.000629995
38 *359:41 *713:11 0.00366634
39 *359:41 *719:9 0
40 *359:41 *729:9 0.000345385
41 *359:41 *731:9 0.000345385
42 *359:41 *735:9 0.000142505
43 *359:41 *736:6 0.00103315
44 *359:41 *737:9 0.000142505
45 *359:45 *360:35 0.0280028
46 *359:45 *375:31 0
47 *78:23 *359:41 0
48 *79:18 *359:41 0.00344338
49 *115:35 *359:41 0.00552936
50 *117:17 *359:41 0.00235109
51 *279:15 *359:15 0.000221699
52 *282:17 *359:15 0.00095839
53 *352:15 *359:25 0.00161844
54 *353:11 *359:15 0.0135907
55 *354:15 *359:15 0.0340425
56 *354:31 *359:45 0.0105001
57 *356:19 *359:15 2.58697e-05
58 *356:31 *359:41 0
59 *356:37 *359:41 0
60 *357:13 *359:13 0.000224391
*RES
1 *739:la_data_out_o[63] *359:13 21.4547 
2 *359:13 *359:15 69.5221 
3 *359:15 *359:21 35.865 
4 *359:21 *359:25 31.7123 
5 *359:25 *359:27 63.2688 
6 *359:27 *359:39 18.3613 
7 *359:39 *359:41 536.987 
8 *359:41 *359:43 15 
9 *359:43 *359:45 317.923 
10 *359:45 la_data_out[63] 31.095 
*END

*D_NET *360 0.316904
*CONN
*P la_data_out[64] O
*I *739:la_data_out_o[64] O *D ntt_wb_bridge
*CAP
1 la_data_out[64] 0.000750897
2 *739:la_data_out_o[64] 0.000787146
3 *360:35 0.00557853
4 *360:33 0.00482763
5 *360:31 0.0216626
6 *360:29 0.0216626
7 *360:27 0.00215056
8 *360:25 0.00256357
9 *360:19 0.00644767
10 *360:17 0.00682181
11 *360:19 *361:15 0.000366854
12 *360:19 *362:15 0.0359738
13 *360:19 *368:15 0.0320551
14 *360:19 *398:15 0.000215805
15 *360:19 *726:15 0.000174478
16 *360:27 *361:23 0
17 *360:27 *376:15 0.00193463
18 *360:27 *725:15 0.0114423
19 *360:27 *729:15 0.0108067
20 *360:31 *739:mem_rdata_i[12] 0.000186305
21 *360:31 *739:mem_rdata_i[13] 0.000131661
22 *360:31 *739:mem_rdata_i[3] 7.57449e-05
23 *360:31 *364:19 0
24 *360:31 *369:19 0.0678371
25 *360:31 *373:17 4.9834e-05
26 *360:31 *649:15 0
27 *360:31 *650:13 0.000103866
28 *360:31 *662:43 0.0029747
29 *360:31 *675:39 0.000158835
30 *360:31 *695:13 0.000242843
31 *360:31 *704:13 0.000131661
32 *360:31 *710:13 0.000103385
33 *360:31 *714:13 0.000214959
34 *360:31 *717:11 0.00923065
35 *360:31 *734:15 2.11066e-05
36 *360:35 *361:31 0.000625475
37 *360:35 *362:31 0.00382611
38 *360:35 *367:31 0.0194262
39 *360:35 *375:31 0
40 *360:35 *376:33 0
41 *101:19 *360:31 0.00394734
42 *276:15 *360:27 0.000166134
43 *279:15 *360:19 0.00130996
44 *353:11 *360:17 8.8182e-05
45 *354:31 *360:35 0.00173102
46 *356:39 *360:35 0.00390612
47 *357:13 *360:17 5.80588e-05
48 *357:15 *360:19 0.000203263
49 *358:15 *360:19 0.00592807
50 *359:45 *360:35 0.0280028
*RES
1 *739:la_data_out_o[64] *360:17 31.8038 
2 *360:17 *360:19 407.968 
3 *360:19 *360:25 35.075 
4 *360:25 *360:27 128.781 
5 *360:27 *360:29 15 
6 *360:29 *360:31 879.446 
7 *360:31 *360:33 15 
8 *360:33 *360:35 317.923 
9 *360:35 la_data_out[64] 31.4471 
*END

*D_NET *361 0.30421
*CONN
*P la_data_out[65] O
*I *739:la_data_out_o[65] O *D ntt_wb_bridge
*CAP
1 la_data_out[65] 0.000806643
2 *739:la_data_out_o[65] 0.00105767
3 *361:31 0.00605883
4 *361:29 0.00525219
5 *361:27 0.0157075
6 *361:25 0.0157075
7 *361:23 0.00335329
8 *361:21 0.00375146
9 *361:15 0.00699403
10 *361:13 0.00765354
11 *361:15 *362:15 0.0398925
12 *361:15 *398:15 0.0012619
13 *361:15 *726:15 0.0229142
14 *361:21 *362:21 0.000525486
15 *361:23 *394:15 0.000949116
16 *361:23 *701:15 0.00752373
17 *361:23 *729:15 0
18 *361:27 la_data_out[82] 0.023262
19 *361:27 *368:23 0.0683557
20 *361:27 *374:19 0
21 *361:27 *379:19 0.000134734
22 *361:27 *382:17 0
23 *361:27 *661:27 0
24 *361:27 *733:11 0.00992524
25 *361:27 *733:33 0.00131295
26 *361:27 *734:19 0
27 *361:31 *362:31 0.0276017
28 *361:31 *363:15 0.00363497
29 *361:31 *365:23 0.0218674
30 *361:31 *368:27 0.000332174
31 *281:17 *361:15 0.00193308
32 *352:7 *361:15 0.00432887
33 *353:11 *361:13 0.000101295
34 *354:31 *361:31 0.000746926
35 *358:15 *361:15 0.000271023
36 *360:19 *361:15 0.000366854
37 *360:27 *361:23 0
38 *360:35 *361:31 0.000625475
*RES
1 *739:la_data_out_o[65] *361:13 32.2878 
2 *361:13 *361:15 443.7 
3 *361:15 *361:21 37.54 
4 *361:21 *361:23 100.195 
5 *361:23 *361:25 15 
6 *361:25 *361:27 881.559 
7 *361:27 *361:29 15 
8 *361:29 *361:31 314.111 
9 *361:31 la_data_out[65] 32.5036 
*END

*D_NET *362 0.313567
*CONN
*P la_data_out[66] O
*I *739:la_data_out_o[66] O *D ntt_wb_bridge
*CAP
1 la_data_out[66] 0.000792075
2 *739:la_data_out_o[66] 0.000772661
3 *362:31 0.0054089
4 *362:29 0.00461682
5 *362:27 0.0197942
6 *362:25 0.0197942
7 *362:23 0.00317181
8 *362:21 0.00429064
9 *362:15 0.00647497
10 *362:13 0.0061288
11 *362:15 *368:15 0.00224753
12 *362:15 *398:15 0.00109302
13 *362:15 *726:15 1.40958e-05
14 *362:23 *657:15 0.00117117
15 *362:23 *662:31 0.00301614
16 *362:23 *676:27 0.00225646
17 *362:23 *696:15 0.0059485
18 *362:27 la_data_out[83] 0
19 *362:27 *695:19 0.0556547
20 *362:27 *707:11 0.0246306
21 *362:31 *363:15 0.00505795
22 *362:31 *367:31 0.0195564
23 *362:31 *368:27 1.61385e-05
24 *362:31 *375:29 0.000350498
25 *362:31 *378:31 0
26 *101:23 *362:23 0.000176157
27 *115:43 *362:27 0.0025318
28 *281:17 *362:15 0.00223831
29 *284:21 *362:31 0.00301895
30 *352:7 *362:15 0.00484748
31 *353:11 *362:13 8.6265e-05
32 *356:39 *362:31 0.000283394
33 *358:15 *362:15 0.000306373
34 *360:19 *362:15 0.0359738
35 *360:35 *362:31 0.00382611
36 *361:15 *362:15 0.0398925
37 *361:21 *362:21 0.000525486
38 *361:31 *362:31 0.0276017
*RES
1 *739:la_data_out_o[66] *362:13 31.8274 
2 *362:13 *362:15 437.03 
3 *362:15 *362:21 47.4 
4 *362:21 *362:23 121.158 
5 *362:23 *362:25 15 
6 *362:25 *362:27 891.419 
7 *362:27 *362:29 15 
8 *362:29 *362:31 316.97 
9 *362:31 la_data_out[66] 32.1514 
*END

*D_NET *363 0.327465
*CONN
*P la_data_out[67] O
*I *739:la_data_out_o[67] O *D ntt_wb_bridge
*CAP
1 la_data_out[67] 0.000787185
2 *739:la_data_out_o[67] 0.00013909
3 *363:15 0.00892736
4 *363:13 0.00814017
5 *363:11 0.0140654
6 *363:9 0.0140654
7 *363:7 0.0122257
8 *363:5 0.0123648
9 *363:7 *364:13 0.000112148
10 *363:7 *365:13 5.24727e-05
11 *363:7 *367:13 0.000702722
12 *363:7 *368:13 0.000643048
13 *363:7 *369:13 0.000583373
14 *363:7 *370:13 0.000523698
15 *363:7 *371:13 0.000464023
16 *363:7 *372:11 8.43682e-05
17 *363:7 *372:13 0.0424264
18 *363:7 *373:11 6.27273e-05
19 *363:7 *374:13 0.000284999
20 *363:7 *375:13 0.000225324
21 *363:7 *376:13 0.000150001
22 *363:7 *378:13 0.000105974
23 *363:7 *379:13 4.62994e-05
24 *363:7 *380:9 0.00312136
25 *363:7 *380:11 0.00123452
26 *363:7 *381:23 0.000240343
27 *363:7 *383:17 0.0319775
28 *363:7 *392:21 0.000240343
29 *363:11 *729:11 0.0608264
30 *363:15 *365:23 0.00173868
31 *363:15 *368:27 0.00101633
32 *363:15 *369:23 0.000455704
33 *363:15 *370:23 0.000180621
34 *363:15 *371:23 0.000181948
35 *363:15 *372:23 0.00478545
36 *77:33 *363:11 0.00354457
37 *143:19 *363:11 0
38 *288:23 *363:7 0.00012144
39 *291:13 *363:7 0.0011182
40 *293:13 *363:7 0.00110167
41 *352:19 *363:11 0.0656914
42 *353:11 *363:7 0
43 *354:31 *363:15 6.17969e-05
44 *356:31 *363:11 0.000455348
45 *356:37 *363:11 1.94234e-05
46 *356:39 *363:15 0.0234759
47 *361:31 *363:15 0.00363497
48 *362:31 *363:15 0.00505795
*RES
1 *739:la_data_out_o[67] *363:5 0.535733 
2 *363:5 *363:7 90.7293 
3 *363:7 *363:9 8 
4 *363:9 *363:11 864.304 
5 *363:11 *363:13 8 
6 *363:13 *363:15 45.0501 
7 *363:15 la_data_out[67] 24.9754 
*END

*D_NET *364 0.259056
*CONN
*P la_data_out[68] O
*I *739:la_data_out_o[68] O *D ntt_wb_bridge
*CAP
1 la_data_out[68] 0.000594472
2 *739:la_data_out_o[68] 0.00114934
3 *364:23 0.0108512
4 *364:21 0.0102568
5 *364:19 0.029623
6 *364:17 0.029623
7 *364:15 0.0148265
8 *364:13 0.0159758
9 *364:15 *375:15 0.0403103
10 *364:15 *379:15 0.00335398
11 *364:15 *390:15 0.00553492
12 *364:15 *394:15 0.0056389
13 *364:15 *701:15 0.00964697
14 *364:15 *711:15 0.00167283
15 *364:15 *725:23 0.0224322
16 *364:15 *737:21 7.51535e-06
17 *364:19 *650:13 3.57902e-05
18 *364:19 *661:35 0.000270328
19 *364:19 *662:43 0.000806232
20 *364:19 *688:27 0.0110512
21 *364:19 *695:13 8.69837e-05
22 *364:19 *704:13 4.60289e-05
23 *364:19 *710:13 3.11421e-05
24 *364:19 *714:13 7.55324e-05
25 *364:19 *716:11 0.0023217
26 *364:19 *717:11 0.0279214
27 *364:19 *731:11 0
28 *364:19 *734:15 6.10551e-06
29 *364:19 *735:11 0
30 *364:23 la_data_out[76] 0.00904616
31 *364:23 *375:31 0.00118588
32 *364:23 *376:33 0.000569555
33 *354:31 *364:23 0.00399211
34 *360:31 *364:19 0
35 *363:7 *364:13 0.000112148
*RES
1 *739:la_data_out_o[68] *364:13 35.773 
2 *364:13 *364:15 91.2464 
3 *364:15 *364:17 8 
4 *364:17 *364:19 886.136 
5 *364:19 *364:21 8 
6 *364:21 *364:23 43.7621 
7 *364:23 la_data_out[68] 21.4539 
*END

*D_NET *365 0.274474
*CONN
*P la_data_out[69] O
*I *739:la_data_out_o[69] O *D ntt_wb_bridge
*CAP
1 la_data_out[69] 0.000867273
2 *739:la_data_out_o[69] 0.000361145
3 *365:23 0.00440759
4 *365:21 0.00354032
5 *365:19 0.025335
6 *365:17 0.025335
7 *365:15 0.012546
8 *365:13 0.0129071
9 *365:15 *367:15 0.000388389
10 *365:15 *369:15 0.000366854
11 *365:15 *370:15 0.043095
12 *365:15 *381:15 0.0147053
13 *365:15 *382:13 0.000825412
14 *365:15 *383:33 0
15 *365:19 *370:19 0.0670066
16 *365:19 *372:17 9.17128e-06
17 *365:19 *683:27 0.00499803
18 *365:23 *368:27 0.018388
19 *365:23 *372:23 0.0016657
20 *365:23 *376:29 0.000110155
21 *277:15 *365:15 0.00580415
22 *281:19 *365:19 0
23 *282:19 *365:19 0
24 *291:13 *365:15 0
25 *298:15 *365:15 0.00452882
26 *301:21 *365:15 2.02872e-05
27 *302:17 *365:19 0
28 *353:11 *365:15 0.00360374
29 *361:31 *365:23 0.0218674
30 *363:7 *365:13 5.24727e-05
31 *363:15 *365:23 0.00173868
*RES
1 *739:la_data_out_o[69] *365:13 28.4029 
2 *365:13 *365:15 508.494 
3 *365:15 *365:17 15 
4 *365:17 *365:19 867.473 
5 *365:19 *365:21 15 
6 *365:21 *365:23 234.071 
7 *365:23 la_data_out[69] 32.8557 
*END

*D_NET *366 0.137453
*CONN
*P la_data_out[6] O
*I *739:la_data_out_o[6] O *D ntt_wb_bridge
*CAP
1 la_data_out[6] 0.0381136
2 *739:la_data_out_o[6] 0.00225996
3 *366:25 0.0381136
4 *366:23 0.0179856
5 *366:21 0.0202066
6 *366:17 0.00448099
7 *366:17 *399:15 0.0066054
8 *366:21 *399:21 0.000773719
9 *304:13 *366:17 0.000103542
10 *305:13 *366:17 0.000111462
11 *307:13 *366:17 0.000119736
12 *308:13 *366:17 0.000103711
13 *309:25 *366:21 0.00143957
14 *310:19 *366:17 0.00060395
15 *316:19 *366:17 0.00061595
16 *317:15 *366:17 0.00010722
17 *328:15 *366:17 0.000861362
18 *329:23 *366:21 0.00010083
19 *329:25 *366:21 0.00011563
20 *331:37 *366:21 0.00011563
21 *334:39 *366:21 0.000108097
22 *335:29 *366:21 0.00010083
23 *338:17 *366:17 0.00130788
24 *340:29 *366:17 3.41998e-06
25 *344:17 *366:17 9.37475e-05
26 *355:17 *366:17 0.00290066
*RES
1 *739:la_data_out_o[6] *366:17 47.3759 
2 *366:17 *366:21 16.0528 
3 *366:21 *366:23 57.9731 
4 *366:23 *366:25 8 
5 *366:25 la_data_out[6] 844.511 
*END

*D_NET *367 0.275191
*CONN
*P la_data_out[70] O
*I *739:la_data_out_o[70] O *D ntt_wb_bridge
*CAP
1 la_data_out[70] 0.000794627
2 *739:la_data_out_o[70] 0.000632756
3 *367:31 0.00343152
4 *367:29 0.0026369
5 *367:27 0.0239545
6 *367:25 0.0239545
7 *367:23 0.00162259
8 *367:21 0.00227175
9 *367:15 0.0093405
10 *367:13 0.00932409
11 *367:15 *369:15 0.000738164
12 *367:15 *371:15 0.0366137
13 *367:15 *389:15 0
14 *367:15 *393:15 0.0225564
15 *367:15 *396:15 0.000141967
16 *367:15 *397:15 0.0036246
17 *367:23 *389:27 0.000130652
18 *367:27 *373:17 0.0673401
19 *367:27 *649:15 0.00326498
20 *367:27 *662:43 0.00298196
21 *101:19 *367:27 0.00556438
22 *284:17 *367:27 0
23 *290:13 *367:23 0.000222146
24 *301:17 *367:21 0.000163974
25 *301:27 *367:23 0.00274809
26 *302:13 *367:23 0.00473607
27 *353:11 *367:15 0.000303609
28 *356:39 *367:31 0.00329662
29 *359:15 *367:15 0.00272665
30 *360:35 *367:31 0.0194262
31 *362:31 *367:31 0.0195564
32 *363:7 *367:13 0.000702722
33 *365:15 *367:15 0.000388389
*RES
1 *739:la_data_out_o[70] *367:13 30.9912 
2 *367:13 *367:15 429.407 
3 *367:15 *367:21 39.6529 
4 *367:21 *367:23 58.7457 
5 *367:23 *367:25 15 
6 *367:25 *367:27 860.43 
7 *367:27 *367:29 15 
8 *367:29 *367:31 209.297 
9 *367:31 la_data_out[70] 31.7993 
*END

*D_NET *368 0.302955
*CONN
*P la_data_out[71] O
*I *739:la_data_out_o[71] O *D ntt_wb_bridge
*CAP
1 la_data_out[71] 0.000902032
2 *739:la_data_out_o[71] 0.000849897
3 *368:27 0.00393741
4 *368:25 0.00303538
5 *368:23 0.0110786
6 *368:21 0.0110786
7 *368:19 0.00290441
8 *368:17 0.00298345
9 *368:15 0.00981656
10 *368:13 0.0105874
11 *368:15 *389:15 0.00725134
12 *368:15 *398:15 0.000189711
13 *368:15 *726:15 0.000210625
14 *368:19 *389:15 0
15 *368:19 *398:15 0.000911442
16 *368:19 *726:15 0.00539744
17 *368:23 *379:19 0.0683653
18 *368:23 *733:11 0.00866888
19 *368:23 *733:33 0.00118078
20 *368:27 *369:23 0.0160483
21 *368:27 *370:23 0.000374778
22 *368:27 *371:23 1.59071e-05
23 *368:27 *372:23 0.00213512
24 *368:27 *376:29 0.00010258
25 *368:27 *378:31 0.00012921
26 *279:15 *368:15 0.00284448
27 *299:15 *368:19 0
28 *300:15 *368:19 0.000976388
29 *357:15 *368:15 0.000229775
30 *358:15 *368:15 0.00769527
31 *360:19 *368:15 0.0320551
32 *361:27 *368:23 0.0683557
33 *361:31 *368:27 0.000332174
34 *362:15 *368:15 0.00224753
35 *362:31 *368:27 1.61385e-05
36 *363:7 *368:13 0.000643048
37 *363:15 *368:27 0.00101633
38 *365:23 *368:27 0.018388
*RES
1 *739:la_data_out_o[71] *368:13 34.7565 
2 *368:13 *368:15 414.876 
3 *368:15 *368:17 1.55357 
4 *368:17 *368:19 79.4704 
5 *368:19 *368:21 15 
6 *368:21 *368:23 873.811 
7 *368:23 *368:25 15 
8 *368:25 *368:27 204.056 
9 *368:27 la_data_out[71] 33.2079 
*END

*D_NET *369 0.312362
*CONN
*P la_data_out[72] O
*I *739:la_data_out_o[72] O *D ntt_wb_bridge
*CAP
1 la_data_out[72] 0.000927073
2 *739:la_data_out_o[72] 0.000559591
3 *369:23 0.00333941
4 *369:21 0.00241234
5 *369:19 0.0111019
6 *369:17 0.0111019
7 *369:15 0.0062537
8 *369:13 0.00681329
9 *369:15 *370:15 0.0424528
10 *369:15 *371:15 0.0418059
11 *369:15 *396:15 0.00010722
12 *369:15 *397:15 0.000842984
13 *369:19 *373:17 0.0675978
14 *369:19 *649:15 6.4063e-05
15 *369:19 *662:43 0.00341131
16 *369:23 *370:23 0.0143128
17 *369:23 *372:23 0.00226183
18 *101:19 *369:19 0.00394734
19 *277:15 *369:15 0.0033904
20 *353:11 *369:15 0.00345522
21 *359:15 *369:15 0.000173482
22 *360:31 *369:19 0.0678371
23 *363:7 *369:13 0.000583373
24 *363:15 *369:23 0.000455704
25 *365:15 *369:15 0.000366854
26 *367:15 *369:15 0.000738164
27 *368:27 *369:23 0.0160483
*RES
1 *739:la_data_out_o[72] *369:13 30.0704 
2 *369:13 *369:15 472.762 
3 *369:15 *369:17 15 
4 *369:17 *369:19 867.473 
5 *369:19 *369:21 15 
6 *369:21 *369:23 171.659 
7 *369:23 la_data_out[72] 33.56 
*END

*D_NET *370 0.305313
*CONN
*P la_data_out[73] O
*I *739:la_data_out_o[73] O *D ntt_wb_bridge
*CAP
1 la_data_out[73] 0.000952115
2 *739:la_data_out_o[73] 0.000523273
3 *370:23 0.00331752
4 *370:21 0.00236541
5 *370:19 0.0132976
6 *370:17 0.0132976
7 *370:15 0.00633079
8 *370:13 0.00685406
9 *370:15 *371:15 0.000368859
10 *370:15 *397:15 0.000728639
11 *370:19 *371:19 0.0670079
12 *370:19 *372:17 1.03972e-05
13 *370:19 *683:27 8.30566e-06
14 *370:23 *371:23 0.0133119
15 *370:23 *372:23 0.00187239
16 *277:15 *370:15 0.00400611
17 *353:11 *370:15 0.00311425
18 *363:7 *370:13 0.000523698
19 *363:15 *370:23 0.000180621
20 *365:15 *370:15 0.043095
21 *365:19 *370:19 0.0670066
22 *368:27 *370:23 0.000374778
23 *369:15 *370:15 0.0424528
24 *369:23 *370:23 0.0143128
*RES
1 *739:la_data_out_o[73] *370:13 29.61 
2 *370:13 *370:15 473.239 
3 *370:15 *370:17 15 
4 *370:17 *370:19 866.769 
5 *370:19 *370:21 15 
6 *370:21 *370:23 160.701 
7 *370:23 la_data_out[73] 33.9121 
*END

*D_NET *371 0.294489
*CONN
*P la_data_out[74] O
*I *739:la_data_out_o[74] O *D ntt_wb_bridge
*CAP
1 la_data_out[74] 0.000977157
2 *739:la_data_out_o[74] 0.000565775
3 *371:23 0.00462139
4 *371:21 0.00364423
5 *371:19 0.0133268
6 *371:17 0.0133268
7 *371:15 0.00628313
8 *371:13 0.0068489
9 *371:15 *393:15 0.00102407
10 *371:15 *396:15 0.000122968
11 *371:15 *397:15 0.00486564
12 *371:15 *530:15 0.0041109
13 *371:19 *372:17 0.0667396
14 *371:19 *661:27 0.000144657
15 *371:19 *683:27 1.09111e-05
16 *371:23 *372:23 0.00165314
17 *371:23 *378:31 0.00299813
18 *353:11 *371:15 0.00345522
19 *363:7 *371:13 0.000464023
20 *363:15 *371:23 0.000181948
21 *367:15 *371:15 0.0366137
22 *368:27 *371:23 1.59071e-05
23 *369:15 *371:15 0.0418059
24 *370:15 *371:15 0.000368859
25 *370:19 *371:19 0.0670079
26 *370:23 *371:23 0.0133119
*RES
1 *739:la_data_out_o[74] *371:13 30.206 
2 *371:13 *371:15 466.569 
3 *371:15 *371:17 15 
4 *371:17 *371:19 867.121 
5 *371:19 *371:21 15 
6 *371:21 *371:23 143.074 
7 *371:23 la_data_out[74] 34.2643 
*END

*D_NET *372 0.274737
*CONN
*P la_data_out[75] O
*I *739:la_data_out_o[75] O *D ntt_wb_bridge
*CAP
1 la_data_out[75] 0.000921311
2 *739:la_data_out_o[75] 0.000341171
3 *372:23 0.00688305
4 *372:17 0.0196591
5 *372:15 0.0136974
6 *372:13 0.00985295
7 *372:11 0.0101941
8 *372:13 *373:13 0.0430305
9 *372:13 *380:11 0.000604604
10 *372:13 *382:13 0.000212642
11 *372:13 *383:33 0.00012144
12 *372:17 *374:19 0.0258832
13 *372:17 *661:27 0.0177053
14 *372:23 *375:29 1.88299e-05
15 *372:23 *376:29 0.00157742
16 *372:23 *378:31 0.000155832
17 *291:13 *372:13 0.000140203
18 *353:11 *372:13 0
19 *354:31 *372:23 9.45444e-05
20 *363:7 *372:11 8.43682e-05
21 *363:7 *372:13 0.0424264
22 *363:15 *372:23 0.00478545
23 *365:19 *372:17 9.17128e-06
24 *365:23 *372:23 0.0016657
25 *368:27 *372:23 0.00213512
26 *369:23 *372:23 0.00226183
27 *370:19 *372:17 1.03972e-05
28 *370:23 *372:23 0.00187239
29 *371:19 *372:17 0.0667396
30 *371:23 *372:23 0.00165314
*RES
1 *739:la_data_out_o[75] *372:11 20.372 
2 *372:11 *372:13 82.9173 
3 *372:13 *372:15 8 
4 *372:15 *372:17 863.599 
5 *372:17 *372:23 38.5531 
6 *372:23 la_data_out[75] 18.3839 
*END

*D_NET *373 0.28577
*CONN
*P la_data_out[76] O
*I *739:la_data_out_o[76] O *D ntt_wb_bridge
*CAP
1 la_data_out[76] 0.00286077
2 *739:la_data_out_o[76] 0.00044702
3 *373:17 0.0141328
4 *373:15 0.011272
5 *373:13 0.00960624
6 *373:11 0.0100533
7 la_data_out[76] la_data_out[77] 0.00756556
8 *373:13 *382:13 0.00519259
9 *373:13 *392:13 0.0269289
10 *373:17 *649:15 0.000159995
11 *373:17 *662:43 0.00341131
12 *101:19 *373:17 0.00505183
13 *353:11 *373:13 0.00110324
14 *354:31 la_data_out[76] 0.000857888
15 *360:31 *373:17 4.9834e-05
16 *363:7 *373:11 6.27273e-05
17 *364:23 la_data_out[76] 0.00904616
18 *367:27 *373:17 0.0673401
19 *369:19 *373:17 0.0675978
20 *372:13 *373:13 0.0430305
*RES
1 *739:la_data_out_o[76] *373:11 20.968 
2 *373:11 *373:13 80.1696 
3 *373:13 *373:15 8 
4 *373:15 *373:17 868.529 
5 *373:17 la_data_out[76] 47.9886 
*END

*D_NET *374 0.272716
*CONN
*P la_data_out[77] O
*I *739:la_data_out_o[77] O *D ntt_wb_bridge
*CAP
1 la_data_out[77] 0.00276731
2 *739:la_data_out_o[77] 0.00103394
3 *374:19 0.0160654
4 *374:17 0.0132981
5 *374:15 0.010693
6 *374:13 0.011727
7 *374:15 *376:15 0.0406951
8 *374:15 *385:15 0.0345966
9 *374:15 *725:23 0
10 *374:15 *737:23 0.00740717
11 *374:19 *382:17 6.15616e-05
12 *374:19 *383:37 0.0677701
13 *374:19 *661:27 0.0186183
14 la_data_out[76] la_data_out[77] 0.00756556
15 *276:15 *374:15 0.00444701
16 *352:7 *374:15 0.00139158
17 *354:31 la_data_out[77] 0.00840982
18 *361:27 *374:19 0
19 *363:7 *374:13 0.000284999
20 *372:17 *374:19 0.0258832
*RES
1 *739:la_data_out_o[77] *374:13 31.1566 
2 *374:13 *374:15 80.5131 
3 *374:15 *374:17 8 
4 *374:17 *374:19 879.798 
5 *374:19 la_data_out[77] 46.9756 
*END

*D_NET *375 0.299356
*CONN
*P la_data_out[78] O
*I *739:la_data_out_o[78] O *D ntt_wb_bridge
*CAP
1 la_data_out[78] 0.000632819
2 *739:la_data_out_o[78] 0.00131911
3 *375:31 0.0026452
4 *375:29 0.00321585
5 *375:19 0.0125179
6 *375:17 0.0113145
7 *375:15 0.0105631
8 *375:13 0.0118822
9 *375:15 *378:15 0.0335791
10 *375:15 *379:15 0
11 *375:15 *386:23 0.00484954
12 *375:15 *390:15 0.000130187
13 *375:15 *394:15 0.000112764
14 *375:15 *683:23 0.00828659
15 *375:15 *711:15 0.000481574
16 *375:19 *378:27 0.0688788
17 *375:19 *690:19 0.00217811
18 *375:19 *708:11 0.0040243
19 *375:19 *724:13 0.000584873
20 *375:29 la_data_out[81] 0.00199111
21 *375:29 la_data_out[84] 0.000169431
22 *375:29 *376:29 0.00242346
23 *375:29 *383:41 0.000104089
24 *375:31 *376:33 0.00115625
25 *284:21 *375:29 0.000120171
26 *353:19 *375:15 0.00462557
27 *354:27 *375:19 0.0690794
28 *354:31 *375:29 0.000399364
29 *359:45 *375:31 0
30 *360:35 *375:31 0
31 *362:31 *375:29 0.000350498
32 *363:7 *375:13 0.000225324
33 *364:15 *375:15 0.0403103
34 *364:23 *375:31 0.00118588
35 *372:23 *375:29 1.88299e-05
*RES
1 *739:la_data_out_o[78] *375:13 36.6826 
2 *375:13 *375:15 81.3717 
3 *375:15 *375:17 8 
4 *375:17 *375:19 883.319 
5 *375:19 *375:29 39.6038 
6 *375:29 *375:31 53.0286 
7 *375:31 la_data_out[78] 28.9821 
*END

*D_NET *376 0.28223
*CONN
*P la_data_out[79] O
*I *739:la_data_out_o[79] O *D ntt_wb_bridge
*CAP
1 la_data_out[79] 0.000572084
2 *739:la_data_out_o[79] 0.00120312
3 *376:33 0.0017786
4 *376:29 0.00228461
5 *376:19 0.0141544
6 *376:17 0.0130763
7 *376:15 0.00959613
8 *376:13 0.0107993
9 *376:15 *379:15 0.0398333
10 *376:15 *385:15 0.000255811
11 *376:15 *725:15 0.00517816
12 *376:15 *725:23 0.000183076
13 *376:15 *729:15 0.000222116
14 *376:19 *379:19 0.0686345
15 *376:19 *733:11 0.00493624
16 *376:19 *733:33 0.000940287
17 *376:19 *734:19 0.0596335
18 *376:29 la_data_out[81] 0
19 *376:29 la_data_out[84] 0.000229252
20 *105:19 *376:19 0
21 *360:27 *376:15 0.00193463
22 *360:35 *376:33 0
23 *363:7 *376:13 0.000150001
24 *364:23 *376:33 0.000569555
25 *365:23 *376:29 0.000110155
26 *368:27 *376:29 0.00010258
27 *372:23 *376:29 0.00157742
28 *374:15 *376:15 0.0406951
29 *375:29 *376:29 0.00242346
30 *375:31 *376:33 0.00115625
*RES
1 *739:la_data_out_o[79] *376:13 31.6443 
2 *376:13 *376:15 78.9675 
3 *376:15 *376:17 8 
4 *376:17 *376:19 877.685 
5 *376:19 *376:29 40.1624 
6 *376:29 *376:33 49.9243 
7 *376:33 la_data_out[79] 12.9257 
*END

*D_NET *377 0.135604
*CONN
*P la_data_out[7] O
*I *739:la_data_out_o[7] O *D ntt_wb_bridge
*CAP
1 la_data_out[7] 0.0389521
2 *739:la_data_out_o[7] 0.00185513
3 *377:33 0.0389521
4 *377:31 0.0146738
5 *377:29 0.0147765
6 *377:23 0.00107115
7 *377:17 0.00282364
8 *377:17 *388:17 0.00558608
9 *377:31 *399:23 0
10 *126:31 *377:31 0.00753525
11 *307:13 *377:17 0.000102752
12 *310:19 *377:17 0.000485882
13 *311:23 *377:31 0
14 *312:13 *377:17 0.00558608
15 *316:25 *377:23 0.000904955
16 *316:33 *377:23 0
17 *327:15 *377:17 0.00097878
18 *327:29 *377:23 1.1531e-05
19 *333:25 *377:23 0.000515077
20 *335:21 *377:29 0.00027278
21 *341:45 *377:29 0.000520799
*RES
1 *739:la_data_out_o[7] *377:17 41.1548 
2 *377:17 *377:23 37.5268 
3 *377:23 *377:29 29.6596 
4 *377:29 *377:31 56.728 
5 *377:31 *377:33 8 
6 *377:33 la_data_out[7] 863.527 
*END

*D_NET *378 0.27328
*CONN
*P la_data_out[80] O
*I *739:la_data_out_o[80] O *D ntt_wb_bridge
*CAP
1 la_data_out[80] 0.00105968
2 *739:la_data_out_o[80] 0.00134822
3 *378:31 0.00292588
4 *378:29 0.0018662
5 *378:27 0.0137058
6 *378:25 0.0137058
7 *378:23 0.00235226
8 *378:21 0.0025029
9 *378:15 0.00614367
10 *378:13 0.00734125
11 *378:15 *384:21 0.00440695
12 *378:15 *711:15 0.00685646
13 *378:15 *728:15 0.00535835
14 *378:23 *384:21 0.000709362
15 *378:23 *656:15 0.00545231
16 *378:23 *668:19 0.00493459
17 *378:23 *675:27 0
18 *378:23 *678:19 2.02872e-05
19 *378:23 *711:15 0.00105167
20 *378:23 *728:15 0.000149509
21 *378:27 *650:19 0.0573927
22 *378:27 *690:19 0.00261343
23 *378:27 *708:11 0.0035165
24 *378:27 *724:13 0.000670717
25 *78:25 *378:27 0
26 *105:23 *378:23 0.000441978
27 *353:19 *378:15 0.0208322
28 *354:27 *378:27 7.40941e-05
29 *362:31 *378:31 0
30 *363:7 *378:13 0.000105974
31 *368:27 *378:31 0.00012921
32 *371:23 *378:31 0.00299813
33 *372:23 *378:31 0.000155832
34 *375:15 *378:15 0.0335791
35 *375:19 *378:27 0.0688788
*RES
1 *739:la_data_out_o[80] *378:13 37.1704 
2 *378:13 *378:15 61.9659 
3 *378:15 *378:21 24.7296 
4 *378:21 *378:23 94.0014 
5 *378:23 *378:25 15 
6 *378:25 *378:27 882.967 
7 *378:27 *378:29 15 
8 *378:29 *378:31 46.3586 
9 *378:31 la_data_out[80] 34.6164 
*END

*D_NET *379 0.258481
*CONN
*P la_data_out[81] O
*I *739:la_data_out_o[81] O *D ntt_wb_bridge
*CAP
1 la_data_out[81] 0.00146495
2 *739:la_data_out_o[81] 0.00106049
3 *379:19 0.0128538
4 *379:17 0.0113888
5 *379:15 0.0143263
6 *379:13 0.0153868
7 *379:15 *725:23 0.00284028
8 *379:15 *729:15 0.00799083
9 *379:15 *737:21 4.62843e-05
10 *379:19 *733:11 0.00564579
11 *379:19 *733:33 0.000995487
12 *379:19 *734:19 2.31765e-05
13 *284:21 la_data_out[81] 0.000104089
14 *354:31 la_data_out[81] 0.00199497
15 *361:27 *379:19 0.000134734
16 *363:7 *379:13 4.62994e-05
17 *364:15 *379:15 0.00335398
18 *368:23 *379:19 0.0683653
19 *375:15 *379:15 0
20 *375:29 la_data_out[81] 0.00199111
21 *376:15 *379:15 0.0398333
22 *376:19 *379:19 0.0686345
23 *376:29 la_data_out[81] 0
*RES
1 *739:la_data_out_o[81] *379:13 32.1321 
2 *379:13 *379:15 76.3056 
3 *379:15 *379:17 8 
4 *379:17 *379:19 879.798 
5 *379:19 la_data_out[81] 36.1052 
*END

*D_NET *380 0.179199
*CONN
*P la_data_out[82] O
*I *739:la_data_out_o[82] O *D ntt_wb_bridge
*CAP
1 la_data_out[82] 0.0293397
2 *739:la_data_out_o[82] 0.000824059
3 *380:13 0.0293397
4 *380:11 0.0157026
5 *380:9 0.0165266
6 la_data_out[82] *382:17 0
7 la_data_out[82] *383:37 0
8 la_data_out[82] *733:11 0.0056338
9 la_data_out[82] *733:33 0.00154541
10 *380:9 *381:13 0.000348116
11 *380:9 *382:11 0.000116969
12 *380:9 *383:15 0.000754166
13 *380:9 *384:11 2.5802e-06
14 *380:11 *383:17 0.0319691
15 *380:11 *384:11 0.000191202
16 *380:11 *385:13 0.000398175
17 *380:11 *386:13 0.000291172
18 *380:11 *387:13 0.000265131
19 *380:11 *389:13 0.000219151
20 *380:11 *390:13 0.000155782
21 *380:11 *391:13 9.9801e-05
22 *380:11 *392:11 4.81737e-05
23 *380:11 *393:13 0.000359078
24 *380:11 *394:13 0.000630701
25 *380:11 *395:13 0.000571026
26 *380:11 *396:13 0.000511352
27 *380:11 *397:13 0.000430595
28 *380:11 *398:13 0.000392002
29 *380:11 *529:13 0.000169765
30 *380:11 *530:13 0.000134783
31 *380:11 *531:17 0.000653982
32 *380:11 *731:41 7.66827e-05
33 *273:13 *380:11 0.000319692
34 *274:13 *380:11 0.000177996
35 *275:13 *380:11 0.000212977
36 *276:13 *380:11 0.000138821
37 *277:13 *380:11 3.73592e-05
38 *278:13 *380:11 0.000122436
39 *279:13 *380:11 0.000684203
40 *280:13 *380:11 0.000340558
41 *281:13 *380:11 0.000546493
42 *282:13 *380:11 0.000505178
43 *284:11 *380:11 0.000193754
44 *284:13 *380:11 0.00237127
45 *285:11 *380:11 0.000176965
46 *285:13 *380:11 0.000460065
47 *286:11 *380:11 8.06172e-05
48 *286:13 *380:11 0.00125599
49 *287:11 *380:11 0.000114965
50 *287:13 *380:11 0.000440901
51 *288:17 *380:11 0.000112148
52 *289:11 *380:11 6.12648e-05
53 *289:13 *380:11 0.00010457
54 *290:11 *380:11 4.50084e-05
55 *291:11 *380:11 5.40725e-05
56 *292:13 *380:11 0.000678029
57 *293:11 *380:11 0.000197611
58 *295:17 *380:11 0.000322038
59 *295:31 *380:11 0.000549828
60 *296:13 *380:11 0.000499005
61 *297:11 *380:11 0.000190196
62 *297:13 *380:11 0.00114166
63 *298:13 *380:11 0.000379655
64 *299:13 *380:11 0.000316287
65 *300:13 *380:11 0.000260306
66 *301:17 *380:11 0.000153303
67 *302:11 *380:11 2.96653e-05
68 *361:27 la_data_out[82] 0.023262
69 *363:7 *380:9 0.00312136
70 *363:7 *380:11 0.00123452
71 *372:13 *380:11 0.000604604
*RES
1 *739:la_data_out_o[82] *380:9 6.2776 
2 *380:9 *380:11 68.8781 
3 *380:11 *380:13 8 
4 *380:13 la_data_out[82] 879.725 
*END

*D_NET *381 0.158795
*CONN
*P la_data_out[83] O
*I *739:la_data_out_o[83] O *D ntt_wb_bridge
*CAP
1 la_data_out[83] 0.0284947
2 *739:la_data_out_o[83] 0.000561564
3 *381:25 0.0284947
4 *381:23 0.00712953
5 *381:21 0.00737113
6 *381:15 0.00520202
7 *381:13 0.00552197
8 la_data_out[83] *704:19 0.0179371
9 la_data_out[83] *707:11 0
10 *381:15 *382:13 0.00422498
11 *381:23 *383:17 0.000688335
12 *381:23 *392:21 0.0062761
13 *277:13 *381:21 0
14 *278:13 *381:21 0
15 *284:13 *381:23 0.00371586
16 *288:23 *381:23 0.0124483
17 *291:13 *381:23 0.000748303
18 *293:13 *381:23 0.00359424
19 *353:23 la_data_out[83] 0.0110923
20 *362:27 la_data_out[83] 0
21 *363:7 *381:23 0.000240343
22 *365:15 *381:15 0.0147053
23 *380:9 *381:13 0.000348116
*RES
1 *739:la_data_out_o[83] *381:13 30.2658 
2 *381:13 *381:15 161.178 
3 *381:15 *381:21 34.0186 
4 *381:21 *381:23 256.464 
5 *381:23 *381:25 15 
6 *381:25 la_data_out[83] 880.958 
*END

*D_NET *382 0.203617
*CONN
*P la_data_out[84] O
*I *739:la_data_out_o[84] O *D ntt_wb_bridge
*CAP
1 la_data_out[84] 0.00303614
2 *739:la_data_out_o[84] 0.00046847
3 *382:17 0.0277828
4 *382:15 0.0247466
5 *382:13 0.0110129
6 *382:11 0.0114814
7 *382:13 *392:13 0.0269289
8 *382:13 *396:15 0.000160647
9 *382:13 *397:15 0.0014669
10 *382:13 *531:17 0.00299371
11 *382:17 *383:37 0.0675849
12 *382:17 *733:33 0.000399322
13 la_data_out[82] *382:17 0
14 *138:13 la_data_out[84] 0
15 *277:15 *382:13 0.010709
16 *301:21 *382:13 0.000346987
17 *353:11 *382:13 0.00336245
18 *359:15 *382:13 0.000103147
19 *361:27 *382:17 0
20 *365:15 *382:13 0.000825412
21 *372:13 *382:13 0.000212642
22 *373:13 *382:13 0.00519259
23 *374:19 *382:17 6.15616e-05
24 *375:29 la_data_out[84] 0.000169431
25 *376:29 la_data_out[84] 0.000229252
26 *380:9 *382:11 0.000116969
27 *381:15 *382:13 0.00422498
*RES
1 *739:la_data_out_o[84] *382:11 22.5409 
2 *382:11 *382:13 70.6384 
3 *382:13 *382:15 8 
4 *382:15 *382:17 865.008 
5 *382:17 la_data_out[84] 42.0994 
*END

*D_NET *383 0.261637
*CONN
*P la_data_out[85] O
*I *739:la_data_out_o[85] O *D ntt_wb_bridge
*CAP
1 la_data_out[85] 0.000728239
2 *739:la_data_out_o[85] 0.000421553
3 *383:41 0.00145703
4 *383:39 0.000728788
5 *383:37 0.0109843
6 *383:35 0.0109843
7 *383:33 0.0018792
8 *383:31 0.00209665
9 *383:27 0.000552874
10 *383:17 0.00625754
11 *383:15 0.00634367
12 *383:27 *530:13 0
13 *383:31 *389:23 0.000316273
14 *383:31 *395:21 0.000314173
15 *383:37 *733:33 0.000399322
16 la_data_out[82] *383:37 0
17 *284:21 *383:41 0.00534774
18 *288:23 *383:17 0.00124184
19 *290:13 *383:27 0.000762937
20 *291:13 *383:33 0.00372909
21 *302:13 *383:27 0.000767754
22 *302:21 *383:41 0.00535404
23 *363:7 *383:17 0.0319775
24 *365:15 *383:33 0
25 *372:13 *383:33 0.00012144
26 *374:19 *383:37 0.0677701
27 *375:29 *383:41 0.000104089
28 *380:9 *383:15 0.000754166
29 *380:11 *383:17 0.0319691
30 *381:23 *383:17 0.000688335
31 *382:17 *383:37 0.0675849
*RES
1 *739:la_data_out_o[85] *383:15 20.0737 
2 *383:15 *383:17 59.304 
3 *383:17 *383:27 49.0304 
4 *383:27 *383:31 19.7229 
5 *383:31 *383:33 42.0707 
6 *383:33 *383:35 15 
7 *383:35 *383:37 866.064 
8 *383:37 *383:39 15 
9 *383:39 *383:41 57.3164 
10 *383:41 la_data_out[85] 31.4471 
*END

*D_NET *384 0.178055
*CONN
*P la_data_out[86] O
*I *739:la_data_out_o[86] O *D ntt_wb_bridge
*CAP
1 la_data_out[86] 0.0401733
2 *739:la_data_out_o[86] 0.00192478
3 *384:23 0.0401733
4 *384:21 0.00546203
5 *384:19 0.00734214
6 *384:11 0.00380489
7 la_data_out[86] *530:19 0
8 la_data_out[86] *703:11 0.00322498
9 *384:19 *386:21 0.0036115
10 *384:19 *668:11 0.00143152
11 *384:19 *676:19 0.00419486
12 *384:21 *386:23 0.0339298
13 *384:21 *683:23 2.4754e-05
14 *384:21 *728:15 0.0250177
15 *77:49 la_data_out[86] 0
16 *105:23 *384:21 0.00242938
17 *378:15 *384:21 0.00440695
18 *378:23 *384:21 0.000709362
19 *380:9 *384:11 2.5802e-06
20 *380:11 *384:11 0.000191202
*RES
1 *739:la_data_out_o[86] *384:11 43.7105 
2 *384:11 *384:19 41.5045 
3 *384:19 *384:21 372.236 
4 *384:21 *384:23 15 
5 *384:23 la_data_out[86] 901.03 
*END

*D_NET *385 0.208373
*CONN
*P la_data_out[87] O
*I *739:la_data_out_o[87] O *D ntt_wb_bridge
*CAP
1 la_data_out[87] 0.0298774
2 *739:la_data_out_o[87] 0.00107733
3 *385:17 0.0298774
4 *385:15 0.0125055
5 *385:13 0.0135829
6 la_data_out[87] *651:11 0.0255843
7 *385:15 *387:15 0.0420864
8 *77:57 la_data_out[87] 0.0047997
9 *78:53 la_data_out[87] 0.00141631
10 *274:15 *385:15 0.00505774
11 *275:15 *385:15 0.0058392
12 *276:15 *385:15 0.00106467
13 *352:7 *385:15 0.000353606
14 *374:15 *385:15 0.0345966
15 *376:15 *385:15 0.000255811
16 *380:11 *385:13 0.000398175
*RES
1 *739:la_data_out_o[87] *385:13 31.8123 
2 *385:13 *385:15 83.3467 
3 *385:15 *385:17 8 
4 *385:17 la_data_out[87] 893.811 
*END

*D_NET *386 0.1811
*CONN
*P la_data_out[88] O
*I *739:la_data_out_o[88] O *D ntt_wb_bridge
*CAP
1 la_data_out[88] 0.0400974
2 *739:la_data_out_o[88] 0.00162493
3 *386:25 0.0400974
4 *386:23 0.0059056
5 *386:21 0.00728456
6 *386:13 0.00300389
7 la_data_out[88] *670:15 0
8 *386:13 *668:17 0.000122566
9 *386:21 *668:11 7.12426e-05
10 *386:21 *676:19 9.81333e-06
11 *386:21 *713:15 0.00646636
12 *386:23 *390:15 0.00590527
13 *386:23 *683:23 0.0267393
14 *105:23 *386:23 0.000958701
15 *352:13 *386:21 6.26221e-05
16 *353:17 *386:21 6.81707e-05
17 *375:15 *386:23 0.00484954
18 *380:11 *386:13 0.000291172
19 *384:19 *386:21 0.0036115
20 *384:21 *386:23 0.0339298
*RES
1 *739:la_data_out_o[88] *386:13 41.4782 
2 *386:13 *386:21 38.0438 
3 *386:21 *386:23 408.444 
4 *386:23 *386:25 15 
5 *386:25 la_data_out[88] 900.678 
*END

*D_NET *387 0.204777
*CONN
*P la_data_out[89] O
*I *739:la_data_out_o[89] O *D ntt_wb_bridge
*CAP
1 la_data_out[89] 0.0396924
2 *739:la_data_out_o[89] 0.00109763
3 *387:17 0.0396924
4 *387:15 0.0113654
5 *387:13 0.012463
6 *387:15 *391:15 0.0448303
7 *273:15 *387:15 0.00567216
8 *274:15 *387:15 0.000398587
9 *275:15 *387:15 0.000259099
10 *276:15 *387:15 0.000351919
11 *280:15 *387:15 0.00585919
12 *297:17 la_data_out[89] 0
13 *352:7 *387:15 0.000742899
14 *380:11 *387:13 0.000265131
15 *385:15 *387:15 0.0420864
*RES
1 *739:la_data_out_o[89] *387:13 30.8915 
2 *387:13 *387:15 87.3824 
3 *387:15 *387:17 8 
4 *387:17 la_data_out[89] 893.107 
*END

*D_NET *388 0.151884
*CONN
*P la_data_out[8] O
*I *739:la_data_out_o[8] O *D ntt_wb_bridge
*CAP
1 la_data_out[8] 0.039502
2 *739:la_data_out_o[8] 0.00219805
3 *388:29 0.039502
4 *388:27 0.0114905
5 *388:25 0.0122092
6 *388:17 0.00291673
7 *272:23 *388:25 2.33476e-05
8 *305:13 *388:17 0.000107542
9 *307:13 *388:17 0.000115816
10 *308:13 *388:17 0.000100317
11 *310:19 *388:17 0.000581315
12 *311:23 *388:25 6.85071e-05
13 *312:13 *388:17 0.000739325
14 *322:23 *388:27 0.0277015
15 *323:21 *388:25 0.000214083
16 *324:15 *388:17 0.00152582
17 *325:15 *388:17 0.00123035
18 *327:15 *388:17 0.000141945
19 *333:31 *388:27 0
20 *335:21 *388:25 0.000217497
21 *337:17 *388:17 0.00144505
22 *344:17 *388:17 0.00426668
23 *377:17 *388:17 0.00558608
*RES
1 *739:la_data_out_o[8] *388:17 44.6292 
2 *388:17 *388:25 19.7243 
3 *388:25 *388:27 53.1216 
4 *388:27 *388:29 8 
5 *388:29 la_data_out[8] 875.5 
*END

*D_NET *389 0.163196
*CONN
*P la_data_out[90] O
*I *739:la_data_out_o[90] O *D ntt_wb_bridge
*CAP
1 la_data_out[90] 0.0293268
2 *739:la_data_out_o[90] 0.000734254
3 *389:31 0.0293268
4 *389:29 0.00462528
5 *389:27 0.006766
6 *389:23 0.00297651
7 *389:15 0.00863564
8 *389:13 0.0085341
9 la_data_out[90] *692:11 0.0282335
10 *389:15 *393:15 0
11 *389:15 *395:15 0.00167245
12 *389:23 *395:21 0.000180081
13 *389:27 *393:23 0
14 *389:27 *395:23 0
15 *389:29 *393:23 0.0135071
16 *278:15 *389:15 0.00779904
17 *282:17 *389:15 0.00171638
18 *288:17 *389:15 0.000921458
19 *299:15 *389:15 0.00367921
20 *301:27 *389:27 0.00387022
21 *301:27 *389:29 0
22 *356:19 *389:15 0.00277422
23 *367:15 *389:15 0
24 *367:23 *389:27 0.000130652
25 *368:15 *389:15 0.00725134
26 *368:19 *389:15 0
27 *380:11 *389:13 0.000219151
28 *383:31 *389:23 0.000316273
*RES
1 *739:la_data_out_o[90] *389:13 33.7336 
2 *389:13 *389:15 304.583 
3 *389:15 *389:23 42.9671 
4 *389:23 *389:27 48.0261 
5 *389:27 *389:29 145.694 
6 *389:29 *389:31 15 
7 *389:31 la_data_out[90] 874.619 
*END

*D_NET *390 0.187216
*CONN
*P la_data_out[91] O
*I *739:la_data_out_o[91] O *D ntt_wb_bridge
*CAP
1 la_data_out[91] 0.0399879
2 *739:la_data_out_o[91] 0.00141851
3 *390:17 0.0399879
4 *390:15 0.0080512
5 *390:13 0.00946971
6 *390:15 *394:15 0.0439619
7 *390:15 *683:23 0.030744
8 *390:15 *701:15 0.00186892
9 *105:23 *390:15 0
10 *276:19 la_data_out[91] 0
11 *364:15 *390:15 0.00553492
12 *375:15 *390:15 0.000130187
13 *380:11 *390:13 0.000155782
14 *386:23 *390:15 0.00590527
*RES
1 *739:la_data_out_o[91] *390:13 44.5418 
2 *390:13 *390:15 507.541 
3 *390:15 *390:17 15 
4 *390:17 la_data_out[91] 899.974 
*END

*D_NET *391 0.212507
*CONN
*P la_data_out[92] O
*I *739:la_data_out_o[92] O *D ntt_wb_bridge
*CAP
1 la_data_out[92] 0.0395932
2 *739:la_data_out_o[92] 0.000939662
3 *391:17 0.0395932
4 *391:15 0.0123775
5 *391:13 0.0133172
6 *391:15 *398:15 0.0445434
7 *391:15 *726:15 0.00116356
8 *273:15 *391:15 0.000540867
9 *274:15 *391:15 0.000501959
10 *275:15 *391:15 0.000477541
11 *276:15 *391:15 0.000238294
12 *280:15 *391:15 0.000496517
13 *296:15 *391:15 0.00391968
14 *300:15 *391:15 0.00716104
15 *352:7 *391:15 0.00204562
16 *358:15 *391:15 0.000667356
17 *380:11 *391:13 9.9801e-05
18 *387:15 *391:15 0.0448303
*RES
1 *739:la_data_out_o[92] *391:13 29.8624 
2 *391:13 *391:15 93.4789 
3 *391:15 *391:17 8 
4 *391:17 la_data_out[92] 892.403 
*END

*D_NET *392 0.192458
*CONN
*P la_data_out[93] O
*I *739:la_data_out_o[93] O *D ntt_wb_bridge
*CAP
1 la_data_out[93] 0.0384144
2 *739:la_data_out_o[93] 0.000327194
3 *392:23 0.0384144
4 *392:21 0.00457663
5 *392:19 0.00472719
6 *392:13 0.00488176
7 *392:11 0.0050584
8 la_data_out[93] *529:19 0
9 *77:83 la_data_out[93] 0.000829236
10 *78:67 la_data_out[93] 0.00224734
11 *288:23 *392:21 0.00946988
12 *293:13 *392:21 0.0230896
13 *363:7 *392:21 0.000240343
14 *373:13 *392:13 0.0269289
15 *380:11 *392:11 4.81737e-05
16 *381:23 *392:21 0.0062761
17 *382:13 *392:13 0.0269289
*RES
1 *739:la_data_out_o[93] *392:11 21.2579 
2 *392:11 *392:13 49.8587 
3 *392:13 *392:19 25.0818 
4 *392:19 *392:21 254.558 
5 *392:21 *392:23 15 
6 *392:23 la_data_out[93] 881.31 
*END

*D_NET *393 0.186134
*CONN
*P la_data_out[94] O
*I *739:la_data_out_o[94] O *D ntt_wb_bridge
*CAP
1 la_data_out[94] 0.0395913
2 *739:la_data_out_o[94] 0.000661708
3 *393:25 0.0395913
4 *393:23 0.0063099
5 *393:21 0.00679643
6 *393:15 0.0049507
7 *393:13 0.00512587
8 *393:15 *395:15 0.012435
9 *393:15 *396:15 0.00485569
10 *393:15 *529:15 0.00135904
11 *393:15 *530:15 0.000619972
12 *393:21 *395:21 0.000892743
13 *393:21 *731:41 0.000208542
14 *393:23 *395:23 0.0243329
15 *295:27 *393:21 0.000631728
16 *298:21 *393:21 2.09739e-05
17 *301:27 *393:23 0
18 *359:15 *393:15 0.000303609
19 *367:15 *393:15 0.0225564
20 *371:15 *393:15 0.00102407
21 *380:11 *393:13 0.000359078
22 *389:15 *393:15 0
23 *389:27 *393:23 0
24 *389:29 *393:23 0.0135071
*RES
1 *739:la_data_out_o[94] *393:13 31.8746 
2 *393:13 *393:15 273.615 
3 *393:15 *393:21 42.8221 
4 *393:21 *393:23 263.61 
5 *393:23 *393:25 15 
6 *393:25 la_data_out[94] 874.267 
*END

*D_NET *394 0.185962
*CONN
*P la_data_out[95] O
*I *739:la_data_out_o[95] O *D ntt_wb_bridge
*CAP
1 la_data_out[95] 0.0399312
2 *739:la_data_out_o[95] 0.0015436
3 *394:17 0.0399312
4 *394:15 0.0123798
5 *394:13 0.0139234
6 *394:15 *701:15 0.0269596
7 *105:23 *394:15 0
8 *115:91 la_data_out[95] 0
9 *361:23 *394:15 0.000949116
10 *364:15 *394:15 0.0056389
11 *375:15 *394:15 0.000112764
12 *380:11 *394:13 0.000630701
13 *390:15 *394:15 0.0439619
*RES
1 *739:la_data_out_o[95] *394:13 45.0446 
2 *394:13 *394:15 545.179 
3 *394:15 *394:17 15 
4 *394:17 la_data_out[95] 899.621 
*END

*D_NET *395 0.186278
*CONN
*P la_data_out[96] O
*I *739:la_data_out_o[96] O *D ntt_wb_bridge
*CAP
1 la_data_out[96] 0.0386004
2 *739:la_data_out_o[96] 0.000760679
3 *395:25 0.0386004
4 *395:23 0.00535932
5 *395:21 0.00599109
6 *395:15 0.00519044
7 *395:13 0.00531936
8 *395:15 *396:15 0.00229642
9 *395:15 *529:15 0.00131817
10 *395:21 *731:41 1.13013e-05
11 *115:101 la_data_out[96] 0
12 *274:19 la_data_out[96] 0
13 *278:15 *395:15 0.00558518
14 *292:15 *395:15 0.00767639
15 *295:17 *395:15 0.00145225
16 *295:27 *395:21 1.24585e-05
17 *298:23 *395:23 0.027678
18 *301:27 *395:23 0
19 *353:17 *395:13 2.82592e-05
20 *380:11 *395:13 0.000571026
21 *383:31 *395:21 0.000314173
22 *389:15 *395:15 0.00167245
23 *389:23 *395:21 0.000180081
24 *389:27 *395:23 0
25 *393:15 *395:15 0.012435
26 *393:21 *395:21 0.000892743
27 *393:23 *395:23 0.0243329
*RES
1 *739:la_data_out_o[96] *395:13 32.9634 
2 *395:13 *395:15 255.511 
3 *395:15 *395:21 43.8786 
4 *395:21 *395:23 300.771 
5 *395:23 *395:25 15 
6 *395:25 la_data_out[96] 873.915 
*END

*D_NET *396 0.213529
*CONN
*P la_data_out[97] O
*I *739:la_data_out_o[97] O *D ntt_wb_bridge
*CAP
1 la_data_out[97] 0.0375294
2 *739:la_data_out_o[97] 0.000689047
3 *396:17 0.0375294
4 *396:15 0.0162081
5 *396:13 0.0168972
6 *396:15 *397:15 0.0541953
7 *396:15 *529:15 0.00549127
8 *78:73 la_data_out[97] 0.00221708
9 *115:107 la_data_out[97] 0.00306179
10 *278:15 *396:15 0.00279271
11 *279:15 *396:15 0.00486468
12 *282:17 *396:15 0.00106025
13 *288:17 *396:15 0.0015867
14 *292:15 *396:15 0.000123131
15 *295:17 *396:15 0.00706833
16 *299:15 *396:15 0.00227892
17 *359:15 *396:15 0.0117394
18 *367:15 *396:15 0.000141967
19 *369:15 *396:15 0.00010722
20 *371:15 *396:15 0.000122968
21 *380:11 *396:13 0.000511352
22 *382:13 *396:15 0.000160647
23 *393:15 *396:15 0.00485569
24 *395:15 *396:15 0.00229642
*RES
1 *739:la_data_out_o[97] *396:13 24.9748 
2 *396:13 *396:15 102.323 
3 *396:15 *396:17 8 
4 *396:17 la_data_out[97] 886.768 
*END

*D_NET *397 0.224831
*CONN
*P la_data_out[98] O
*I *739:la_data_out_o[98] O *D ntt_wb_bridge
*CAP
1 la_data_out[98] 0.0392438
2 *739:la_data_out_o[98] 0.000732077
3 *397:17 0.0392438
4 *397:15 0.0124923
5 *397:13 0.0132244
6 *397:15 *530:15 0.00180447
7 *78:81 la_data_out[98] 0
8 *277:15 *397:15 0.0517879
9 *278:15 *397:15 0.000147745
10 *279:15 *397:15 0
11 *367:15 *397:15 0.0036246
12 *369:15 *397:15 0.000842984
13 *370:15 *397:15 0.000728639
14 *371:15 *397:15 0.00486564
15 *380:11 *397:13 0.000430595
16 *382:13 *397:15 0.0014669
17 *396:15 *397:15 0.0541953
*RES
1 *739:la_data_out_o[98] *397:13 24.1623 
2 *397:13 *397:15 104.298 
3 *397:15 *397:17 8 
4 *397:17 la_data_out[98] 886.064 
*END

*D_NET *398 0.209265
*CONN
*P la_data_out[99] O
*I *739:la_data_out_o[99] O *D ntt_wb_bridge
*CAP
1 la_data_out[99] 0.0395112
2 *739:la_data_out_o[99] 0.00101428
3 *398:17 0.0395112
4 *398:15 0.0156707
5 *398:13 0.016685
6 *398:15 *726:15 0.00419727
7 *273:15 *398:15 0.000746077
8 *274:15 *398:15 0.000157277
9 *275:15 *398:15 0.000728403
10 *279:15 *398:15 0.0172466
11 *280:15 *398:15 0.000914283
12 *281:17 *398:15 0.0191319
13 *296:15 *398:15 0.00103552
14 *300:15 *398:15 0.00183567
15 *356:19 *398:15 0.000338077
16 *357:15 *398:15 0.000630143
17 *358:15 *398:15 0.0013044
18 *360:19 *398:15 0.000215805
19 *361:15 *398:15 0.0012619
20 *362:15 *398:15 0.00109302
21 *368:15 *398:15 0.000189711
22 *368:19 *398:15 0.000911442
23 *380:11 *398:13 0.000392002
24 *391:15 *398:15 0.0445434
*RES
1 *739:la_data_out_o[99] *398:13 29.6883 
2 *398:13 *398:15 106.359 
3 *398:15 *398:17 8 
4 *398:17 la_data_out[99] 891.698 
*END

*D_NET *399 0.133876
*CONN
*P la_data_out[9] O
*I *739:la_data_out_o[9] O *D ntt_wb_bridge
*CAP
1 la_data_out[9] 0.0387721
2 *739:la_data_out_o[9] 0.00307499
3 *399:25 0.0387721
4 *399:23 0.0145954
5 *399:21 0.0168871
6 *399:15 0.00536668
7 *283:21 *399:21 0.00011563
8 *283:21 *399:23 9.60814e-07
9 *304:13 *399:15 0.000110331
10 *305:13 *399:15 0.000120607
11 *307:13 *399:15 0.000128881
12 *308:13 *399:15 0.000111633
13 *310:19 *399:15 0.000637783
14 *326:15 *399:15 0.00110761
15 *338:17 *399:15 3.41634e-05
16 *338:37 *399:21 0.00010083
17 *339:15 *399:15 0.000375111
18 *339:25 *399:15 1.10496e-05
19 *340:19 *399:15 0.00216454
20 *340:29 *399:15 0.00254967
21 *341:19 *399:15 0.00140728
22 *343:23 *399:15 4.77164e-06
23 *344:17 *399:15 4.70854e-05
24 *355:23 *399:23 0
25 *366:17 *399:15 0.0066054
26 *366:21 *399:21 0.000773719
27 *377:31 *399:23 0
*RES
1 *739:la_data_out_o[9] *399:15 44.7842 
2 *399:15 *399:21 21.5141 
3 *399:21 *399:23 47.5832 
4 *399:23 *399:25 8 
5 *399:25 la_data_out[9] 859.301 
*END

*D_NET *529 0.206843
*CONN
*P user_irq[0] O
*I *739:user_irq_o[0] O *D ntt_wb_bridge
*CAP
1 user_irq[0] 0.0023244
2 *739:user_irq_o[0] 0.000814397
3 *529:25 0.0023244
4 *529:23 0.0226511
5 *529:21 0.0226511
6 *529:19 0.0363961
7 *529:17 0.0363961
8 *529:15 0.00806762
9 *529:13 0.00888202
10 *529:15 *530:15 0.00556706
11 io_oeb[0] user_irq[0] 0.000100271
12 la_data_out[93] *529:19 0
13 *128:33 user_irq[0] 0.00118478
14 *278:15 *529:15 0.00709283
15 *292:15 *529:15 0.0023474
16 *292:23 *529:23 0.041705
17 *380:11 *529:13 0.000169765
18 *393:15 *529:15 0.00135904
19 *395:15 *529:15 0.00131817
20 *396:15 *529:15 0.00549127
*RES
1 *739:user_irq_o[0] *529:13 31.8833 
2 *529:13 *529:15 263.134 
3 *529:15 *529:17 15 
4 *529:17 *529:19 828.033 
5 *529:19 *529:21 15 
6 *529:21 *529:23 639.989 
7 *529:23 *529:25 15 
8 *529:25 user_irq[0] 59.4086 
*END

*D_NET *530 0.175052
*CONN
*P user_irq[1] O
*I *739:user_irq_o[1] O *D ntt_wb_bridge
*CAP
1 user_irq[1] 0.00285112
2 *739:user_irq_o[1] 0.000726411
3 *530:25 0.00285112
4 *530:23 0.0377146
5 *530:21 0.0377146
6 *530:19 0.0361716
7 *530:17 0.0361716
8 *530:15 0.00394352
9 *530:13 0.00466994
10 la_data_out[86] *530:19 0
11 *115:67 *530:19 0
12 *371:15 *530:15 0.0041109
13 *380:11 *530:13 0.000134783
14 *383:27 *530:13 0
15 *393:15 *530:15 0.000619972
16 *397:15 *530:15 0.00180447
17 *529:15 *530:15 0.00556706
*RES
1 *739:user_irq_o[1] *530:13 31.1155 
2 *530:13 *530:15 119.252 
3 *530:15 *530:17 15 
4 *530:17 *530:19 820.638 
5 *530:19 *530:21 15 
6 *530:21 *530:23 781.964 
7 *530:23 *530:25 15 
8 *530:25 user_irq[1] 66.0993 
*END

*D_NET *531 0.226483
*CONN
*P user_irq[2] O
*I *739:user_irq_o[2] O *D ntt_wb_bridge
*CAP
1 user_irq[2] 0.0364906
2 *739:user_irq_o[2] 0.00257054
3 *531:25 0.0364906
4 *531:23 0.0359565
5 *531:21 0.0372267
6 *531:17 0.00384075
7 *531:17 *693:11 0.000168918
8 *531:23 *646:43 0.0626881
9 *277:15 *531:17 0.00370416
10 *285:13 *531:17 0.00011597
11 *286:13 *531:17 0.000127139
12 *287:13 *531:17 0.000135435
13 *289:13 *531:17 0.00011731
14 *292:19 *531:21 0.00311664
15 *295:31 *531:17 8.60871e-05
16 *354:27 *531:21 0
17 *380:11 *531:17 0.000653982
18 *382:13 *531:17 0.00299371
*RES
1 *739:user_irq_o[2] *531:17 38.5078 
2 *531:17 *531:21 48.2893 
3 *531:21 *531:23 153.5 
4 *531:23 *531:25 8 
5 *531:25 user_irq[2] 844.511 
*END

*D_NET *540 0.845826
*CONN
*P wb_clk_i I
*I *739:wb_clk_i I *D ntt_wb_bridge
*I *740:clk I *D ntt_engine_256
*CAP
1 wb_clk_i 0.00410262
2 *739:wb_clk_i 3.51042e-05
3 *740:clk 0.000401985
4 *540:31 0.0423126
5 *540:17 0.062944
6 *540:15 0.062542
7 *540:13 0.0980047
8 *540:11 0.0980047
9 *540:9 0.0613849
10 *540:7 0.0191073
11 *540:5 0.00410262
12 *540:9 *541:9 0
13 *540:13 wbs_dat_o[14] 0
14 *540:13 *740:mem_wdata[24] 0
15 *540:17 *658:39 0.00154593
16 *540:17 *663:11 0.00532699
17 *540:17 *675:13 0.00121985
18 *540:17 *679:11 0.0498805
19 *540:17 *685:21 0.00531208
20 *540:17 *704:45 0.000852995
21 *540:17 *714:39 0.010834
22 *540:17 *733:47 0.000761135
23 *540:17 *734:41 5.02254e-05
24 *540:17 *734:43 0.0585128
25 *540:31 *541:9 0
26 io_out[37] *540:9 0
27 *119:57 *540:13 0.258587
*RES
1 wb_clk_i *540:5 94.4468 
2 *540:5 *540:7 8 
3 *540:7 *540:9 59.1323 
4 *540:9 *540:11 8 
5 *540:11 *540:13 3327.19 
6 *540:13 *540:15 8 
7 *540:15 *540:17 299.044 
8 *540:17 *740:clk 16.6171 
9 *540:9 *540:31 138.344 
10 *540:31 *739:wb_clk_i 0.0914667 
*END

*D_NET *541 0.132248
*CONN
*P wb_rst_i I
*I *739:wb_rst_i I *D ntt_wb_bridge
*CAP
1 wb_rst_i 0.0045308
2 *739:wb_rst_i 3.58415e-05
3 *541:9 0.0614672
4 *541:7 0.0614314
5 *541:5 0.0045308
6 *541:9 *575:17 0
7 io_out[37] *541:9 0.000175268
8 *124:33 *541:9 7.63154e-05
9 *540:9 *541:9 0
10 *540:31 *541:9 0
*RES
1 wb_rst_i *541:5 101.49 
2 *541:5 *541:7 8 
3 *541:7 *541:9 196.39 
4 *541:9 *739:wb_rst_i 0.0914667 
*END

*D_NET *542 0.186364
*CONN
*P wbs_ack_o O
*I *739:wbs_ack_o O *D ntt_wb_bridge
*CAP
1 wbs_ack_o 0.00116405
2 *739:wbs_ack_o 3.51042e-05
3 *542:11 0.0256329
4 *542:9 0.0244689
5 *542:7 0.0588989
6 *542:5 0.058934
7 wbs_ack_o *575:11 0.000391254
8 *542:7 *600:9 0
9 *542:7 *608:7 0
10 *542:11 *575:13 0.00371126
11 *542:11 *644:5 0
12 *123:27 *542:11 0
13 *124:27 *542:11 0
14 *125:27 *542:11 0.0131278
*RES
1 *739:wbs_ack_o *542:5 0.0914667 
2 *542:5 *542:7 193.471 
3 *542:7 *542:9 8 
4 *542:9 *542:11 591.745 
5 *542:11 wbs_ack_o 34.8346 
*END

*D_NET *543 0.132857
*CONN
*P wbs_adr_i[0] I
*I *739:wbs_adr_i[0] I *D ntt_wb_bridge
*CAP
1 wbs_adr_i[0] 0.00694632
2 *739:wbs_adr_i[0] 3.58415e-05
3 *543:9 0.0594823
4 *543:7 0.0594464
5 *543:5 0.00694632
6 *543:9 *554:9 0
7 *543:9 *643:9 0
*RES
1 wbs_adr_i[0] *543:5 157.833 
2 *543:5 *543:7 8 
3 *543:7 *543:9 190.809 
4 *543:9 *739:wbs_adr_i[0] 0.0914667 
*END

*D_NET *544 0.118179
*CONN
*P wbs_adr_i[10] I
*I *739:wbs_adr_i[10] I *D ntt_wb_bridge
*CAP
1 wbs_adr_i[10] 0.010257
2 *739:wbs_adr_i[10] 3.58415e-05
3 *544:9 0.0478416
4 *544:7 0.0478058
5 *544:5 0.010257
6 *544:9 *545:9 0
7 *544:9 *574:9 0
8 *88:27 *544:5 0.000723923
9 *116:43 *544:9 0.00125824
*RES
1 wbs_adr_i[10] *544:5 228.261 
2 *544:5 *544:7 8 
3 *544:7 *544:9 153.285 
4 *544:9 *739:wbs_adr_i[10] 0.0914667 
*END

*D_NET *545 0.116114
*CONN
*P wbs_adr_i[11] I
*I *739:wbs_adr_i[11] I *D ntt_wb_bridge
*CAP
1 wbs_adr_i[11] 0.0105882
2 *739:wbs_adr_i[11] 3.58415e-05
3 *545:9 0.0470702
4 *545:7 0.0470343
5 *545:5 0.0105882
6 *545:9 *546:9 0
7 *85:25 *545:5 0.000797022
8 *544:9 *545:9 0
*RES
1 wbs_adr_i[11] *545:5 235.304 
2 *545:5 *545:7 8 
3 *545:7 *545:9 150.022 
4 *545:9 *739:wbs_adr_i[11] 0.0914667 
*END

*D_NET *546 0.113092
*CONN
*P wbs_adr_i[12] I
*I *739:wbs_adr_i[12] I *D ntt_wb_bridge
*CAP
1 wbs_adr_i[12] 0.010933
2 *739:wbs_adr_i[12] 3.51042e-05
3 *546:9 0.0456129
4 *546:7 0.0455778
5 *546:5 0.010933
6 *546:9 *547:9 0
7 *83:29 *546:5 0
8 *545:9 *546:9 0
*RES
1 wbs_adr_i[12] *546:5 242.347 
2 *546:5 *546:7 8 
3 *546:7 *546:9 146.673 
4 *546:9 *739:wbs_adr_i[12] 0.0914667 
*END

*D_NET *547 0.112795
*CONN
*P wbs_adr_i[13] I
*I *739:wbs_adr_i[13] I *D ntt_wb_bridge
*CAP
1 wbs_adr_i[13] 0.0112517
2 *739:wbs_adr_i[13] 3.58415e-05
3 *547:9 0.0445811
4 *547:7 0.0445452
5 *547:5 0.0112517
6 *547:9 *548:13 0
7 *84:29 *547:5 0
8 *87:25 *547:5 0
9 *129:27 *547:5 0.00112938
10 *546:9 *547:9 0
*RES
1 wbs_adr_i[13] *547:5 249.39 
2 *547:5 *547:7 8 
3 *547:7 *547:9 143.41 
4 *547:9 *739:wbs_adr_i[13] 0.0914667 
*END

*D_NET *548 0.119645
*CONN
*P wbs_adr_i[14] I
*I *739:wbs_adr_i[14] I *D ntt_wb_bridge
*CAP
1 wbs_adr_i[14] 0.00154794
2 *739:wbs_adr_i[14] 3.51042e-05
3 *548:13 0.0432836
4 *548:11 0.0432484
5 *548:9 0.00678722
6 *548:7 0.00833516
7 *548:13 *549:9 0
8 *118:27 *548:9 0.0164077
9 *547:9 *548:13 0
*RES
1 wbs_adr_i[14] *548:7 34.6654 
2 *548:7 *548:9 222.534 
3 *548:9 *548:11 8 
4 *548:11 *548:13 140.147 
5 *548:13 *739:wbs_adr_i[14] 0.0914667 
*END

*D_NET *549 0.108268
*CONN
*P wbs_adr_i[15] I
*I *739:wbs_adr_i[15] I *D ntt_wb_bridge
*CAP
1 wbs_adr_i[15] 0.0120334
2 *739:wbs_adr_i[15] 3.58415e-05
3 *549:9 0.0421005
4 *549:7 0.0420646
5 *549:5 0.0120334
6 *549:9 *550:9 0
7 *548:13 *549:9 0
*RES
1 wbs_adr_i[15] *549:5 263.475 
2 *549:5 *549:7 8 
3 *549:7 *549:9 136.799 
4 *549:9 *739:wbs_adr_i[15] 0.0914667 
*END

*D_NET *550 0.107765
*CONN
*P wbs_adr_i[16] I
*I *739:wbs_adr_i[16] I *D ntt_wb_bridge
*CAP
1 wbs_adr_i[16] 0.0123532
2 *739:wbs_adr_i[16] 3.58415e-05
3 *550:9 0.0415295
4 *550:7 0.0414936
5 *550:5 0.0123532
6 *550:9 *551:9 0
7 *549:9 *550:9 0
*RES
1 wbs_adr_i[16] *550:5 270.518 
2 *550:5 *550:7 8 
3 *550:7 *550:9 133.45 
4 *550:9 *739:wbs_adr_i[16] 0.0914667 
*END

*D_NET *551 0.10596
*CONN
*P wbs_adr_i[17] I
*I *739:wbs_adr_i[17] I *D ntt_wb_bridge
*CAP
1 wbs_adr_i[17] 0.0126714
2 *739:wbs_adr_i[17] 3.51042e-05
3 *551:9 0.0403087
4 *551:7 0.0402736
5 *551:5 0.0126714
6 *551:9 *552:9 0
7 *550:9 *551:9 0
*RES
1 wbs_adr_i[17] *551:5 277.561 
2 *551:5 *551:7 8 
3 *551:7 *551:9 130.187 
4 *551:9 *739:wbs_adr_i[17] 0.0914667 
*END

*D_NET *552 0.104487
*CONN
*P wbs_adr_i[18] I
*I *739:wbs_adr_i[18] I *D ntt_wb_bridge
*CAP
1 wbs_adr_i[18] 0.0129861
2 *739:wbs_adr_i[18] 3.58415e-05
3 *552:9 0.0392575
4 *552:7 0.0392217
5 *552:5 0.0129861
6 *552:9 *553:9 0
7 *551:9 *552:9 0
*RES
1 wbs_adr_i[18] *552:5 284.604 
2 *552:5 *552:7 8 
3 *552:7 *552:9 126.838 
4 *552:9 *739:wbs_adr_i[18] 0.0914667 
*END

*D_NET *553 0.103687
*CONN
*P wbs_adr_i[19] I
*I *739:wbs_adr_i[19] I *D ntt_wb_bridge
*CAP
1 wbs_adr_i[19] 0.0133064
2 *739:wbs_adr_i[19] 3.58415e-05
3 *553:9 0.0385369
4 *553:7 0.0385011
5 *553:5 0.0133064
6 *553:5 *585:13 0
7 *553:9 *555:9 0
8 *552:9 *553:9 0
*RES
1 wbs_adr_i[19] *553:5 291.647 
2 *553:5 *553:7 8 
3 *553:7 *553:9 123.575 
4 *553:9 *739:wbs_adr_i[19] 0.0914667 
*END

*D_NET *554 0.13169
*CONN
*P wbs_adr_i[1] I
*I *739:wbs_adr_i[1] I *D ntt_wb_bridge
*CAP
1 wbs_adr_i[1] 0.00727923
2 *739:wbs_adr_i[1] 3.58415e-05
3 *554:9 0.0585658
4 *554:7 0.05853
5 *554:5 0.00727923
6 *554:9 *565:9 0
7 *543:9 *554:9 0
*RES
1 wbs_adr_i[1] *554:5 164.875 
2 *554:5 *554:7 8 
3 *554:7 *554:9 186.43 
4 *554:9 *739:wbs_adr_i[1] 0.0914667 
*END

*D_NET *555 0.104577
*CONN
*P wbs_adr_i[20] I
*I *739:wbs_adr_i[20] I *D ntt_wb_bridge
*CAP
1 wbs_adr_i[20] 0.0135864
2 *739:wbs_adr_i[20] 3.51042e-05
3 *555:9 0.0346586
4 *555:7 0.0346234
5 *555:5 0.0135864
6 *555:9 *556:9 0
7 io_out[36] *555:9 0.00808757
8 *553:9 *555:9 0
*RES
1 wbs_adr_i[20] *555:5 297.985 
2 *555:5 *555:7 8 
3 *555:7 *555:9 120.226 
4 *555:9 *739:wbs_adr_i[20] 0.0914667 
*END

*D_NET *556 0.101126
*CONN
*P wbs_adr_i[21] I
*I *739:wbs_adr_i[21] I *D ntt_wb_bridge
*CAP
1 wbs_adr_i[21] 0.0139107
2 *739:wbs_adr_i[21] 3.58415e-05
3 *556:9 0.0311962
4 *556:7 0.0311603
5 *556:5 0.0139107
6 *556:9 *557:9 0
7 io_out[36] *556:9 0.0109124
8 *555:9 *556:9 0
*RES
1 wbs_adr_i[21] *556:5 305.028 
2 *556:5 *556:7 8 
3 *556:7 *556:9 116.878 
4 *556:9 *739:wbs_adr_i[21] 0.0914667 
*END

*D_NET *557 0.0984148
*CONN
*P wbs_adr_i[22] I
*I *739:wbs_adr_i[22] I *D ntt_wb_bridge
*CAP
1 wbs_adr_i[22] 0.0142305
2 *739:wbs_adr_i[22] 3.51042e-05
3 *557:9 0.0349769
4 *557:7 0.0349418
5 *557:5 0.0142305
6 *556:9 *557:9 0
*RES
1 wbs_adr_i[22] *557:5 312.071 
2 *557:5 *557:7 8 
3 *557:7 *557:9 113.615 
4 *557:9 *739:wbs_adr_i[22] 0.0914667 
*END

*D_NET *558 0.0975501
*CONN
*P wbs_adr_i[23] I
*I *739:wbs_adr_i[23] I *D ntt_wb_bridge
*CAP
1 wbs_adr_i[23] 0.0145658
2 *739:wbs_adr_i[23] 3.58415e-05
3 *558:9 0.0342092
4 *558:7 0.0341734
5 *558:5 0.0145658
6 *558:9 *559:9 0
*RES
1 wbs_adr_i[23] *558:5 319.818 
2 *558:5 *558:7 8 
3 *558:7 *558:9 110.266 
4 *558:9 *739:wbs_adr_i[23] 0.0914667 
*END

*D_NET *559 0.0961148
*CONN
*P wbs_adr_i[24] I
*I *739:wbs_adr_i[24] I *D ntt_wb_bridge
*CAP
1 wbs_adr_i[24] 0.0148857
2 *739:wbs_adr_i[24] 3.58415e-05
3 *559:9 0.0331717
4 *559:7 0.0331359
5 *559:5 0.0148857
6 *559:9 *560:9 0
7 *558:9 *559:9 0
*RES
1 wbs_adr_i[24] *559:5 326.861 
2 *559:5 *559:7 8 
3 *559:7 *559:9 107.003 
4 *559:9 *739:wbs_adr_i[24] 0.0914667 
*END

*D_NET *560 0.0940944
*CONN
*P wbs_adr_i[25] I
*I *739:wbs_adr_i[25] I *D ntt_wb_bridge
*CAP
1 wbs_adr_i[25] 0.0152038
2 *739:wbs_adr_i[25] 3.51042e-05
3 *560:9 0.0318434
4 *560:7 0.0318083
5 *560:5 0.0152038
6 *560:9 *561:9 0
7 *559:9 *560:9 0
*RES
1 wbs_adr_i[25] *560:5 333.904 
2 *560:5 *560:7 8 
3 *560:7 *560:9 103.654 
4 *560:9 *739:wbs_adr_i[25] 0.0914667 
*END

*D_NET *561 0.0929392
*CONN
*P wbs_adr_i[26] I
*I *739:wbs_adr_i[26] I *D ntt_wb_bridge
*CAP
1 wbs_adr_i[26] 0.0155099
2 *739:wbs_adr_i[26] 3.58415e-05
3 *561:9 0.0309596
4 *561:7 0.0309238
5 *561:5 0.0155099
6 *561:9 *562:9 0
7 *560:9 *561:9 0
*RES
1 wbs_adr_i[26] *561:5 340.947 
2 *561:5 *561:7 8 
3 *561:7 *561:9 100.391 
4 *561:9 *739:wbs_adr_i[26] 0.0914667 
*END

*D_NET *562 0.092264
*CONN
*P wbs_adr_i[27] I
*I *739:wbs_adr_i[27] I *D ntt_wb_bridge
*CAP
1 wbs_adr_i[27] 0.0158298
2 *739:wbs_adr_i[27] 3.58415e-05
3 *562:9 0.0303022
4 *562:7 0.0302664
5 *562:5 0.0158298
6 *562:9 *563:9 0
7 *561:9 *562:9 0
*RES
1 wbs_adr_i[27] *562:5 347.99 
2 *562:5 *562:7 8 
3 *562:7 *562:9 97.0424 
4 *562:9 *739:wbs_adr_i[27] 0.0914667 
*END

*D_NET *563 0.0907558
*CONN
*P wbs_adr_i[28] I
*I *739:wbs_adr_i[28] I *D ntt_wb_bridge
*CAP
1 wbs_adr_i[28] 0.0161496
2 *739:wbs_adr_i[28] 3.58415e-05
3 *563:9 0.0292283
4 *563:7 0.0291924
5 *563:5 0.0161496
6 *563:9 *564:9 0
7 *562:9 *563:9 0
*RES
1 wbs_adr_i[28] *563:5 355.033 
2 *563:5 *563:7 8 
3 *563:7 *563:9 93.7795 
4 *563:9 *739:wbs_adr_i[28] 0.0914667 
*END

*D_NET *564 0.089203
*CONN
*P wbs_adr_i[29] I
*I *739:wbs_adr_i[29] I *D ntt_wb_bridge
*CAP
1 wbs_adr_i[29] 0.0164695
2 *739:wbs_adr_i[29] 3.58415e-05
3 *564:9 0.028132
4 *564:7 0.0280962
5 *564:5 0.0164695
6 *564:9 *566:9 0
7 *563:9 *564:9 0
*RES
1 wbs_adr_i[29] *564:5 362.075 
2 *564:5 *564:7 8 
3 *564:7 *564:9 90.4307 
4 *564:9 *739:wbs_adr_i[29] 0.0914667 
*END

*D_NET *565 0.129891
*CONN
*P wbs_adr_i[2] I
*I *739:wbs_adr_i[2] I *D ntt_wb_bridge
*CAP
1 wbs_adr_i[2] 0.00780176
2 *739:wbs_adr_i[2] 3.58415e-05
3 *565:9 0.0571436
4 *565:7 0.0571078
5 *565:5 0.00780176
6 *565:9 *568:9 0
7 *554:9 *565:9 0
*RES
1 wbs_adr_i[2] *565:5 171.918 
2 *565:5 *565:7 8 
3 *565:7 *565:9 182.05 
4 *565:9 *739:wbs_adr_i[2] 0.0914667 
*END

*D_NET *566 0.0877229
*CONN
*P wbs_adr_i[30] I
*I *739:wbs_adr_i[30] I *D ntt_wb_bridge
*CAP
1 wbs_adr_i[30] 0.0167893
2 *739:wbs_adr_i[30] 3.58415e-05
3 *566:9 0.0270721
4 *566:7 0.0270363
5 *566:5 0.0167893
6 *566:9 *567:9 0
7 *564:9 *566:9 0
*RES
1 wbs_adr_i[30] *566:5 369.118 
2 *566:5 *566:7 8 
3 *566:7 *566:9 87.0819 
4 *566:9 *739:wbs_adr_i[30] 0.0914667 
*END

*D_NET *567 0.0862876
*CONN
*P wbs_adr_i[31] I
*I *739:wbs_adr_i[31] I *D ntt_wb_bridge
*CAP
1 wbs_adr_i[31] 0.0171092
2 *739:wbs_adr_i[31] 3.58415e-05
3 *567:9 0.0260346
4 *567:7 0.0259988
5 *567:5 0.0171092
6 *567:9 *576:9 0
7 *566:9 *567:9 0
*RES
1 wbs_adr_i[31] *567:5 376.161 
2 *567:5 *567:7 8 
3 *567:7 *567:9 83.8189 
4 *567:9 *739:wbs_adr_i[31] 0.0914667 
*END

*D_NET *568 0.127293
*CONN
*P wbs_adr_i[3] I
*I *739:wbs_adr_i[3] I *D ntt_wb_bridge
*CAP
1 wbs_adr_i[3] 0.00794161
2 *739:wbs_adr_i[3] 3.58415e-05
3 *568:9 0.0557049
4 *568:7 0.0556691
5 *568:5 0.00794161
6 *568:9 *569:9 0
7 *565:9 *568:9 0
*RES
1 wbs_adr_i[3] *568:5 178.961 
2 *568:5 *568:7 8 
3 *568:7 *568:9 177.585 
4 *568:9 *739:wbs_adr_i[3] 0.0914667 
*END

*D_NET *569 0.125256
*CONN
*P wbs_adr_i[4] I
*I *739:wbs_adr_i[4] I *D ntt_wb_bridge
*CAP
1 wbs_adr_i[4] 0.00828758
2 *739:wbs_adr_i[4] 3.58415e-05
3 *569:9 0.0543402
4 *569:7 0.0543044
5 *569:5 0.00828758
6 *569:9 *570:9 0
7 *568:9 *569:9 0
*RES
1 wbs_adr_i[4] *569:5 186.004 
2 *569:5 *569:7 8 
3 *569:7 *569:9 173.206 
4 *569:9 *739:wbs_adr_i[4] 0.0914667 
*END

*D_NET *570 0.124423
*CONN
*P wbs_adr_i[5] I
*I *739:wbs_adr_i[5] I *D ntt_wb_bridge
*CAP
1 wbs_adr_i[5] 0.00864319
2 *739:wbs_adr_i[5] 3.58415e-05
3 *570:9 0.0532715
4 *570:7 0.0532357
5 *570:5 0.00864319
6 *570:9 *571:9 0
7 *130:19 *570:5 0.000593377
8 *569:9 *570:9 0
*RES
1 wbs_adr_i[5] *570:5 193.047 
2 *570:5 *570:7 8 
3 *570:7 *570:9 169.857 
4 *570:9 *739:wbs_adr_i[5] 0.0914667 
*END

*D_NET *571 0.123008
*CONN
*P wbs_adr_i[6] I
*I *739:wbs_adr_i[6] I *D ntt_wb_bridge
*CAP
1 wbs_adr_i[6] 0.00896132
2 *739:wbs_adr_i[6] 3.51042e-05
3 *571:9 0.0519781
4 *571:7 0.051943
5 *571:5 0.00896132
6 *571:9 *572:9 0
7 *122:25 *571:5 0.00112938
8 *570:9 *571:9 0
*RES
1 wbs_adr_i[6] *571:5 200.09 
2 *571:5 *571:7 8 
3 *571:7 *571:9 166.594 
4 *571:9 *739:wbs_adr_i[6] 0.0914667 
*END

*D_NET *572 0.120628
*CONN
*P wbs_adr_i[7] I
*I *739:wbs_adr_i[7] I *D ntt_wb_bridge
*CAP
1 wbs_adr_i[7] 0.0092788
2 *739:wbs_adr_i[7] 3.58415e-05
3 *572:9 0.0510353
4 *572:7 0.0509995
5 *572:5 0.0092788
6 *572:9 *573:13 0
7 *571:9 *572:9 0
*RES
1 wbs_adr_i[7] *572:5 207.133 
2 *572:5 *572:7 8 
3 *572:7 *572:9 163.246 
4 *572:9 *739:wbs_adr_i[7] 0.0914667 
*END

*D_NET *573 0.12769
*CONN
*P wbs_adr_i[8] I
*I *739:wbs_adr_i[8] I *D ntt_wb_bridge
*CAP
1 wbs_adr_i[8] 0.00149859
2 *739:wbs_adr_i[8] 3.58415e-05
3 *573:13 0.0503511
4 *573:11 0.0503153
5 *573:9 0.00543483
6 *573:7 0.00693343
7 *573:13 *574:9 0
8 *121:25 *573:9 0.0131212
9 *572:9 *573:13 0
*RES
1 wbs_adr_i[8] *573:7 34.6654 
2 *573:7 *573:9 180.276 
3 *573:9 *573:11 8 
4 *573:11 *573:13 159.897 
5 *573:13 *739:wbs_adr_i[8] 0.0914667 
*END

*D_NET *574 0.117662
*CONN
*P wbs_adr_i[9] I
*I *739:wbs_adr_i[9] I *D ntt_wb_bridge
*CAP
1 wbs_adr_i[9] 0.00993092
2 *739:wbs_adr_i[9] 3.51042e-05
3 *574:9 0.0489
4 *574:7 0.0488649
5 *574:5 0.00993092
6 *544:9 *574:9 0
7 *573:13 *574:9 0
*RES
1 wbs_adr_i[9] *574:5 221.218 
2 *574:5 *574:7 8 
3 *574:7 *574:9 156.634 
4 *574:9 *739:wbs_adr_i[9] 0.0914667 
*END

*D_NET *575 0.133189
*CONN
*P wbs_cyc_i I
*I *739:wbs_cyc_i I *D ntt_wb_bridge
*CAP
1 wbs_cyc_i 0.000887147
2 *739:wbs_cyc_i 3.51042e-05
3 *575:17 0.0603661
4 *575:15 0.060331
5 *575:13 0.00182993
6 *575:11 0.00271708
7 *575:13 *644:5 0.00246322
8 *575:17 *644:9 0
9 wbs_ack_o *575:11 0.000391254
10 *125:27 *575:13 0.000456404
11 *541:9 *575:17 0
12 *542:11 *575:13 0.00371126
*RES
1 wbs_cyc_i *575:11 33.1857 
2 *575:11 *575:13 92.4064 
3 *575:13 *575:15 8 
4 *575:15 *575:17 193.299 
5 *575:17 *739:wbs_cyc_i 0.0914667 
*END

*D_NET *576 0.151693
*CONN
*P wbs_dat_i[0] I
*I *739:wbs_dat_i[0] I *D ntt_wb_bridge
*CAP
1 wbs_dat_i[0] 0.0167126
2 *739:wbs_dat_i[0] 3.58415e-05
3 *576:9 0.0591341
4 *576:7 0.0590982
5 *576:5 0.0167126
6 *576:9 *587:9 0
7 *567:9 *576:9 0
*RES
1 wbs_dat_i[0] *576:5 383.204 
2 *576:5 *576:7 8 
3 *576:7 *576:9 189.778 
4 *576:9 *739:wbs_dat_i[0] 0.0914667 
*END

*D_NET *577 0.135413
*CONN
*P wbs_dat_i[10] I
*I *739:wbs_dat_i[10] I *D ntt_wb_bridge
*CAP
1 wbs_dat_i[10] 0.0205989
2 *739:wbs_dat_i[10] 3.58415e-05
3 *577:9 0.0471075
4 *577:7 0.0470716
5 *577:5 0.0205989
6 *577:9 *578:17 0
7 *577:9 *607:9 0
*RES
1 wbs_dat_i[10] *577:5 453.633 
2 *577:5 *577:7 8 
3 *577:7 *577:9 152.255 
4 *577:9 *739:wbs_dat_i[10] 0.0914667 
*END

*D_NET *578 0.13594
*CONN
*P wbs_dat_i[11] I
*I *739:wbs_dat_i[11] I *D ntt_wb_bridge
*CAP
1 wbs_dat_i[11] 0.000681881
2 *739:wbs_dat_i[11] 3.51042e-05
3 *578:17 0.024662
4 *578:15 0.0246269
5 *578:13 0.0195625
6 *578:11 0.0195625
7 *578:9 0.0209902
8 *578:7 0.0216721
9 *578:9 *585:11 0.000958275
10 *578:17 *579:9 0
11 la_data_out[0] *578:13 0
12 *116:55 *578:13 0.00318862
13 *577:9 *578:17 0
*RES
1 wbs_dat_i[11] *578:7 23.5668 
2 *578:7 *578:9 68.8352 
3 *578:9 *578:11 8 
4 *578:11 *578:13 445.254 
5 *578:13 *578:15 8 
6 *578:15 *578:17 80.1267 
7 *578:17 *739:wbs_dat_i[11] 0.0914667 
*END

*D_NET *579 0.131902
*CONN
*P wbs_dat_i[12] I
*I *739:wbs_dat_i[12] I *D ntt_wb_bridge
*CAP
1 wbs_dat_i[12] 0.0208041
2 *739:wbs_dat_i[12] 3.58415e-05
3 *579:9 0.0451469
4 *579:7 0.0451111
5 *579:5 0.0208041
6 *579:9 *580:9 0
7 *578:17 *579:9 0
*RES
1 wbs_dat_i[12] *579:5 467.718 
2 *579:5 *579:7 8 
3 *579:7 *579:9 145.643 
4 *579:9 *739:wbs_dat_i[12] 0.0914667 
*END

*D_NET *580 0.132312
*CONN
*P wbs_dat_i[13] I
*I *739:wbs_dat_i[13] I *D ntt_wb_bridge
*CAP
1 wbs_dat_i[13] 0.0212293
2 *739:wbs_dat_i[13] 3.58415e-05
3 *580:9 0.0441041
4 *580:7 0.0440682
5 *580:5 0.0212293
6 *580:9 *581:9 0
7 *80:29 *580:5 0
8 *82:25 *580:5 0
9 *84:29 *580:5 0
10 *93:23 *580:5 0.00164474
11 *579:9 *580:9 0
*RES
1 wbs_dat_i[13] *580:5 474.761 
2 *580:5 *580:7 8 
3 *580:7 *580:9 142.294 
4 *580:9 *739:wbs_dat_i[13] 0.0914667 
*END

*D_NET *581 0.134431
*CONN
*P wbs_dat_i[14] I
*I *739:wbs_dat_i[14] I *D ntt_wb_bridge
*CAP
1 wbs_dat_i[14] 0.0156351
2 *739:wbs_dat_i[14] 3.51042e-05
3 *581:9 0.0425722
4 *581:7 0.0425371
5 *581:5 0.0156351
6 *581:9 *582:9 0
7 *81:19 *581:5 0.018017
8 *580:9 *581:9 0
*RES
1 wbs_dat_i[14] *581:5 481.804 
2 *581:5 *581:7 8 
3 *581:7 *581:9 138.945 
4 *581:9 *739:wbs_dat_i[14] 0.0914667 
*END

*D_NET *582 0.128766
*CONN
*P wbs_dat_i[15] I
*I *739:wbs_dat_i[15] I *D ntt_wb_bridge
*CAP
1 wbs_dat_i[15] 0.0219414
2 *739:wbs_dat_i[15] 3.58415e-05
3 *582:9 0.0418252
4 *582:7 0.0417894
5 *582:5 0.0219414
6 *582:9 *583:9 0
7 *116:59 *582:9 0.0012331
8 *581:9 *582:9 0
*RES
1 wbs_dat_i[15] *582:5 488.847 
2 *582:5 *582:7 8 
3 *582:7 *582:9 135.682 
4 *582:9 *739:wbs_dat_i[15] 0.0914667 
*END

*D_NET *583 0.126432
*CONN
*P wbs_dat_i[16] I
*I *739:wbs_dat_i[16] I *D ntt_wb_bridge
*CAP
1 wbs_dat_i[16] 0.0222725
2 *739:wbs_dat_i[16] 3.58415e-05
3 *583:9 0.0409435
4 *583:7 0.0409076
5 *583:5 0.0222725
6 *583:9 *584:9 0
7 *582:9 *583:9 0
*RES
1 wbs_dat_i[16] *583:5 495.89 
2 *583:5 *583:7 8 
3 *583:7 *583:9 132.334 
4 *583:9 *739:wbs_dat_i[16] 0.0914667 
*END

*D_NET *584 0.167931
*CONN
*P wbs_dat_i[17] I
*I *739:wbs_dat_i[17] I *D ntt_wb_bridge
*CAP
1 wbs_dat_i[17] 0.0231156
2 *739:wbs_dat_i[17] 3.51042e-05
3 *584:9 0.0278558
4 *584:7 0.0278207
5 *584:5 0.0231156
6 *584:9 *585:17 0
7 io_out[35] *584:9 0.0659884
8 *583:9 *584:9 0
*RES
1 wbs_dat_i[17] *584:5 502.932 
2 *584:5 *584:7 8 
3 *584:7 *584:9 129.071 
4 *584:9 *739:wbs_dat_i[17] 0.0914667 
*END

*D_NET *585 0.123868
*CONN
*P wbs_dat_i[18] I
*I *739:wbs_dat_i[18] I *D ntt_wb_bridge
*CAP
1 wbs_dat_i[18] 0.00118672
2 *739:wbs_dat_i[18] 3.58415e-05
3 *585:17 0.0380396
4 *585:15 0.0380038
5 *585:13 0.0222285
6 *585:11 0.0234153
7 *585:13 wbs_dat_o[18] 0
8 *585:17 *586:9 0
9 io_out[35] *585:17 0
10 *553:5 *585:13 0
11 *578:9 *585:11 0.000958275
12 *584:9 *585:17 0
*RES
1 wbs_dat_i[18] *585:11 34.1303 
2 *585:11 *585:13 493.849 
3 *585:13 *585:15 8 
4 *585:15 *585:17 123.919 
5 *585:17 *739:wbs_dat_i[18] 0.0914667 
*END

*D_NET *586 0.122447
*CONN
*P wbs_dat_i[19] I
*I *739:wbs_dat_i[19] I *D ntt_wb_bridge
*CAP
1 wbs_dat_i[19] 0.0232655
2 *739:wbs_dat_i[19] 3.58415e-05
3 *586:9 0.037958
4 *586:7 0.0379222
5 *586:5 0.0232655
6 *586:9 *588:9 0
7 *585:17 *586:9 0
*RES
1 wbs_dat_i[19] *586:5 517.018 
2 *586:5 *586:7 8 
3 *586:7 *586:9 122.459 
4 *586:9 *739:wbs_dat_i[19] 0.0914667 
*END

*D_NET *587 0.149288
*CONN
*P wbs_dat_i[1] I
*I *739:wbs_dat_i[1] I *D ntt_wb_bridge
*CAP
1 wbs_dat_i[1] 0.0174741
2 *739:wbs_dat_i[1] 3.51042e-05
3 *587:9 0.0571699
4 *587:7 0.0571348
5 *587:5 0.0174741
6 *587:9 *598:9 0
7 *576:9 *587:9 0
*RES
1 wbs_dat_i[1] *587:5 390.247 
2 *587:5 *587:7 8 
3 *587:7 *587:9 185.313 
4 *587:9 *739:wbs_dat_i[1] 0.0914667 
*END

*D_NET *588 0.120358
*CONN
*P wbs_dat_i[20] I
*I *739:wbs_dat_i[20] I *D ntt_wb_bridge
*CAP
1 wbs_dat_i[20] 0.0235881
2 *739:wbs_dat_i[20] 3.51042e-05
3 *588:9 0.0365909
4 *588:7 0.0365558
5 *588:5 0.0235881
6 *588:9 *589:9 0
7 *586:9 *588:9 0
*RES
1 wbs_dat_i[20] *588:5 524.061 
2 *588:5 *588:7 8 
3 *588:7 *588:9 119.11 
4 *588:9 *739:wbs_dat_i[20] 0.0914667 
*END

*D_NET *589 0.118909
*CONN
*P wbs_dat_i[21] I
*I *739:wbs_dat_i[21] I *D ntt_wb_bridge
*CAP
1 wbs_dat_i[21] 0.0239142
2 *739:wbs_dat_i[21] 3.58415e-05
3 *589:9 0.0355405
4 *589:7 0.0355047
5 *589:5 0.0239142
6 *589:9 *590:9 0
7 *588:9 *589:9 0
*RES
1 wbs_dat_i[21] *589:5 531.104 
2 *589:5 *589:7 8 
3 *589:7 *589:9 115.847 
4 *589:9 *739:wbs_dat_i[21] 0.0914667 
*END

*D_NET *590 0.118034
*CONN
*P wbs_dat_i[22] I
*I *739:wbs_dat_i[22] I *D ntt_wb_bridge
*CAP
1 wbs_dat_i[22] 0.0242471
2 *739:wbs_dat_i[22] 3.58415e-05
3 *590:9 0.0347699
4 *590:7 0.034734
5 *590:5 0.0242471
6 *590:9 *591:9 0
7 *589:9 *590:9 0
*RES
1 wbs_dat_i[22] *590:5 538.147 
2 *590:5 *590:7 8 
3 *590:7 *590:9 112.498 
4 *590:9 *739:wbs_dat_i[22] 0.0914667 
*END

*D_NET *591 0.116605
*CONN
*P wbs_dat_i[23] I
*I *739:wbs_dat_i[23] I *D ntt_wb_bridge
*CAP
1 wbs_dat_i[23] 0.0245783
2 *739:wbs_dat_i[23] 3.58415e-05
3 *591:9 0.0337244
4 *591:7 0.0336886
5 *591:5 0.0245783
6 *591:9 *592:9 0
7 *590:9 *591:9 0
*RES
1 wbs_dat_i[23] *591:5 545.19 
2 *591:5 *591:7 8 
3 *591:7 *591:9 109.15 
4 *591:9 *739:wbs_dat_i[23] 0.0914667 
*END

*D_NET *592 0.115222
*CONN
*P wbs_dat_i[24] I
*I *739:wbs_dat_i[24] I *D ntt_wb_bridge
*CAP
1 wbs_dat_i[24] 0.0249094
2 *739:wbs_dat_i[24] 3.58415e-05
3 *592:9 0.0327014
4 *592:7 0.0326655
5 *592:5 0.0249094
6 *592:9 *593:9 0
7 *591:9 *592:9 0
*RES
1 wbs_dat_i[24] *592:5 552.232 
2 *592:5 *592:7 8 
3 *592:7 *592:9 105.887 
4 *592:9 *739:wbs_dat_i[24] 0.0914667 
*END

*D_NET *593 0.113797
*CONN
*P wbs_dat_i[25] I
*I *739:wbs_dat_i[25] I *D ntt_wb_bridge
*CAP
1 wbs_dat_i[25] 0.0252424
2 *739:wbs_dat_i[25] 3.58415e-05
3 *593:9 0.0316559
4 *593:7 0.0316201
5 *593:5 0.0252424
6 *593:9 *594:9 0
7 *592:9 *593:9 0
*RES
1 wbs_dat_i[25] *593:5 559.275 
2 *593:5 *593:7 8 
3 *593:7 *593:9 102.538 
4 *593:9 *739:wbs_dat_i[25] 0.0914667 
*END

*D_NET *594 0.112701
*CONN
*P wbs_dat_i[26] I
*I *739:wbs_dat_i[26] I *D ntt_wb_bridge
*CAP
1 wbs_dat_i[26] 0.0255735
2 *739:wbs_dat_i[26] 3.58415e-05
3 *594:9 0.0307768
4 *594:7 0.0307409
5 *594:5 0.0255735
6 *594:9 *595:9 0
7 *593:9 *594:9 0
*RES
1 wbs_dat_i[26] *594:5 566.318 
2 *594:5 *594:7 8 
3 *594:7 *594:9 99.2749 
4 *594:9 *739:wbs_dat_i[26] 0.0914667 
*END

*D_NET *595 0.111048
*CONN
*P wbs_dat_i[27] I
*I *739:wbs_dat_i[27] I *D ntt_wb_bridge
*CAP
1 wbs_dat_i[27] 0.025903
2 *739:wbs_dat_i[27] 3.51042e-05
3 *595:9 0.0296212
4 *595:7 0.0295861
5 *595:5 0.025903
6 *595:9 *596:9 0
7 *594:9 *595:9 0
*RES
1 wbs_dat_i[27] *595:5 573.361 
2 *595:5 *595:7 8 
3 *595:7 *595:9 95.9261 
4 *595:9 *739:wbs_dat_i[27] 0.0914667 
*END

*D_NET *596 0.109582
*CONN
*P wbs_dat_i[28] I
*I *739:wbs_dat_i[28] I *D ntt_wb_bridge
*CAP
1 wbs_dat_i[28] 0.026236
2 *739:wbs_dat_i[28] 3.58415e-05
3 *596:9 0.028555
4 *596:7 0.0285192
5 *596:5 0.026236
6 *596:9 *597:9 0
7 *116:63 *596:5 0
8 *595:9 *596:9 0
*RES
1 wbs_dat_i[28] *596:5 580.404 
2 *596:5 *596:7 8 
3 *596:7 *596:9 92.6632 
4 *596:9 *739:wbs_dat_i[28] 0.0914667 
*END

*D_NET *597 0.10858
*CONN
*P wbs_dat_i[29] I
*I *739:wbs_dat_i[29] I *D ntt_wb_bridge
*CAP
1 wbs_dat_i[29] 0.0265707
2 *739:wbs_dat_i[29] 3.58415e-05
3 *597:9 0.0277195
4 *597:7 0.0276837
5 *597:5 0.0265707
6 *597:9 *599:9 0
7 *596:9 *597:9 0
*RES
1 wbs_dat_i[29] *597:5 587.447 
2 *597:5 *597:7 8 
3 *597:7 *597:9 89.3144 
4 *597:9 *739:wbs_dat_i[29] 0.0914667 
*END

*D_NET *598 0.146477
*CONN
*P wbs_dat_i[2] I
*I *739:wbs_dat_i[2] I *D ntt_wb_bridge
*CAP
1 wbs_dat_i[2] 0.017384
2 *739:wbs_dat_i[2] 3.58415e-05
3 *598:9 0.0558544
4 *598:7 0.0558185
5 *598:5 0.017384
6 *598:9 *601:9 0
7 *587:9 *598:9 0
*RES
1 wbs_dat_i[2] *598:5 397.29 
2 *598:5 *598:7 8 
3 *598:7 *598:9 180.934 
4 *598:9 *739:wbs_dat_i[2] 0.0914667 
*END

*D_NET *599 0.106718
*CONN
*P wbs_dat_i[30] I
*I *739:wbs_dat_i[30] I *D ntt_wb_bridge
*CAP
1 wbs_dat_i[30] 0.0268916
2 *739:wbs_dat_i[30] 3.51042e-05
3 *599:9 0.0264672
4 *599:7 0.0264321
5 *599:5 0.0268916
6 *599:9 *600:9 0
7 *597:9 *599:9 0
*RES
1 wbs_dat_i[30] *599:5 594.49 
2 *599:5 *599:7 8 
3 *599:7 *599:9 86.0515 
4 *599:9 *739:wbs_dat_i[30] 0.0914667 
*END

*D_NET *600 0.105299
*CONN
*P wbs_dat_i[31] I
*I *739:wbs_dat_i[31] I *D ntt_wb_bridge
*CAP
1 wbs_dat_i[31] 0.0272176
2 *739:wbs_dat_i[31] 3.58415e-05
3 *600:9 0.0254319
4 *600:7 0.025396
5 *600:5 0.0272176
6 *542:7 *600:9 0
7 *599:9 *600:9 0
*RES
1 wbs_dat_i[31] *600:5 601.532 
2 *600:5 *600:7 8 
3 *600:7 *600:9 82.7027 
4 *600:9 *739:wbs_dat_i[31] 0.0914667 
*END

*D_NET *601 0.144432
*CONN
*P wbs_dat_i[3] I
*I *739:wbs_dat_i[3] I *D ntt_wb_bridge
*CAP
1 wbs_dat_i[3] 0.0177248
2 *739:wbs_dat_i[3] 3.51042e-05
3 *601:9 0.0544914
4 *601:7 0.0544563
5 *601:5 0.0177248
6 *601:9 *602:17 0
7 *598:9 *601:9 0
*RES
1 wbs_dat_i[3] *601:5 404.332 
2 *601:5 *601:7 8 
3 *601:7 *601:9 176.469 
4 *601:9 *739:wbs_dat_i[3] 0.0914667 
*END

*D_NET *602 0.144482
*CONN
*P wbs_dat_i[4] I
*I *739:wbs_dat_i[4] I *D ntt_wb_bridge
*CAP
1 wbs_dat_i[4] 0.00293495
2 *739:wbs_dat_i[4] 3.58415e-05
3 *602:17 0.0243295
4 *602:15 0.0242937
5 *602:13 0.0154865
6 *602:11 0.0154865
7 *602:9 0.0294898
8 *602:7 0.0294898
9 *602:5 0.00293495
10 *602:17 *603:9 0
11 *601:9 *602:17 0
*RES
1 wbs_dat_i[4] *602:5 65.5711 
2 *602:5 *602:7 8 
3 *602:7 *602:9 93.3072 
4 *602:9 *602:11 8 
5 *602:11 *602:13 345.949 
6 *602:13 *602:15 8 
7 *602:15 *602:17 78.8387 
8 *602:17 *739:wbs_dat_i[4] 0.0914667 
*END

*D_NET *603 0.142271
*CONN
*P wbs_dat_i[5] I
*I *739:wbs_dat_i[5] I *D ntt_wb_bridge
*CAP
1 wbs_dat_i[5] 0.018424
2 *739:wbs_dat_i[5] 3.58415e-05
3 *603:9 0.052544
4 *603:7 0.0525082
5 *603:5 0.018424
6 *603:9 *604:9 0
7 *116:53 *603:9 0.000334999
8 *602:17 *603:9 0
*RES
1 wbs_dat_i[5] *603:5 418.418 
2 *603:5 *603:7 8 
3 *603:7 *603:9 168.741 
4 *603:9 *739:wbs_dat_i[5] 0.0914667 
*END

*D_NET *604 0.139914
*CONN
*P wbs_dat_i[6] I
*I *739:wbs_dat_i[6] I *D ntt_wb_bridge
*CAP
1 wbs_dat_i[6] 0.0187665
2 *739:wbs_dat_i[6] 3.51042e-05
3 *604:9 0.0511905
4 *604:7 0.0511554
5 *604:5 0.0187665
6 *604:9 *605:9 0
7 *603:9 *604:9 0
*RES
1 wbs_dat_i[6] *604:5 425.461 
2 *604:5 *604:7 8 
3 *604:7 *604:9 165.478 
4 *604:9 *739:wbs_dat_i[6] 0.0914667 
*END

*D_NET *605 0.139667
*CONN
*P wbs_dat_i[7] I
*I *739:wbs_dat_i[7] I *D ntt_wb_bridge
*CAP
1 wbs_dat_i[7] 0.0195536
2 *739:wbs_dat_i[7] 3.58415e-05
3 *605:9 0.0495421
4 *605:7 0.0495062
5 *605:5 0.0195536
6 io_oeb[35] *605:9 0
7 *96:24 *605:9 0.00147584
8 *604:9 *605:9 0
*RES
1 wbs_dat_i[7] *605:5 432.504 
2 *605:5 *605:7 8 
3 *605:7 *605:9 162.129 
4 *605:9 *739:wbs_dat_i[7] 0.0914667 
*END

*D_NET *606 0.142511
*CONN
*P wbs_dat_i[8] I
*I *739:wbs_dat_i[8] I *D ntt_wb_bridge
*CAP
1 wbs_dat_i[8] 0.0199094
2 *739:wbs_dat_i[8] 3.58415e-05
3 *606:9 0.0404451
4 *606:7 0.0404093
5 *606:5 0.0199094
6 *606:9 *607:9 0
7 io_oeb[35] *606:9 0.0218019
8 *96:24 *606:9 0
*RES
1 wbs_dat_i[8] *606:5 439.547 
2 *606:5 *606:7 8 
3 *606:7 *606:9 158.866 
4 *606:9 *739:wbs_dat_i[8] 0.0914667 
*END

*D_NET *607 0.13675
*CONN
*P wbs_dat_i[9] I
*I *739:wbs_dat_i[9] I *D ntt_wb_bridge
*CAP
1 wbs_dat_i[9] 0.0202541
2 *739:wbs_dat_i[9] 3.51042e-05
3 *607:9 0.0481208
4 *607:7 0.0480857
5 *607:5 0.0202541
6 *577:9 *607:9 0
7 *606:9 *607:9 0
*RES
1 wbs_dat_i[9] *607:5 446.59 
2 *607:5 *607:7 8 
3 *607:7 *607:9 155.518 
4 *607:9 *739:wbs_dat_i[9] 0.0914667 
*END

*D_NET *608 0.168881
*CONN
*P wbs_dat_o[0] O
*I *739:wbs_dat_o[0] O *D ntt_wb_bridge
*CAP
1 wbs_dat_o[0] 0.0267707
2 *739:wbs_dat_o[0] 3.58415e-05
3 *608:9 0.0267707
4 *608:7 0.0576342
5 *608:5 0.0576701
6 *608:7 *619:7 0
7 *542:7 *608:7 0
*RES
1 *739:wbs_dat_o[0] *608:5 0.0914667 
2 *608:5 *608:7 188.662 
3 *608:7 *608:9 8 
4 *608:9 wbs_dat_o[0] 615.618 
*END

*D_NET *609 0.163807
*CONN
*P wbs_dat_o[10] O
*I *739:wbs_dat_o[10] O *D ntt_wb_bridge
*CAP
1 wbs_dat_o[10] 0.0302787
2 *739:wbs_dat_o[10] 3.51042e-05
3 *609:9 0.0302787
4 *609:7 0.0462449
5 *609:5 0.04628
6 *609:7 *610:7 0
7 *609:7 *639:7 0
8 *89:25 wbs_dat_o[10] 0.0106893
*RES
1 *739:wbs_dat_o[10] *609:5 0.0914667 
2 *609:5 *609:7 151.138 
3 *609:7 *609:9 8 
4 *609:9 wbs_dat_o[10] 686.047 
*END

*D_NET *610 0.151635
*CONN
*P wbs_dat_o[11] O
*I *739:wbs_dat_o[11] O *D ntt_wb_bridge
*CAP
1 wbs_dat_o[11] 0.0306337
2 *739:wbs_dat_o[11] 3.58415e-05
3 *610:9 0.0306337
4 *610:7 0.0451479
5 *610:5 0.0451838
6 *610:7 *611:7 0
7 *83:29 wbs_dat_o[11] 0
8 *609:7 *610:7 0
*RES
1 *739:wbs_dat_o[11] *610:5 0.0914667 
2 *610:5 *610:7 147.79 
3 *610:7 *610:9 8 
4 *610:9 wbs_dat_o[11] 693.09 
*END

*D_NET *611 0.151133
*CONN
*P wbs_dat_o[12] O
*I *739:wbs_dat_o[12] O *D ntt_wb_bridge
*CAP
1 wbs_dat_o[12] 0.030991
2 *739:wbs_dat_o[12] 3.58415e-05
3 *611:9 0.030991
4 *611:7 0.0445397
5 *611:5 0.0445756
6 *611:7 *612:7 0
7 io_oeb[34] *611:7 0
8 *610:7 *611:7 0
*RES
1 *739:wbs_dat_o[12] *611:5 0.0914667 
2 *611:5 *611:7 144.527 
3 *611:7 *611:9 8 
4 *611:9 wbs_dat_o[12] 700.133 
*END

*D_NET *612 0.206701
*CONN
*P wbs_dat_o[13] O
*I *739:wbs_dat_o[13] O *D ntt_wb_bridge
*CAP
1 wbs_dat_o[13] 0.0242506
2 *739:wbs_dat_o[13] 3.51042e-05
3 *612:9 0.0242506
4 *612:7 0.0292987
5 *612:5 0.0293338
6 *612:7 *613:7 0
7 io_oeb[34] *612:7 0.0734281
8 *116:83 *612:7 0.000657707
9 *120:29 wbs_dat_o[13] 0.0252487
10 *123:21 wbs_dat_o[13] 0.000197917
11 *611:7 *612:7 0
*RES
1 *739:wbs_dat_o[13] *612:5 0.0914667 
2 *612:5 *612:7 141.178 
3 *612:7 *612:9 8 
4 *612:9 wbs_dat_o[13] 707.175 
*END

*D_NET *613 0.148687
*CONN
*P wbs_dat_o[14] O
*I *739:wbs_dat_o[14] O *D ntt_wb_bridge
*CAP
1 wbs_dat_o[14] 0.0325783
2 *739:wbs_dat_o[14] 3.58415e-05
3 *613:9 0.0325783
4 *613:7 0.0417295
5 *613:5 0.0417653
6 *613:7 *614:7 0
7 *81:19 wbs_dat_o[14] 0
8 *82:23 wbs_dat_o[14] 0
9 *119:57 wbs_dat_o[14] 0
10 *540:13 wbs_dat_o[14] 0
11 *612:7 *613:7 0
*RES
1 *739:wbs_dat_o[14] *613:5 0.0914667 
2 *613:5 *613:7 137.915 
3 *613:7 *613:9 8 
4 *613:9 wbs_dat_o[14] 714.218 
*END

*D_NET *614 0.146802
*CONN
*P wbs_dat_o[15] O
*I *739:wbs_dat_o[15] O *D ntt_wb_bridge
*CAP
1 wbs_dat_o[15] 0.0321771
2 *739:wbs_dat_o[15] 3.58415e-05
3 *614:9 0.0321771
4 *614:7 0.041188
5 *614:5 0.0412238
6 *614:7 *615:7 0
7 *613:7 *614:7 0
*RES
1 *739:wbs_dat_o[15] *614:5 0.0914667 
2 *614:5 *614:7 134.566 
3 *614:7 *614:9 8 
4 *614:9 wbs_dat_o[15] 721.261 
*END

*D_NET *615 0.145713
*CONN
*P wbs_dat_o[16] O
*I *739:wbs_dat_o[16] O *D ntt_wb_bridge
*CAP
1 wbs_dat_o[16] 0.0325196
2 *739:wbs_dat_o[16] 3.58415e-05
3 *615:9 0.0325196
4 *615:7 0.0403009
5 *615:5 0.0403368
6 *615:7 *616:7 0
7 *614:7 *615:7 0
*RES
1 *739:wbs_dat_o[16] *615:5 0.0914667 
2 *615:5 *615:7 131.217 
3 *615:7 *615:9 8 
4 *615:9 wbs_dat_o[16] 728.304 
*END

*D_NET *616 0.144385
*CONN
*P wbs_dat_o[17] O
*I *739:wbs_dat_o[17] O *D ntt_wb_bridge
*CAP
1 wbs_dat_o[17] 0.0328656
2 *739:wbs_dat_o[17] 3.58415e-05
3 *616:9 0.0328656
4 *616:7 0.0392909
5 *616:5 0.0393268
6 *616:7 *617:7 0
7 *615:7 *616:7 0
*RES
1 *739:wbs_dat_o[17] *616:5 0.0914667 
2 *616:5 *616:7 127.954 
3 *616:7 *616:9 8 
4 *616:9 wbs_dat_o[17] 735.347 
*END

*D_NET *617 0.143008
*CONN
*P wbs_dat_o[18] O
*I *739:wbs_dat_o[18] O *D ntt_wb_bridge
*CAP
1 wbs_dat_o[18] 0.0332099
2 *739:wbs_dat_o[18] 3.58415e-05
3 *617:9 0.0332099
4 *617:7 0.0382585
5 *617:5 0.0382944
6 *617:7 *618:7 0
7 *585:13 wbs_dat_o[18] 0
8 *616:7 *617:7 0
*RES
1 *739:wbs_dat_o[18] *617:5 0.0914667 
2 *617:5 *617:7 124.606 
3 *617:7 *617:9 8 
4 *617:9 wbs_dat_o[18] 742.39 
*END

*D_NET *618 0.14167
*CONN
*P wbs_dat_o[19] O
*I *739:wbs_dat_o[19] O *D ntt_wb_bridge
*CAP
1 wbs_dat_o[19] 0.0335507
2 *739:wbs_dat_o[19] 3.58415e-05
3 *618:9 0.0335507
4 *618:7 0.0372485
5 *618:5 0.0372843
6 *618:7 *620:7 0
7 *617:7 *618:7 0
*RES
1 *739:wbs_dat_o[19] *618:5 0.0914667 
2 *618:5 *618:7 121.343 
3 *618:7 *618:9 8 
4 *618:9 wbs_dat_o[19] 749.432 
*END

*D_NET *619 0.16947
*CONN
*P wbs_dat_o[1] O
*I *739:wbs_dat_o[1] O *D ntt_wb_bridge
*CAP
1 wbs_dat_o[1] 0.027128
2 *739:wbs_dat_o[1] 3.58415e-05
3 *619:9 0.027128
4 *619:7 0.0568433
5 *619:5 0.0568792
6 *619:7 *630:7 0
7 *116:75 *619:7 0.00145525
8 *608:7 *619:7 0
*RES
1 *739:wbs_dat_o[1] *619:5 0.0914667 
2 *619:5 *619:7 184.197 
3 *619:7 *619:9 8 
4 *619:9 wbs_dat_o[1] 622.661 
*END

*D_NET *620 0.141101
*CONN
*P wbs_dat_o[20] O
*I *739:wbs_dat_o[20] O *D ntt_wb_bridge
*CAP
1 wbs_dat_o[20] 0.0346551
2 *739:wbs_dat_o[20] 3.51042e-05
3 *620:9 0.0346551
4 *620:7 0.0358604
5 *620:5 0.0358955
6 *620:7 *621:7 0
7 *116:87 wbs_dat_o[20] 0
8 *618:7 *620:7 0
*RES
1 *739:wbs_dat_o[20] *620:5 0.0914667 
2 *620:5 *620:7 117.994 
3 *620:7 *620:9 8 
4 *620:9 wbs_dat_o[20] 756.475 
*END

*D_NET *621 0.139784
*CONN
*P wbs_dat_o[21] O
*I *739:wbs_dat_o[21] O *D ntt_wb_bridge
*CAP
1 wbs_dat_o[21] 0.03501
2 *739:wbs_dat_o[21] 3.58415e-05
3 *621:9 0.03501
4 *621:7 0.0348463
5 *621:5 0.0348821
6 *621:7 *622:7 0
7 *620:7 *621:7 0
*RES
1 *739:wbs_dat_o[21] *621:5 0.0914667 
2 *621:5 *621:7 114.731 
3 *621:7 *621:9 8 
4 *621:9 wbs_dat_o[21] 763.518 
*END

*D_NET *622 0.139099
*CONN
*P wbs_dat_o[22] O
*I *739:wbs_dat_o[22] O *D ntt_wb_bridge
*CAP
1 wbs_dat_o[22] 0.0353548
2 *739:wbs_dat_o[22] 3.58415e-05
3 *622:9 0.0353548
4 *622:7 0.0341591
5 *622:5 0.0341949
6 *622:7 *623:7 0
7 *116:79 wbs_dat_o[22] 0
8 *621:7 *622:7 0
*RES
1 *739:wbs_dat_o[22] *622:5 0.0914667 
2 *622:5 *622:7 111.382 
3 *622:7 *622:9 8 
4 *622:9 wbs_dat_o[22] 770.561 
*END

*D_NET *623 0.137236
*CONN
*P wbs_dat_o[23] O
*I *739:wbs_dat_o[23] O *D ntt_wb_bridge
*CAP
1 wbs_dat_o[23] 0.0356995
2 *739:wbs_dat_o[23] 3.51042e-05
3 *623:9 0.0356995
4 *623:7 0.0328834
5 *623:5 0.0329185
6 *623:7 *624:7 0
7 *622:7 *623:7 0
*RES
1 *739:wbs_dat_o[23] *623:5 0.0914667 
2 *623:5 *623:7 108.119 
3 *623:7 *623:9 8 
4 *623:9 wbs_dat_o[23] 777.604 
*END

*D_NET *624 0.135861
*CONN
*P wbs_dat_o[24] O
*I *739:wbs_dat_o[24] O *D ntt_wb_bridge
*CAP
1 wbs_dat_o[24] 0.0360131
2 *739:wbs_dat_o[24] 3.58415e-05
3 *624:9 0.0360131
4 *624:7 0.0318816
5 *624:5 0.0319175
6 *624:7 *625:7 0
7 *623:7 *624:7 0
*RES
1 *739:wbs_dat_o[24] *624:5 0.0914667 
2 *624:5 *624:7 104.77 
3 *624:7 *624:9 8 
4 *624:9 wbs_dat_o[24] 783.943 
*END

*D_NET *625 0.133567
*CONN
*P wbs_dat_o[25] O
*I *739:wbs_dat_o[25] O *D ntt_wb_bridge
*CAP
1 wbs_dat_o[25] 0.0355611
2 *739:wbs_dat_o[25] 3.58415e-05
3 *625:9 0.0355611
4 *625:7 0.0311864
5 *625:5 0.0312223
6 *625:7 *626:7 0
7 *624:7 *625:7 0
*RES
1 *739:wbs_dat_o[25] *625:5 0.0914667 
2 *625:5 *625:7 101.507 
3 *625:7 *625:9 8 
4 *625:9 wbs_dat_o[25] 790.985 
*END

*D_NET *626 0.13192
*CONN
*P wbs_dat_o[26] O
*I *739:wbs_dat_o[26] O *D ntt_wb_bridge
*CAP
1 wbs_dat_o[26] 0.0358951
2 *739:wbs_dat_o[26] 3.51042e-05
3 *626:9 0.0358951
4 *626:7 0.0300297
5 *626:5 0.0300648
6 *625:7 *626:7 0
*RES
1 *739:wbs_dat_o[26] *626:5 0.0914667 
2 *626:5 *626:7 98.1587 
3 *626:7 *626:9 8 
4 *626:9 wbs_dat_o[26] 798.028 
*END

*D_NET *627 0.13272
*CONN
*P wbs_dat_o[27] O
*I *739:wbs_dat_o[27] O *D ntt_wb_bridge
*CAP
1 wbs_dat_o[27] 0.0370785
2 *739:wbs_dat_o[27] 3.58415e-05
3 *627:9 0.0370785
4 *627:7 0.0292459
5 *627:5 0.0292817
6 *627:7 *628:7 0
*RES
1 *739:wbs_dat_o[27] *627:5 0.0914667 
2 *627:5 *627:7 94.8099 
3 *627:7 *627:9 8 
4 *627:9 wbs_dat_o[27] 805.775 
*END

*D_NET *628 0.131392
*CONN
*P wbs_dat_o[28] O
*I *739:wbs_dat_o[28] O *D ntt_wb_bridge
*CAP
1 wbs_dat_o[28] 0.0374232
2 *739:wbs_dat_o[28] 3.58415e-05
3 *628:9 0.0374232
4 *628:7 0.0282372
5 *628:5 0.028273
6 *628:7 *629:7 0
7 *627:7 *628:7 0
*RES
1 *739:wbs_dat_o[28] *628:5 0.0914667 
2 *628:5 *628:7 91.5469 
3 *628:7 *628:9 8 
4 *628:9 wbs_dat_o[28] 812.818 
*END

*D_NET *629 0.129577
*CONN
*P wbs_dat_o[29] O
*I *739:wbs_dat_o[29] O *D ntt_wb_bridge
*CAP
1 wbs_dat_o[29] 0.0377679
2 *739:wbs_dat_o[29] 3.51042e-05
3 *629:9 0.0377679
4 *629:7 0.0269854
5 *629:5 0.0270205
6 *629:7 *631:7 0
7 *628:7 *629:7 0
*RES
1 *739:wbs_dat_o[29] *629:5 0.0914667 
2 *629:5 *629:7 88.1981 
3 *629:7 *629:9 8 
4 *629:9 wbs_dat_o[29] 819.861 
*END

*D_NET *630 0.165106
*CONN
*P wbs_dat_o[2] O
*I *739:wbs_dat_o[2] O *D ntt_wb_bridge
*CAP
1 wbs_dat_o[2] 0.0274801
2 *739:wbs_dat_o[2] 3.51042e-05
3 *630:9 0.0274801
4 *630:7 0.0550375
5 *630:5 0.0550726
6 *630:7 *633:7 0
7 *619:7 *630:7 0
*RES
1 *739:wbs_dat_o[2] *630:5 0.0914667 
2 *630:5 *630:7 179.818 
3 *630:7 *630:9 8 
4 *630:9 wbs_dat_o[2] 629.704 
*END

*D_NET *631 0.128345
*CONN
*P wbs_dat_o[30] O
*I *739:wbs_dat_o[30] O *D ntt_wb_bridge
*CAP
1 wbs_dat_o[30] 0.0381127
2 *739:wbs_dat_o[30] 3.58415e-05
3 *631:9 0.0381127
4 *631:7 0.0260242
5 *631:5 0.0260601
6 *631:7 *632:7 0
7 *629:7 *631:7 0
*RES
1 *739:wbs_dat_o[30] *631:5 0.0914667 
2 *631:5 *631:7 84.9352 
3 *631:7 *631:9 8 
4 *631:9 wbs_dat_o[30] 826.904 
*END

*D_NET *632 0.12703
*CONN
*P wbs_dat_o[31] O
*I *739:wbs_dat_o[31] O *D ntt_wb_bridge
*CAP
1 wbs_dat_o[31] 0.0384574
2 *739:wbs_dat_o[31] 3.51042e-05
3 *632:9 0.0384574
4 *632:7 0.0250225
5 *632:5 0.0250576
6 *631:7 *632:7 0
*RES
1 *739:wbs_dat_o[31] *632:5 0.0914667 
2 *632:5 *632:7 81.5864 
3 *632:7 *632:9 8 
4 *632:9 wbs_dat_o[31] 833.947 
*END

*D_NET *633 0.164462
*CONN
*P wbs_dat_o[3] O
*I *739:wbs_dat_o[3] O *D ntt_wb_bridge
*CAP
1 wbs_dat_o[3] 0.0285255
2 *739:wbs_dat_o[3] 3.58415e-05
3 *633:9 0.0285255
4 *633:7 0.0536699
5 *633:5 0.0537058
6 *633:7 *634:7 0
7 *630:7 *633:7 0
*RES
1 *739:wbs_dat_o[3] *633:5 0.0914667 
2 *633:5 *633:7 175.353 
3 *633:7 *633:9 8 
4 *633:9 wbs_dat_o[3] 636.747 
*END

*D_NET *634 0.163974
*CONN
*P wbs_dat_o[4] O
*I *739:wbs_dat_o[4] O *D ntt_wb_bridge
*CAP
1 wbs_dat_o[4] 0.00327537
2 *739:wbs_dat_o[4] 3.58415e-05
3 *634:17 0.00327537
4 *634:15 0.0294945
5 *634:13 0.0294945
6 *634:11 0.0255985
7 *634:9 0.0255985
8 *634:7 0.0235826
9 *634:5 0.0236184
10 *634:7 *635:7 0
11 *633:7 *634:7 0
*RES
1 *739:wbs_dat_o[4] *634:5 0.0914667 
2 *634:5 *634:7 76.2627 
3 *634:7 *634:9 8 
4 *634:9 *634:11 570.616 
5 *634:11 *634:13 8 
6 *634:13 *634:15 94.7669 
7 *634:15 *634:17 8 
8 *634:17 wbs_dat_o[4] 73.3182 
*END

*D_NET *635 0.159283
*CONN
*P wbs_dat_o[5] O
*I *739:wbs_dat_o[5] O *D ntt_wb_bridge
*CAP
1 wbs_dat_o[5] 0.028536
2 *739:wbs_dat_o[5] 3.51042e-05
3 *635:9 0.028536
4 *635:7 0.0510703
5 *635:5 0.0511054
6 *635:7 *636:7 0
7 *634:7 *635:7 0
*RES
1 *739:wbs_dat_o[5] *635:5 0.0914667 
2 *635:5 *635:7 167.711 
3 *635:7 *635:9 8 
4 *635:9 wbs_dat_o[5] 650.833 
*END

*D_NET *636 0.158687
*CONN
*P wbs_dat_o[6] O
*I *739:wbs_dat_o[6] O *D ntt_wb_bridge
*CAP
1 wbs_dat_o[6] 0.0288882
2 *739:wbs_dat_o[6] 3.58415e-05
3 *636:9 0.0288882
4 *636:7 0.0504197
5 *636:5 0.0504555
6 *636:7 *637:7 0
7 *635:7 *636:7 0
*RES
1 *739:wbs_dat_o[6] *636:5 0.0914667 
2 *636:5 *636:7 164.362 
3 *636:7 *636:9 8 
4 *636:9 wbs_dat_o[6] 657.875 
*END

*D_NET *637 0.158223
*CONN
*P wbs_dat_o[7] O
*I *739:wbs_dat_o[7] O *D ntt_wb_bridge
*CAP
1 wbs_dat_o[7] 0.0292307
2 *739:wbs_dat_o[7] 3.58415e-05
3 *637:9 0.0292307
4 *637:7 0.049845
5 *637:5 0.0498808
6 *637:7 *638:7 0
7 *636:7 *637:7 0
*RES
1 *739:wbs_dat_o[7] *637:5 0.0914667 
2 *637:5 *637:7 161.013 
3 *637:7 *637:9 8 
4 *637:9 wbs_dat_o[7] 664.918 
*END

*D_NET *638 0.165682
*CONN
*P wbs_dat_o[8] O
*I *739:wbs_dat_o[8] O *D ntt_wb_bridge
*CAP
1 wbs_dat_o[8] 0.0295743
2 *739:wbs_dat_o[8] 3.51042e-05
3 *638:9 0.0295743
4 *638:7 0.0483799
5 *638:5 0.048415
6 *638:7 *639:7 0
7 *127:27 wbs_dat_o[8] 0.0097033
8 *637:7 *638:7 0
*RES
1 *739:wbs_dat_o[8] *638:5 0.0914667 
2 *638:5 *638:7 157.75 
3 *638:7 *638:9 8 
4 *638:9 wbs_dat_o[8] 671.961 
*END

*D_NET *639 0.15449
*CONN
*P wbs_dat_o[9] O
*I *739:wbs_dat_o[9] O *D ntt_wb_bridge
*CAP
1 wbs_dat_o[9] 0.0299265
2 *739:wbs_dat_o[9] 3.58415e-05
3 *639:9 0.0299265
4 *639:7 0.0472829
5 *639:5 0.0473188
6 *609:7 *639:7 0
7 *638:7 *639:7 0
*RES
1 *739:wbs_dat_o[9] *639:5 0.0914667 
2 *639:5 *639:7 154.401 
3 *639:7 *639:9 8 
4 *639:9 wbs_dat_o[9] 679.004 
*END

*D_NET *640 0.128397
*CONN
*P wbs_sel_i[0] I
*I *739:wbs_sel_i[0] I *D ntt_wb_bridge
*CAP
1 wbs_sel_i[0] 0.0057363
2 *739:wbs_sel_i[0] 3.51042e-05
3 *640:9 0.0584622
4 *640:7 0.0584271
5 *640:5 0.0057363
6 *640:9 *641:9 0
7 *640:9 *645:9 0
*RES
1 wbs_sel_i[0] *640:5 129.661 
2 *640:5 *640:7 8 
3 *640:7 *640:9 187.546 
4 *640:9 *739:wbs_sel_i[0] 0.0914667 
*END

*D_NET *641 0.12632
*CONN
*P wbs_sel_i[1] I
*I *739:wbs_sel_i[1] I *D ntt_wb_bridge
*CAP
1 wbs_sel_i[1] 0.00605101
2 *739:wbs_sel_i[1] 3.58415e-05
3 *641:9 0.0571088
4 *641:7 0.057073
5 *641:5 0.00605101
6 *641:9 *642:9 0
7 *640:9 *641:9 0
*RES
1 wbs_sel_i[1] *641:5 136.704 
2 *641:5 *641:7 8 
3 *641:7 *641:9 183.081 
4 *641:9 *739:wbs_sel_i[1] 0.0914667 
*END

*D_NET *642 0.125325
*CONN
*P wbs_sel_i[2] I
*I *739:wbs_sel_i[2] I *D ntt_wb_bridge
*CAP
1 wbs_sel_i[2] 0.00653308
2 *739:wbs_sel_i[2] 3.58415e-05
3 *642:9 0.0561294
4 *642:7 0.0560936
5 *642:5 0.00653308
6 *642:9 *643:9 0
7 *641:9 *642:9 0
*RES
1 wbs_sel_i[2] *642:5 143.747 
2 *642:5 *642:7 8 
3 *642:7 *642:9 178.702 
4 *642:9 *739:wbs_sel_i[2] 0.0914667 
*END

*D_NET *643 0.123054
*CONN
*P wbs_sel_i[3] I
*I *739:wbs_sel_i[3] I *D ntt_wb_bridge
*CAP
1 wbs_sel_i[3] 0.00668042
2 *739:wbs_sel_i[3] 3.51042e-05
3 *643:9 0.0542618
4 *643:7 0.0542267
5 *643:5 0.00668042
6 *131:19 *643:5 0.00116978
7 *543:9 *643:9 0
8 *642:9 *643:9 0
*RES
1 wbs_sel_i[3] *643:5 150.79 
2 *643:5 *643:7 8 
3 *643:7 *643:9 174.322 
4 *643:9 *739:wbs_sel_i[3] 0.0914667 
*END

*D_NET *644 0.131124
*CONN
*P wbs_stb_i I
*I *739:wbs_stb_i I *D ntt_wb_bridge
*CAP
1 wbs_stb_i 0.00404541
2 *739:wbs_stb_i 3.58415e-05
3 *644:9 0.060285
4 *644:7 0.0602491
5 *644:5 0.00404541
6 *644:9 *645:9 0
7 *542:11 *644:5 0
8 *575:13 *644:5 0.00246322
9 *575:17 *644:9 0
*RES
1 wbs_stb_i *644:5 115.575 
2 *644:5 *644:7 8 
3 *644:7 *644:9 193.041 
4 *644:9 *739:wbs_stb_i 0.0914667 
*END

*D_NET *645 0.131351
*CONN
*P wbs_we_i I
*I *739:wbs_we_i I *D ntt_wb_bridge
*CAP
1 wbs_we_i 0.00541816
2 *739:wbs_we_i 3.58415e-05
3 *645:9 0.0602574
4 *645:7 0.0602215
5 *645:5 0.00541816
6 *640:9 *645:9 0
7 *644:9 *645:9 0
*RES
1 wbs_we_i *645:5 122.618 
2 *645:5 *645:7 8 
3 *645:7 *645:9 191.925 
4 *645:9 *739:wbs_we_i 0.0914667 
*END

*D_NET *646 0.753733
*CONN
*I *739:busy_i I *D ntt_wb_bridge
*I *740:busy O *D ntt_engine_256
*CAP
1 *739:busy_i 3.89522e-05
2 *740:busy 0.000482967
3 *646:43 0.0264557
4 *646:41 0.0303611
5 *646:23 0.0700797
6 *646:21 0.0661353
7 *646:19 0.00906225
8 *646:17 0.00914355
9 *646:11 0.0215
10 *646:9 0.0219017
11 *646:11 *658:47 0.0107929
12 *646:11 *663:11 0.000318721
13 *646:11 *673:11 0.0400557
14 *646:11 *685:13 0.0108425
15 *646:11 *714:39 0.0497995
16 *646:11 *715:23 0.0502313
17 *646:17 *740:mem_wdata[3] 0.000123544
18 *646:19 *648:15 0.000344485
19 *646:19 *658:39 0.0566527
20 *646:19 *679:11 0.00925678
21 *646:19 *685:21 0.000168758
22 *646:19 *714:31 0
23 *646:19 *715:23 0.00164683
24 *646:19 *732:27 0.0468669
25 *646:23 *740:mem_addr[3] 0.00343467
26 *646:23 *658:27 0.000252808
27 *646:23 *658:35 0
28 *646:23 *682:15 0.0849957
29 *646:23 *682:23 0.0260783
30 *646:23 *685:33 0.00814556
31 *646:23 *685:41 0.00316653
32 *646:23 *700:19 0.0132623
33 *646:23 *714:19 0.005645
34 *646:23 *724:23 0.0027639
35 *646:41 *700:11 0.00240767
36 *77:137 *646:41 0.000489495
37 *114:25 *646:41 0.00702373
38 *114:35 *646:41 0.00089678
39 *114:37 *646:23 0
40 *115:233 *646:11 0.000220332
41 *531:23 *646:43 0.0626881
*RES
1 *740:busy *646:9 18.3364 
2 *646:9 *646:11 185.786 
3 *646:11 *646:17 24.7296 
4 *646:17 *646:19 622.361 
5 *646:19 *646:21 15 
6 *646:21 *646:23 2467.08 
7 *646:23 *646:41 46.4504 
8 *646:41 *646:43 122.845 
9 *646:43 *739:busy_i 0.0914667 
*END

*D_NET *647 0.356418
*CONN
*I *739:done_i I *D ntt_wb_bridge
*I *740:done O *D ntt_engine_256
*CAP
1 *739:done_i 0.00191021
2 *740:done 0.00105419
3 *647:15 0.00403498
4 *647:13 0.00212477
5 *647:11 0.0351323
6 *647:9 0.0361865
7 *647:11 *649:11 0.0277041
8 *647:11 *664:19 0.1288
9 *647:11 *695:23 0.0522672
10 *647:11 *704:31 0.00824171
11 *647:11 *710:23 0.0108933
12 *647:11 *710:31 0.014594
13 *647:11 *712:18 0.000216987
14 *647:11 *734:23 0.0171856
15 *647:15 *649:15 0
16 *647:15 *661:27 0
17 *647:15 *683:27 0
18 *281:19 *647:15 0.00293544
19 *282:19 *647:15 0.00283301
20 *354:25 *647:11 0.010303
*RES
1 *740:done *647:9 28.1964 
2 *647:9 *647:11 273.284 
3 *647:11 *647:13 8 
4 *647:13 *647:15 60.7136 
5 *647:15 *739:done_i 12.312 
*END

*D_NET *648 0.563702
*CONN
*I *740:rst_n I *D ntt_engine_256
*I *739:engine_rst_n_o O *D ntt_wb_bridge
*CAP
1 *740:rst_n 0.000506821
2 *739:engine_rst_n_o 4.55871e-05
3 *648:15 0.00736098
4 *648:13 0.00685416
5 *648:11 0.0730181
6 *648:9 0.0730181
7 *648:7 0.0390346
8 *648:5 0.0390802
9 *648:11 *653:11 0.131381
10 *648:11 *659:15 0.0289457
11 *648:11 *671:17 0
12 *648:15 *653:23 0.0281369
13 *648:15 *663:11 0.00182186
14 *648:15 *671:15 0.0036422
15 *648:15 *685:21 2.94414e-05
16 *648:15 *694:17 5.85133e-05
17 *648:15 *714:31 0.0010668
18 *648:15 *715:23 0.00216345
19 *648:15 *720:23 4.22158e-05
20 *648:15 *732:27 0.0373483
21 *74:31 *648:11 0
22 *76:23 *648:11 0
23 *78:137 *648:11 0.0202905
24 *78:153 *648:11 0.00909211
25 *115:211 *648:11 0.0371617
26 *141:17 *648:11 0.0232583
27 *646:19 *648:15 0.000344485
*RES
1 *739:engine_rst_n_o *648:5 0.0914667 
2 *648:5 *648:7 126.581 
3 *648:7 *648:9 8 
4 *648:9 *648:11 3340.4 
5 *648:11 *648:13 15 
6 *648:13 *648:15 427.025 
7 *648:15 *740:rst_n 24.9325 
*END

*D_NET *649 0.181845
*CONN
*I *739:mem_rvalid_i I *D ntt_wb_bridge
*I *740:mem_rvalid O *D ntt_engine_256
*CAP
1 *739:mem_rvalid_i 0.00168849
2 *740:mem_rvalid 0.0009419
3 *649:15 0.00474636
4 *649:13 0.00305787
5 *649:11 0.0192157
6 *649:9 0.0201576
7 *649:9 *704:29 2.79482e-05
8 *649:11 *704:23 0.0139416
9 *649:11 *704:31 0.000122047
10 *649:11 *706:15 0.0141025
11 *649:11 *712:18 0.000102152
12 *649:11 *716:15 0.00982565
13 *649:11 *719:13 0.0171595
14 *649:11 *727:15 0.000169223
15 *649:11 *731:43 0.043566
16 *649:15 *662:41 0
17 *649:15 *717:11 0
18 *101:19 *649:15 0.000672801
19 *281:19 *649:15 0
20 *284:17 *649:15 0.00115458
21 *357:23 *649:11 0
22 *360:31 *649:15 0
23 *367:27 *649:15 0.00326498
24 *369:19 *649:15 6.4063e-05
25 *373:17 *649:15 0.000159995
26 *647:11 *649:11 0.0277041
27 *647:15 *649:15 0
*RES
1 *740:mem_rvalid *649:9 26.0836 
2 *649:9 *649:11 142.938 
3 *649:11 *649:13 8 
4 *649:13 *649:15 79.7293 
5 *649:15 *739:mem_rvalid_i 11.7968 
*END

*D_NET *650 0.602931
*CONN
*I *740:mac_init I *D ntt_engine_256
*I *739:mac_init_o O *D ntt_wb_bridge
*CAP
1 *740:mac_init 0.00239472
2 *739:mac_init_o 0.00134614
3 *650:35 0.0102975
4 *650:33 0.00790279
5 *650:31 0.0263726
6 *650:29 0.0265719
7 *650:23 0.00442774
8 *650:21 0.00422841
9 *650:19 0.0142647
10 *650:17 0.0157499
11 *650:13 0.00283141
12 *650:13 *737:9 0
13 *650:19 *690:19 0.00394328
14 *650:19 *710:19 0.0331572
15 *650:23 *662:31 0
16 *650:23 *664:27 0.0198188
17 *650:23 *676:19 0.000647635
18 *650:23 *677:23 0.0234929
19 *650:31 *657:15 5.39937e-05
20 *650:31 *661:15 4.655e-05
21 *650:31 *662:23 0.000202721
22 *650:31 *664:19 0.155789
23 *650:31 *675:25 0.000290881
24 *650:31 *677:15 0.151814
25 *650:31 *687:11 0.000939616
26 *650:35 *661:11 0.0259376
27 *92:27 *650:35 2.67829e-05
28 *93:23 *650:35 0.00964008
29 *354:27 *650:19 0.000129592
30 *358:21 *650:29 0.000285027
31 *358:23 *650:31 6.80247e-05
32 *359:25 *650:23 0.0027276
33 *360:31 *650:13 0.000103866
34 *364:19 *650:13 3.57902e-05
35 *378:27 *650:19 0.0573927
*RES
1 *739:mac_init_o *650:13 27.8719 
2 *650:13 *650:17 38.49 
3 *650:17 *650:19 737.532 
4 *650:19 *650:21 15 
5 *650:21 *650:23 262.657 
6 *650:23 *650:29 27.5468 
7 *650:29 *650:31 288.869 
8 *650:31 *650:33 8 
9 *650:33 *650:35 61.3648 
10 *650:35 *740:mac_init 12.7768 
*END

*D_NET *651 0.175301
*CONN
*I *740:mem_addr[0] I *D ntt_engine_256
*I *739:mem_addr_o[0] O *D ntt_wb_bridge
*CAP
1 *740:mem_addr[0] 0.000761782
2 *739:mem_addr_o[0] 0.00730353
3 *651:15 0.0206346
4 *651:13 0.0198728
5 *651:11 0.021732
6 *651:9 0.0290355
7 *651:15 *660:11 0.0425435
8 *651:15 *670:13 0.000241169
9 *651:15 *699:15 0
10 *651:15 *705:17 0.00202622
11 *651:15 *705:21 0.0018052
12 la_data_out[87] *651:11 0.0255843
13 *77:57 *651:11 0.00376016
14 *101:23 *651:15 0
*RES
1 *739:mem_addr_o[0] *651:9 30.0864 
2 *651:9 *651:11 698.092 
3 *651:11 *651:13 8 
4 *651:13 *651:15 98.6309 
5 *651:15 *740:mem_addr[0] 24.1986 
*END

*D_NET *652 0.36025
*CONN
*I *740:mem_addr[1] I *D ntt_engine_256
*I *739:mem_addr_o[1] O *D ntt_wb_bridge
*CAP
1 *740:mem_addr[1] 0.0004467
2 *739:mem_addr_o[1] 2.38341e-05
3 *652:11 0.0423573
4 *652:9 0.0419106
5 *652:7 0.038113
6 *652:5 0.0381369
7 *652:11 *740:mem_wdata[18] 0.000227734
8 *652:11 *654:11 0.0321603
9 *652:11 *663:23 0.0188723
10 *652:11 *666:9 0.0581789
11 *652:11 *667:15 0.0165918
12 *652:11 *672:6 0.0385151
13 *652:11 *673:15 0.0135808
14 *652:11 *730:11 0
15 *114:25 *652:11 0.0211348
*RES
1 *739:mem_addr_o[1] *652:5 0.0914667 
2 *652:5 *652:7 123.361 
3 *652:7 *652:9 8 
4 *652:9 *652:11 279.69 
5 *652:11 *740:mem_addr[1] 9.1368 
*END

*D_NET *653 0.521192
*CONN
*I *740:mem_addr[2] I *D ntt_engine_256
*I *739:mem_addr_o[2] O *D ntt_wb_bridge
*CAP
1 *740:mem_addr[2] 0.000540981
2 *739:mem_addr_o[2] 2.38341e-05
3 *653:23 0.00471465
4 *653:21 0.00493795
5 *653:11 0.0577146
6 *653:9 0.0569503
7 *653:7 0.0381534
8 *653:5 0.0381773
9 *653:11 *659:15 0.0386373
10 *653:21 *673:15 3.8938e-05
11 *653:21 *682:11 0.000249401
12 *653:21 *714:27 9.40202e-05
13 *653:21 *721:15 0.00165778
14 *653:23 *663:19 0.0187698
15 *653:23 *714:31 0.00272587
16 *653:23 *715:23 0.00637014
17 *653:23 *720:23 8.56254e-05
18 *76:23 *653:11 0.0879982
19 *78:63 *653:7 0.00336572
20 *115:81 *653:7 0.000468408
21 *648:11 *653:11 0.131381
22 *648:15 *653:23 0.0281369
*RES
1 *739:mem_addr_o[2] *653:5 0.0914667 
2 *653:5 *653:7 126.752 
3 *653:7 *653:9 8 
4 *653:9 *653:11 3189.85 
5 *653:11 *653:21 35.5247 
6 *653:21 *653:23 307.441 
7 *653:23 *740:mem_addr[2] 25.2846 
*END

*D_NET *654 0.407013
*CONN
*I *740:mem_addr[3] I *D ntt_engine_256
*I *739:mem_addr_o[3] O *D ntt_wb_bridge
*CAP
1 *740:mem_addr[3] 0.0100931
2 *739:mem_addr_o[3] 2.30967e-05
3 *654:17 0.0103943
4 *654:11 0.0531727
5 *654:9 0.0528715
6 *654:7 0.0376381
7 *654:5 0.0376612
8 *654:11 *658:19 0.000909678
9 *654:11 *666:9 0.0581861
10 *654:11 *667:15 0.00118824
11 *654:11 *679:15 0.00621202
12 *654:11 *685:41 0
13 *654:11 *685:49 0.00409974
14 *654:11 *714:27 0.00882207
15 *654:11 *715:11 0.00828209
16 *654:11 *724:21 0
17 *654:11 *724:23 0.00550404
18 *654:11 *730:11 0.00127362
19 *654:17 *690:9 0
20 *77:145 *654:11 0.00899146
21 *78:63 *654:7 0
22 *114:37 *654:11 0.00162542
23 *114:45 *740:mem_addr[3] 0.00609021
24 *114:45 *654:11 0.0583789
25 *646:23 *740:mem_addr[3] 0.00343467
26 *652:11 *654:11 0.0321603
*RES
1 *739:mem_addr_o[3] *654:5 0.0914667 
2 *654:5 *654:7 123.704 
3 *654:7 *654:9 8 
4 *654:9 *654:11 317.643 
5 *654:11 *654:17 16.7429 
6 *654:17 *740:mem_addr[3] 47.8664 
*END

*D_NET *655 0.446428
*CONN
*I *740:mem_addr[4] I *D ntt_engine_256
*I *739:mem_addr_o[4] O *D ntt_wb_bridge
*CAP
1 *740:mem_addr[4] 0.00256136
2 *739:mem_addr_o[4] 2.38341e-05
3 *655:11 0.182885
4 *655:9 0.180323
5 *655:7 0.0403056
6 *655:5 0.0403294
7 *69:21 *655:11 0
*RES
1 *739:mem_addr_o[4] *655:5 0.0914667 
2 *655:5 *655:7 129.028 
3 *655:7 *655:9 8 
4 *655:9 *655:11 491.415 
5 *655:11 *740:mem_addr[4] 14.2403 
*END

*D_NET *656 0.747865
*CONN
*I *740:mem_addr[5] I *D ntt_engine_256
*I *739:mem_addr_o[5] O *D ntt_wb_bridge
*CAP
1 *740:mem_addr[5] 0.00106368
2 *739:mem_addr_o[5] 0.000655771
3 *656:35 0.019085
4 *656:33 0.0181475
5 *656:27 0.0178073
6 *656:25 0.0176811
7 *656:23 0.0266687
8 *656:21 0.0266946
9 *656:15 0.0431729
10 *656:13 0.043147
11 *656:11 0.0103471
12 *656:9 0.0110029
13 *656:11 *657:11 0.0488184
14 *656:11 *728:11 0.0493137
15 *656:15 *740:mem_we 0.000594411
16 *656:15 *668:19 0.014455
17 *656:15 *675:27 0
18 *656:15 *678:19 0.000746681
19 *656:15 *683:23 0
20 *656:15 *701:15 0
21 *656:15 *701:23 0.000897521
22 *656:15 *711:15 0.0101069
23 *656:15 *728:15 0.000196012
24 *656:15 *728:23 0.00611512
25 *656:23 *676:19 1.37005e-05
26 *656:23 *683:15 0.000120995
27 *656:23 *701:23 0.075746
28 *656:23 *725:23 0
29 *656:23 *729:23 0
30 *656:27 *677:11 0.0228239
31 *656:27 *691:19 0.0777187
32 *656:27 *702:22 0.0936539
33 *656:27 *729:27 0
34 *656:33 *677:9 4.62763e-05
35 *656:35 *677:11 6.57607e-05
36 *656:35 *691:11 0.0364272
37 *656:35 *702:30 0.0492717
38 *656:35 *709:27 0.000133494
39 *656:35 *718:27 0.0168878
40 *79:18 *656:9 0.000210019
41 *118:27 *656:27 0.000763762
42 *118:27 *656:35 0.000974923
43 *342:27 *656:23 0.00017023
44 *343:23 *656:23 0.000667076
45 *349:31 *656:15 0
46 *350:27 *656:15 0
47 *352:19 *656:11 0
48 *378:23 *656:15 0.00545231
*RES
1 *739:mem_addr_o[5] *656:9 9.56053 
2 *656:9 *656:11 640.869 
3 *656:11 *656:13 15 
4 *656:13 *656:15 1038.76 
5 *656:15 *656:21 23.3211 
6 *656:21 *656:23 140.791 
7 *656:23 *656:25 8 
8 *656:25 *656:27 1218.56 
9 *656:27 *656:33 16.2707 
10 *656:33 *656:35 157.199 
11 *656:35 *740:mem_addr[5] 10.6787 
*END

*D_NET *657 0.288001
*CONN
*I *740:mem_addr[6] I *D ntt_engine_256
*I *739:mem_addr_o[6] O *D ntt_wb_bridge
*CAP
1 *740:mem_addr[6] 0.00134755
2 *739:mem_addr_o[6] 0.000693109
3 *657:15 0.0209836
4 *657:13 0.019636
5 *657:11 0.0116009
6 *657:9 0.012294
7 *740:mem_addr[6] *661:21 2.79482e-05
8 *657:11 *722:13 0
9 *657:11 *722:15 0.0425999
10 *657:11 *731:11 0
11 *657:15 *661:15 0.000122047
12 *657:15 *664:27 0.000109935
13 *657:15 *676:19 0.00181246
14 *657:15 *676:27 0.000126921
15 *657:15 *677:15 0.0167351
16 *657:15 *687:11 0.0249199
17 *657:15 *693:17 9.53164e-05
18 *657:15 *696:15 0.00360573
19 *657:15 *696:23 0.0682328
20 *352:15 *657:15 0
21 *352:19 *657:11 0
22 *356:29 *657:15 0.000123818
23 *356:31 *657:11 0
24 *358:23 *657:15 4.8059e-05
25 *359:25 *657:15 0.0128422
26 *362:23 *657:15 0.00117117
27 *650:31 *657:15 5.39937e-05
28 *656:11 *657:11 0.0488184
*RES
1 *739:mem_addr_o[6] *657:9 9.51947 
2 *657:9 *657:11 638.228 
3 *657:11 *657:13 8 
4 *657:13 *657:15 158.566 
5 *657:15 *740:mem_addr[6] 33.1264 
*END

*D_NET *658 0.848533
*CONN
*I *740:mem_addr[7] I *D ntt_engine_256
*I *739:mem_addr_o[7] O *D ntt_wb_bridge
*CAP
1 *740:mem_addr[7] 0.000597266
2 *739:mem_addr_o[7] 0.00400915
3 *658:47 0.00846071
4 *658:45 0.00808538
5 *658:39 0.016307
6 *658:37 0.0160851
7 *658:35 0.0534784
8 *658:33 0.0537743
9 *658:27 0.00583231
10 *658:25 0.00576179
11 *658:19 0.00128755
12 *658:17 0.00106214
13 *658:15 0.02001
14 *658:13 0.02001
15 *658:11 0.0253667
16 *658:9 0.0293759
17 *658:11 *682:39 0.0123927
18 *658:11 *695:19 0.00431501
19 *658:15 *682:35 0.0618809
20 *658:19 *685:49 0.00703703
21 *658:19 *715:11 0.00705159
22 *658:25 *714:25 0.000307289
23 *658:27 *682:15 0.00792197
24 *658:27 *700:19 0.0253471
25 *658:27 *730:19 0.0336313
26 *658:33 *685:31 0
27 *658:35 *685:33 0
28 *658:35 *714:27 0.154572
29 *658:35 *720:21 2.24608e-05
30 *658:39 *679:11 0.0128405
31 *658:39 *685:21 0.0848152
32 *658:39 *714:31 0
33 *658:39 *715:23 0.00298934
34 *658:47 *673:11 0.0097789
35 *658:47 *682:11 0.000289298
36 *658:47 *685:13 0.0198265
37 *658:47 *714:31 0.00402851
38 *77:133 *658:15 0.000609171
39 *114:37 *658:19 5.62433e-06
40 *114:45 *658:35 0.0317869
41 *140:17 *658:11 0.0274254
42 *540:17 *658:39 0.00154593
43 *646:11 *658:47 0.0107929
44 *646:19 *658:39 0.0566527
45 *646:23 *658:27 0.000252808
46 *646:23 *658:35 0
47 *654:11 *658:19 0.000909678
*RES
1 *739:mem_addr_o[7] *658:9 18.4515 
2 *658:9 *658:11 119.119 
3 *658:11 *658:13 8 
4 *658:13 *658:15 113.615 
5 *658:15 *658:17 8 
6 *658:17 *658:19 89.7654 
7 *658:19 *658:25 34.4329 
8 *658:25 *658:27 432.224 
9 *658:27 *658:33 34.9093 
10 *658:33 *658:35 1962.64 
11 *658:35 *658:37 15 
12 *658:37 *658:39 926.322 
13 *658:39 *658:45 26.4904 
14 *658:45 *658:47 55.7835 
15 *658:47 *740:mem_addr[7] 20.2214 
*END

*D_NET *659 0.442628
*CONN
*I *740:mem_addr[8] I *D ntt_engine_256
*I *739:mem_addr_o[8] O *D ntt_wb_bridge
*CAP
1 *740:mem_addr[8] 0.00179048
2 *739:mem_addr_o[8] 2.38341e-05
3 *659:15 0.0918031
4 *659:13 0.0956522
5 *659:7 0.0395775
6 *659:5 0.0339617
7 *659:15 *669:11 0.0780391
8 *659:15 *669:17 0.00200617
9 *659:15 *674:13 0
10 *659:15 *681:11 0.0064505
11 *659:15 *686:21 0.00472853
12 *659:15 *723:11 0
13 *659:15 *738:11 0
14 *75:17 *659:15 0.00419783
15 *76:23 *659:15 0.00462364
16 *102:27 *659:15 0.00272763
17 *115:211 *659:15 0.00526219
18 *141:17 *659:15 0.00420079
19 *648:11 *659:15 0.0289457
20 *653:11 *659:15 0.0386373
*RES
1 *739:mem_addr_o[8] *659:5 0.0914667 
2 *659:5 *659:7 108.935 
3 *659:7 *659:13 26.0992 
4 *659:13 *659:15 426.044 
5 *659:15 *740:mem_addr[8] 12.1347 
*END

*D_NET *660 0.143447
*CONN
*I *739:mem_rdata_i[0] I *D ntt_wb_bridge
*I *740:mem_rdata[0] O *D ntt_engine_256
*CAP
1 *739:mem_rdata_i[0] 0.00807524
2 *740:mem_rdata[0] 0.000757513
3 *660:15 0.0238842
4 *660:13 0.015809
5 *660:11 0.00825265
6 *660:9 0.00901017
7 *660:11 *740:mem_re 0.00743482
8 *660:11 *684:11 0.00462198
9 *660:11 *699:15 0
10 *660:11 *705:17 0.0230581
11 *651:15 *660:11 0.0425435
*RES
1 *740:mem_rdata[0] *660:9 23.9707 
2 *660:9 *660:11 78.624 
3 *660:11 *660:13 8 
4 *660:13 *660:15 352.288 
5 *660:15 *739:mem_rdata_i[0] 31.3744 
*END

*D_NET *661 0.623189
*CONN
*I *739:mem_rdata_i[10] I *D ntt_wb_bridge
*I *740:mem_rdata[10] O *D ntt_engine_256
*CAP
1 *739:mem_rdata_i[10] 0.00161007
2 *740:mem_rdata[10] 0.0018362
3 *661:35 0.00245486
4 *661:27 0.00494821
5 *661:25 0.00410342
6 *661:23 0.0213859
7 *661:21 0.0215287
8 *661:15 0.0234849
9 *661:13 0.0233421
10 *661:11 0.116358
11 *661:9 0.118194
12 *739:mem_rdata_i[10] *739:mem_rdata_i[11] 0
13 *739:mem_rdata_i[10] *712:12 0.000227734
14 *661:15 *662:23 0.0321972
15 *661:15 *662:31 0.00989631
16 *661:15 *676:19 0.00752532
17 *661:15 *677:15 0.0216428
18 *661:15 *696:23 0.0379516
19 *661:23 *662:31 0
20 *661:23 *675:27 0.0823357
21 *661:23 *676:19 0.00168264
22 *661:23 *677:23 0.0263811
23 *661:27 *683:27 0
24 *661:35 *688:27 0.00027256
25 *740:mem_addr[6] *661:21 2.79482e-05
26 *86:33 *661:11 0
27 *91:27 *661:11 0
28 *92:27 *661:11 0
29 *93:23 *661:11 2.75108e-05
30 *129:27 *661:11 0
31 *359:25 *661:23 0.000929309
32 *361:27 *661:27 0
33 *364:19 *661:35 0.000270328
34 *371:19 *661:27 0.000144657
35 *372:17 *661:27 0.0177053
36 *374:19 *661:27 0.0186183
37 *647:15 *661:27 0
38 *650:31 *661:15 4.655e-05
39 *650:35 *661:11 0.0259376
40 *657:15 *661:15 0.000122047
*RES
1 *740:mem_rdata[10] *661:9 12.2243 
2 *661:9 *661:11 337.064 
3 *661:11 *661:13 8 
4 *661:13 *661:15 171.489 
5 *661:15 *661:21 25.4339 
6 *661:21 *661:23 899.642 
7 *661:23 *661:25 15 
8 *661:25 *661:27 250.871 
9 *661:27 *661:35 45.5461 
10 *661:35 *739:mem_rdata_i[10] 11.5317 
*END

*D_NET *662 0.685314
*CONN
*I *739:mem_rdata_i[11] I *D ntt_wb_bridge
*I *740:mem_rdata[11] O *D ntt_engine_256
*CAP
1 *739:mem_rdata_i[11] 0.00160342
2 *740:mem_rdata[11] 0.00569845
3 *662:43 0.0135074
4 *662:41 0.0121969
5 *662:31 0.0693686
6 *662:29 0.0691016
7 *662:23 0.0067556
8 *662:21 0.00672967
9 *662:19 0.0433606
10 *662:17 0.0433606
11 *662:15 0.00569845
12 *662:15 *695:45 0.00461066
13 *662:15 *733:57 0.00685454
14 *662:19 *675:15 9.62472e-05
15 *662:19 *695:35 0.1952
16 *662:19 *734:35 2.47636e-05
17 *662:23 *677:15 0.0151565
18 *662:31 *675:27 0
19 *662:31 *677:15 0.00867433
20 *662:31 *677:23 0
21 *662:31 *687:11 0.00124083
22 *662:31 *696:15 0.00292378
23 *662:41 *717:11 7.04503e-05
24 *662:43 *689:27 0
25 *662:43 *717:11 0.000791055
26 *739:mem_rdata_i[10] *739:mem_rdata_i[11] 0
27 *80:29 *662:19 0.096996
28 *101:19 *662:43 0.0100752
29 *116:109 *662:23 0.00317052
30 *353:19 *662:41 0
31 *356:29 *662:31 0.00314921
32 *358:23 *662:41 0
33 *360:31 *662:43 0.0029747
34 *362:23 *662:31 0.00301614
35 *364:19 *662:43 0.000806232
36 *367:27 *662:43 0.00298196
37 *369:19 *662:43 0.00341131
38 *373:17 *662:43 0.00341131
39 *649:15 *662:41 0
40 *650:23 *662:31 0
41 *650:31 *662:23 0.000202721
42 *661:15 *662:23 0.0321972
43 *661:15 *662:31 0.00989631
44 *661:23 *662:31 0
*RES
1 *740:mem_rdata[11] *662:15 44.559 
2 *662:15 *662:17 8 
3 *662:17 *662:19 2517.26 
4 *662:19 *662:21 8 
5 *662:21 *662:23 59.5616 
6 *662:23 *662:29 23.3211 
7 *662:29 *662:31 1508.52 
8 *662:31 *662:41 34.323 
9 *662:41 *662:43 44.8635 
10 *662:43 *739:mem_rdata_i[11] 11.5821 
*END

*D_NET *663 0.789679
*CONN
*I *739:mem_rdata_i[12] I *D ntt_wb_bridge
*I *740:mem_rdata[12] O *D ntt_engine_256
*CAP
1 *739:mem_rdata_i[12] 0.00166275
2 *740:mem_rdata[12] 0.000430349
3 *663:27 0.0326494
4 *663:25 0.0309867
5 *663:23 0.0757851
6 *663:21 0.0757851
7 *663:19 0.00284986
8 *663:17 0.00296983
9 *663:11 0.0204934
10 *663:9 0.0208038
11 *739:mem_rdata_i[12] *717:11 9.37667e-05
12 *663:11 *679:11 0.110669
13 *663:11 *714:39 0.0295734
14 *663:11 *715:23 0.0904332
15 *663:11 *732:27 0.00426681
16 *663:19 *714:31 0.00382672
17 *663:19 *715:23 0.00369576
18 *663:19 *720:23 0.00907318
19 *663:23 *740:mem_slot[1] 0.000459727
20 *663:23 *667:15 0.214414
21 *663:23 *672:6 0.0134266
22 *663:23 *715:11 0
23 *663:23 *732:25 3.4154e-05
24 *115:167 *663:27 0
25 *360:31 *739:mem_rdata_i[12] 0.000186305
26 *540:17 *663:11 0.00532699
27 *646:11 *663:11 0.000318721
28 *648:15 *663:11 0.00182186
29 *652:11 *663:23 0.0188723
30 *653:23 *663:19 0.0187698
*RES
1 *740:mem_rdata[12] *663:9 17.4043 
2 *663:9 *663:11 222.537 
3 *663:11 *663:17 24.3775 
4 *663:17 *663:19 205.009 
5 *663:19 *663:21 15 
6 *663:21 *663:23 2754.25 
7 *663:23 *663:25 15 
8 *663:25 *663:27 666.192 
9 *663:27 *739:mem_rdata_i[12] 29.0553 
*END

*D_NET *664 0.562827
*CONN
*I *739:mem_rdata_i[13] I *D ntt_wb_bridge
*I *740:mem_rdata[13] O *D ntt_engine_256
*CAP
1 *739:mem_rdata_i[13] 0.00159193
2 *740:mem_rdata[13] 0.00159334
3 *664:35 0.00323504
4 *664:31 0.0065281
5 *664:29 0.00488499
6 *664:27 0.00293283
7 *664:25 0.00314835
8 *664:19 0.0290074
9 *664:17 0.0287919
10 *664:15 0.0142336
11 *664:13 0.0158269
12 *739:mem_rdata_i[13] *717:11 6.86684e-05
13 *664:13 *718:25 8.91337e-05
14 *664:15 *676:17 0.00929539
15 *664:15 *677:11 0.000301663
16 *664:15 *718:19 0.00767425
17 *664:15 *729:27 0.00355728
18 *664:15 *729:35 0.0244343
19 *664:15 *736:26 0.00187344
20 *664:15 *736:34 0.032689
21 *664:19 *675:25 0.00307781
22 *664:19 *695:23 0.00298816
23 *664:19 *710:31 0.00786123
24 *664:25 *696:21 5.95262e-05
25 *664:27 *676:27 0.016629
26 *664:27 *696:15 0.00184661
27 *664:31 *676:31 0.0105385
28 *664:31 *691:27 0.0179422
29 *101:23 *664:27 0.000112274
30 *354:21 *664:25 4.88688e-05
31 *354:25 *664:19 0.00011858
32 *356:25 *664:25 0.000203829
33 *357:27 *664:31 0
34 *358:23 *664:19 0.00226617
35 *359:25 *664:27 0.0027276
36 *360:31 *739:mem_rdata_i[13] 0.000131661
37 *647:11 *664:19 0.1288
38 *650:23 *664:27 0.0198188
39 *650:31 *664:19 0.155789
40 *657:15 *664:27 0.000109935
*RES
1 *740:mem_rdata[13] *664:13 11.3432 
2 *664:13 *664:15 100.587 
3 *664:15 *664:17 8 
4 *664:17 *664:19 295.566 
5 *664:19 *664:25 27.8989 
6 *664:25 *664:27 218.349 
7 *664:27 *664:29 15 
8 *664:29 *664:31 230.446 
9 *664:31 *664:35 39.9193 
10 *664:35 *739:mem_rdata_i[13] 28.224 
*END

*D_NET *665 0.483641
*CONN
*I *739:mem_rdata_i[14] I *D ntt_wb_bridge
*I *740:mem_rdata[14] O *D ntt_engine_256
*CAP
1 *739:mem_rdata_i[14] 3.89522e-05
2 *740:mem_rdata[14] 0.00205838
3 *665:23 0.0405924
4 *665:21 0.045038
5 *665:11 0.0343415
6 *665:9 0.0319152
7 *665:11 *680:11 0.0248015
8 *665:11 *686:11 0.179656
9 *665:21 *686:11 0.000745482
10 *665:21 *721:11 0.000270897
11 *73:24 *665:11 0.0733996
12 *73:24 *665:21 0.00200067
13 *77:119 *665:23 0
14 *102:27 *665:21 0.00938243
15 *115:203 *665:11 0.0394
*RES
1 *740:mem_rdata[14] *665:9 12.9056 
2 *665:9 *665:11 2280.62 
3 *665:11 *665:21 46.4131 
4 *665:21 *665:23 127.654 
5 *665:23 *739:mem_rdata_i[14] 0.0914667 
*END

*D_NET *666 0.23042
*CONN
*I *739:mem_rdata_i[15] I *D ntt_wb_bridge
*I *740:mem_rdata[15] O *D ntt_engine_256
*CAP
1 *739:mem_rdata_i[15] 3.82149e-05
2 *740:mem_rdata[15] 0.000200619
3 *666:13 0.0378331
4 *666:11 0.0377949
5 *666:9 0.0137994
6 *666:7 0.014
7 *666:9 *679:15 0.00355032
8 *666:9 *714:27 0.002605
9 *77:119 *666:13 0.00112567
10 *77:145 *666:9 0.00310824
11 *652:11 *666:9 0.0581789
12 *654:11 *666:9 0.0581861
*RES
1 *740:mem_rdata[15] *666:7 8.37147 
2 *666:7 *666:9 137.842 
3 *666:9 *666:11 8 
4 *666:11 *666:13 123.532 
5 *666:13 *739:mem_rdata_i[15] 0.0914667 
*END

*D_NET *667 0.761512
*CONN
*I *739:mem_rdata_i[16] I *D ntt_wb_bridge
*I *740:mem_rdata[16] O *D ntt_engine_256
*CAP
1 *739:mem_rdata_i[16] 3.89522e-05
2 *740:mem_rdata[16] 0.000627446
3 *667:19 0.038748
4 *667:17 0.0387091
5 *667:15 0.0318147
6 *667:13 0.0318147
7 *667:11 0.0138329
8 *667:9 0.0144604
9 *667:11 *673:11 0.0681134
10 *667:11 *682:11 0.0681134
11 *667:15 *673:15 0.211157
12 *667:15 *715:11 0
13 *114:45 *667:15 0.0118875
14 *652:11 *667:15 0.0165918
15 *654:11 *667:15 0.00118824
16 *663:23 *667:15 0.214414
*RES
1 *740:mem_rdata[16] *667:9 20.2214 
2 *667:9 *667:11 129.715 
3 *667:11 *667:13 8 
4 *667:13 *667:15 2725.73 
5 *667:15 *667:17 8 
6 *667:17 *667:19 123.403 
7 *667:19 *739:mem_rdata_i[16] 0.0914667 
*END

*D_NET *668 0.293918
*CONN
*I *739:mem_rdata_i[17] I *D ntt_wb_bridge
*I *740:mem_rdata[17] O *D ntt_engine_256
*CAP
1 *739:mem_rdata_i[17] 0.000354809
2 *740:mem_rdata[17] 0.0015562
3 *668:23 0.00361973
4 *668:21 0.00326492
5 *668:19 0.00472637
6 *668:17 0.00485595
7 *668:11 0.0137933
8 *668:9 0.01522
9 *668:11 *740:mem_we 0.00149656
10 *668:11 *676:19 0.000195084
11 *668:11 *678:11 0.0811755
12 *668:11 *701:23 0.0202981
13 *668:11 *711:15 4.07227e-05
14 *668:11 *713:15 0.00136135
15 *668:11 *728:23 0.0573789
16 *668:19 *678:19 0.0304812
17 *668:19 *711:15 0.00135215
18 *668:23 *678:23 0.00896799
19 *668:23 *687:15 0.0146968
20 *668:23 *712:18 0.000369831
21 *668:23 *719:9 0.00296903
22 *353:19 *668:19 0.00472808
23 *378:23 *668:19 0.00493459
24 *384:19 *668:11 0.00143152
25 *386:13 *668:17 0.000122566
26 *386:21 *668:11 7.12426e-05
27 *656:15 *668:19 0.014455
*RES
1 *740:mem_rdata[17] *668:9 36.6479 
2 *668:9 *668:11 153.328 
3 *668:11 *668:17 25.4339 
4 *668:17 *668:19 333.169 
5 *668:19 *668:21 15 
6 *668:21 *668:23 190.83 
7 *668:23 *739:mem_rdata_i[17] 8.98187 
*END

*D_NET *669 0.524193
*CONN
*I *739:mem_rdata_i[18] I *D ntt_wb_bridge
*I *740:mem_rdata[18] O *D ntt_engine_256
*CAP
1 *739:mem_rdata_i[18] 3.89522e-05
2 *740:mem_rdata[18] 0.00206939
3 *669:19 0.040419
4 *669:17 0.0418152
5 *669:11 0.047528
6 *669:9 0.0481623
7 *669:11 *674:13 0
8 *669:11 *680:11 0.132929
9 *669:11 *686:11 0.000202568
10 *669:11 *721:11 0.0281872
11 *669:17 *721:11 0.00109557
12 *669:19 *686:21 1.29367e-05
13 *669:19 *708:15 0
14 *669:19 *738:17 4.11726e-05
15 *73:24 *669:11 0.00197375
16 *75:17 *669:11 0.032316
17 *76:23 *669:11 0.0281866
18 *102:27 *669:11 0.000676593
19 *102:27 *669:17 0.005222
20 *113:19 *669:11 0.032316
21 *113:19 *669:17 0.000955346
22 *659:15 *669:11 0.0780391
23 *659:15 *669:17 0.00200617
*RES
1 *740:mem_rdata[18] *669:9 12.732 
2 *669:9 *669:11 355.764 
3 *669:11 *669:17 20.4283 
4 *669:17 *669:19 127.31 
5 *669:19 *739:mem_rdata_i[18] 0.0914667 
*END

*D_NET *670 0.0389217
*CONN
*I *739:mem_rdata_i[19] I *D ntt_wb_bridge
*I *740:mem_rdata[19] O *D ntt_engine_256
*CAP
1 *739:mem_rdata_i[19] 0.00776008
2 *740:mem_rdata[19] 0.00122409
3 *670:15 0.0163653
4 *670:13 0.00982936
5 *739:mem_rdata_i[19] *708:15 0.00350162
6 la_data_out[88] *670:15 0
7 *101:23 *670:13 0
8 *651:15 *670:13 0.000241169
*RES
1 *740:mem_rdata[19] *670:13 37.0079 
2 *670:13 *670:15 188.189 
3 *670:15 *739:mem_rdata_i[19] 33.9504 
*END

*D_NET *671 0.625551
*CONN
*I *739:mem_rdata_i[1] I *D ntt_wb_bridge
*I *740:mem_rdata[1] O *D ntt_engine_256
*CAP
1 *739:mem_rdata_i[1] 3.12144e-05
2 *740:mem_rdata[1] 0.000522332
3 *671:21 0.039244
4 *671:19 0.0392128
5 *671:17 0.0512988
6 *671:15 0.0553404
7 *671:11 0.0045639
8 *671:15 *679:11 0.0198116
9 *671:15 *715:23 0.0206983
10 *671:15 *720:21 0.0011894
11 *671:15 *721:15 0.000264925
12 *671:15 *732:25 7.169e-05
13 *671:15 *732:27 0.00418492
14 *671:17 *674:13 0.0150909
15 *671:17 *681:11 0.0107545
16 *671:17 *720:11 0.224396
17 *671:17 *723:11 0.00561338
18 *78:153 *671:17 0.0470749
19 *115:143 *671:21 0.000364338
20 *115:211 *671:17 0.000279216
21 *141:17 *671:17 0.0819009
22 *648:11 *671:17 0
23 *648:15 *671:15 0.0036422
*RES
1 *740:mem_rdata[1] *671:11 18.0257 
2 *671:11 *671:15 47.2971 
3 *671:15 *671:17 2849.69 
4 *671:17 *671:19 8 
5 *671:19 *671:21 126.237 
6 *671:21 *739:mem_rdata_i[1] 0.0914667 
*END

*D_NET *672 0.191474
*CONN
*I *739:mem_rdata_i[20] I *D ntt_wb_bridge
*I *740:mem_rdata[20] O *D ntt_engine_256
*CAP
1 *739:mem_rdata_i[20] 3.89522e-05
2 *740:mem_rdata[20] 0
3 *672:10 0.0386817
4 *672:8 0.0386427
5 *672:6 0.00998061
6 *672:4 0.00998061
7 *672:6 *740:mem_wdata[16] 0.000210019
8 *672:6 *740:mem_wdata[6] 0.000441607
9 *672:6 *679:15 0.00339178
10 *77:127 *672:10 0
11 *77:137 *672:6 0.0225927
12 *114:25 *672:6 0.0154422
13 *114:35 *672:6 0.000129537
14 *652:11 *672:6 0.0385151
15 *663:23 *672:6 0.0134266
*RES
1 *740:mem_rdata[20] *672:4 8 
2 *672:4 *672:6 91.3845 
3 *672:6 *672:8 8 
4 *672:8 *672:10 123.189 
5 *672:10 *739:mem_rdata_i[20] 0.0914667 
*END

*D_NET *673 0.832877
*CONN
*I *739:mem_rdata_i[21] I *D ntt_wb_bridge
*I *740:mem_rdata[21] O *D ntt_engine_256
*CAP
1 *739:mem_rdata_i[21] 3.89522e-05
2 *740:mem_rdata[21] 0.000549182
3 *673:19 0.0388439
4 *673:17 0.038805
5 *673:15 0.0313945
6 *673:13 0.0313945
7 *673:11 0.0192395
8 *673:9 0.0197887
9 *673:11 *682:11 0.00954807
10 *673:11 *714:31 0.0214043
11 *673:11 *715:23 3.00618e-05
12 *673:11 *721:15 0.0602236
13 *673:15 *679:15 0.206985
14 *673:15 *714:27 1.97797e-05
15 *673:15 *715:11 0
16 *114:45 *673:15 0.0118875
17 *646:11 *673:11 0.0400557
18 *652:11 *673:15 0.0135808
19 *653:21 *673:15 3.8938e-05
20 *658:47 *673:11 0.0097789
21 *667:11 *673:11 0.0681134
22 *667:15 *673:15 0.211157
*RES
1 *740:mem_rdata[21] *673:9 19.0407 
2 *673:9 *673:11 185.185 
3 *673:11 *673:13 8 
4 *673:13 *673:15 2682.77 
5 *673:15 *673:17 8 
6 *673:17 *673:19 123.489 
7 *673:19 *739:mem_rdata_i[21] 0.0914667 
*END

*D_NET *674 0.519154
*CONN
*I *739:mem_rdata_i[22] I *D ntt_wb_bridge
*I *740:mem_rdata[22] O *D ntt_engine_256
*CAP
1 *739:mem_rdata_i[22] 3.89522e-05
2 *740:mem_rdata[22] 0.00167191
3 *674:17 0.039979
4 *674:15 0.03994
5 *674:13 0.0604909
6 *674:11 0.0621628
7 *674:13 *681:11 0.0574834
8 *674:13 *694:11 0.0346096
9 *674:13 *720:11 0.00852899
10 *674:13 *723:11 0.161468
11 *674:13 *732:11 0.03018
12 *78:153 *674:13 0.00546328
13 *141:17 *674:13 0.00204693
14 *659:15 *674:13 0
15 *669:11 *674:13 0
16 *671:17 *674:13 0.0150909
*RES
1 *740:mem_rdata[22] *674:11 11.7128 
2 *674:11 *674:13 381.364 
3 *674:13 *674:15 8 
4 *674:15 *674:17 125.937 
5 *674:17 *739:mem_rdata_i[22] 0.0914667 
*END

*D_NET *675 0.639705
*CONN
*I *739:mem_rdata_i[23] I *D ntt_wb_bridge
*I *740:mem_rdata[23] O *D ntt_engine_256
*CAP
1 *739:mem_rdata_i[23] 0.00162421
2 *740:mem_rdata[23] 0.00163266
3 *675:39 0.00282813
4 *675:31 0.00337479
5 *675:29 0.00217086
6 *675:27 0.0698993
7 *675:25 0.0719087
8 *675:15 0.0737069
9 *675:13 0.0733301
10 *675:13 *704:45 0.00152949
11 *675:13 *734:41 0.000788734
12 *675:15 *734:35 0.19499
13 *675:25 *704:31 5.485e-05
14 *675:25 *710:31 0.000678131
15 *675:25 *734:31 0
16 *675:27 *676:19 0.00474698
17 *675:27 *677:23 0.00036226
18 *675:27 *683:15 0.0255893
19 *675:31 *677:27 0.00998118
20 *675:31 *733:33 0.000714697
21 *675:31 *734:19 0.0111142
22 *675:39 *717:11 8.03324e-05
23 *82:25 *675:15 0
24 *105:19 *675:31 0.000597045
25 *359:25 *675:27 0.000822083
26 *360:31 *675:39 0.000158835
27 *378:23 *675:27 0
28 *540:17 *675:13 0.00121985
29 *650:31 *675:25 0.000290881
30 *656:15 *675:27 0
31 *661:23 *675:27 0.0823357
32 *662:19 *675:15 9.62472e-05
33 *662:31 *675:27 0
34 *664:19 *675:25 0.00307781
*RES
1 *740:mem_rdata[23] *675:13 30.0326 
2 *675:13 *675:15 2509.51 
3 *675:15 *675:25 45.023 
4 *675:25 *675:27 1818.2 
5 *675:27 *675:29 15 
6 *675:29 *675:31 143.467 
7 *675:31 *675:39 49.3782 
8 *675:39 *739:mem_rdata_i[23] 11.6213 
*END

*D_NET *676 0.461326
*CONN
*I *739:mem_rdata_i[24] I *D ntt_wb_bridge
*I *740:mem_rdata[24] O *D ntt_engine_256
*CAP
1 *739:mem_rdata_i[24] 0.00136552
2 *740:mem_rdata[24] 0.00410145
3 *676:35 0.00327852
4 *676:31 0.00641773
5 *676:29 0.00450473
6 *676:27 0.00254113
7 *676:25 0.00264663
8 *676:19 0.0300807
9 *676:17 0.0340767
10 *739:mem_rdata_i[24] *706:11 0.000133892
11 *739:mem_rdata_i[24] *716:11 0.000131661
12 *676:17 *677:11 0.0093851
13 *676:17 *683:11 0.000172492
14 *676:17 *691:19 0.00146223
15 *676:17 *709:19 0.00167684
16 *676:19 *677:23 0.00167915
17 *676:19 *678:11 0.00266598
18 *676:19 *683:15 0.137716
19 *676:19 *696:23 0.139047
20 *676:19 *713:15 1.13155e-05
21 *676:27 *696:15 0.0125732
22 *676:31 *691:27 1.12487e-05
23 *101:23 *676:27 0.000137587
24 *352:15 *676:19 0.00334671
25 *357:27 *676:31 0
26 *359:21 *676:25 5.43589e-05
27 *359:25 *676:19 7.12426e-05
28 *359:25 *676:27 0.00236256
29 *362:23 *676:27 0.00225646
30 *384:19 *676:19 0.00419486
31 *386:21 *676:19 9.81333e-06
32 *650:23 *676:19 0.000647635
33 *656:23 *676:19 1.37005e-05
34 *657:15 *676:19 0.00181246
35 *657:15 *676:27 0.000126921
36 *661:15 *676:19 0.00752532
37 *661:23 *676:19 0.00168264
38 *664:15 *676:17 0.00929539
39 *664:27 *676:27 0.016629
40 *664:31 *676:31 0.0105385
41 *668:11 *676:19 0.000195084
42 *675:27 *676:19 0.00474698
*RES
1 *740:mem_rdata[24] *676:17 42.0755 
2 *676:17 *676:19 301.92 
3 *676:19 *676:25 24.3775 
4 *676:25 *676:27 182.617 
5 *676:27 *676:29 15 
6 *676:29 *676:31 137.833 
7 *676:31 *676:35 43.7307 
8 *676:35 *739:mem_rdata_i[24] 27.623 
*END

*D_NET *677 0.632026
*CONN
*I *739:mem_rdata_i[25] I *D ntt_wb_bridge
*I *740:mem_rdata[25] O *D ntt_engine_256
*CAP
1 *739:mem_rdata_i[25] 0.00127203
2 *740:mem_rdata[25] 0.00130147
3 *677:31 0.00267637
4 *677:27 0.00345535
5 *677:25 0.00205101
6 *677:23 0.00441052
7 *677:21 0.00464456
8 *677:15 0.034081
9 *677:13 0.0338469
10 *677:11 0.0331243
11 *677:9 0.0344258
12 *739:mem_rdata_i[25] *706:11 7.80362e-05
13 *739:mem_rdata_i[25] *716:11 7.57449e-05
14 *677:11 *683:11 0.0176765
15 *677:11 *688:11 0.00659194
16 *677:11 *691:11 0.0162194
17 *677:11 *691:19 0.0071386
18 *677:11 *702:22 0.0168774
19 *677:11 *718:27 0.0181145
20 *677:11 *736:34 0.0494688
21 *677:21 *687:9 0
22 *677:27 *733:33 0.000448077
23 *677:27 *734:19 2.60152e-05
24 *105:19 *677:27 0.00968081
25 *116:109 *677:15 0.00316461
26 *116:111 *677:11 0.00936556
27 *118:27 *677:11 0.0109067
28 *354:27 *677:27 0
29 *359:25 *677:23 0.00236256
30 *650:23 *677:23 0.0234929
31 *650:31 *677:15 0.151814
32 *656:27 *677:11 0.0228239
33 *656:33 *677:9 4.62763e-05
34 *656:35 *677:11 6.57607e-05
35 *657:15 *677:15 0.0167351
36 *661:15 *677:15 0.0216428
37 *661:23 *677:23 0.0263811
38 *662:23 *677:15 0.0151565
39 *662:31 *677:15 0.00867433
40 *662:31 *677:23 0
41 *664:15 *677:11 0.000301663
42 *675:27 *677:23 0.00036226
43 *675:31 *677:27 0.00998118
44 *676:17 *677:11 0.0093851
45 *676:19 *677:23 0.00167915
*RES
1 *740:mem_rdata[25] *677:9 10.7608 
2 *677:9 *677:11 218.381 
3 *677:11 *677:13 8 
4 *677:13 *677:15 279.938 
5 *677:15 *677:21 27.1946 
6 *677:21 *677:23 296.007 
7 *677:23 *677:25 15 
8 *677:25 *677:27 129.734 
9 *677:27 *677:31 36.1079 
10 *677:31 *739:mem_rdata_i[25] 26.7918 
*END

*D_NET *678 0.311359
*CONN
*I *739:mem_rdata_i[26] I *D ntt_wb_bridge
*I *740:mem_rdata[26] O *D ntt_engine_256
*CAP
1 *739:mem_rdata_i[26] 9.21817e-05
2 *740:mem_rdata[26] 0.00151399
3 *678:23 0.00223173
4 *678:21 0.00213955
5 *678:19 0.0043434
6 *678:17 0.00455372
7 *678:11 0.0153651
8 *678:9 0.0166687
9 *678:11 *683:15 0.0863553
10 *678:11 *701:23 0.00542402
11 *678:19 *711:15 0.00153251
12 *678:19 *728:15 0.0324357
13 *678:23 *712:18 0.000219296
14 *678:23 *719:9 0.00896799
15 *353:19 *678:19 0.00545861
16 *378:23 *678:19 2.02872e-05
17 *656:15 *678:19 0.000746681
18 *668:11 *678:11 0.0811755
19 *668:19 *678:19 0.0304812
20 *668:23 *678:23 0.00896799
21 *676:19 *678:11 0.00266598
*RES
1 *740:mem_rdata[26] *678:9 35.9436 
2 *678:9 *678:11 168.183 
3 *678:11 *678:17 26.4904 
4 *678:17 *678:19 354.608 
5 *678:19 *678:21 15 
6 *678:21 *678:23 117.585 
7 *678:23 *739:mem_rdata_i[26] 8.24267 
*END

*D_NET *679 0.877028
*CONN
*I *739:mem_rdata_i[27] I *D ntt_wb_bridge
*I *740:mem_rdata[27] O *D ntt_engine_256
*CAP
1 *739:mem_rdata_i[27] 3.89522e-05
2 *740:mem_rdata[27] 0.000315825
3 *679:19 0.0389524
4 *679:17 0.0389134
5 *679:15 0.0314224
6 *679:13 0.0314224
7 *679:11 0.0374477
8 *679:9 0.0377635
9 *679:11 *685:21 0.0365618
10 *679:11 *715:23 0.000160124
11 *679:11 *732:25 0.000243725
12 *679:15 *714:27 0.0090073
13 *679:15 *715:11 0.00631306
14 *77:145 *679:15 0.171365
15 *78:173 *679:11 0
16 *114:45 *679:15 0.0145029
17 *540:17 *679:11 0.0498805
18 *646:19 *679:11 0.00925678
19 *654:11 *679:15 0.00621202
20 *658:39 *679:11 0.0128405
21 *663:11 *679:11 0.110669
22 *666:9 *679:15 0.00355032
23 *671:15 *679:11 0.0198116
24 *672:6 *679:15 0.00339178
25 *673:15 *679:15 0.206985
*RES
1 *740:mem_rdata[27] *679:9 14.7943 
2 *679:9 *679:11 241.427 
3 *679:11 *679:13 8 
4 *679:13 *679:15 2629.24 
5 *679:15 *679:17 8 
6 *679:17 *679:19 123.575 
7 *679:19 *739:mem_rdata_i[27] 0.0914667 
*END

*D_NET *680 0.433756
*CONN
*I *739:mem_rdata_i[28] I *D ntt_wb_bridge
*I *740:mem_rdata[28] O *D ntt_engine_256
*CAP
1 *739:mem_rdata_i[28] 3.89522e-05
2 *740:mem_rdata[28] 0.00190917
3 *680:15 0.0406412
4 *680:13 0.0406023
5 *680:11 0.0498005
6 *680:9 0.0517096
7 *680:11 *686:11 0.028456
8 *73:24 *680:11 0.0166069
9 *102:27 *680:11 0.046261
10 *665:11 *680:11 0.0248015
11 *669:11 *680:11 0.132929
*RES
1 *740:mem_rdata[28] *680:9 12.396 
2 *680:9 *680:11 313.835 
3 *680:11 *680:13 8 
4 *680:13 *680:15 127.31 
5 *680:15 *739:mem_rdata_i[28] 0.0914667 
*END

*D_NET *681 0.230128
*CONN
*I *739:mem_rdata_i[29] I *D ntt_wb_bridge
*I *740:mem_rdata[29] O *D ntt_engine_256
*CAP
1 *739:mem_rdata_i[29] 3.89522e-05
2 *740:mem_rdata[29] 0.00153321
3 *681:15 0.0401299
4 *681:13 0.040091
5 *681:11 0.0232442
6 *681:9 0.0247774
7 *681:11 *720:11 0.0123163
8 *78:137 *681:11 0.00549271
9 *141:17 *681:11 0.00781631
10 *659:15 *681:11 0.0064505
11 *671:17 *681:11 0.0107545
12 *674:13 *681:11 0.0574834
*RES
1 *740:mem_rdata[29] *681:9 11.1939 
2 *681:9 *681:11 135.875 
3 *681:11 *681:13 8 
4 *681:13 *681:15 126.108 
5 *681:15 *739:mem_rdata_i[29] 0.0914667 
*END

*D_NET *682 0.681126
*CONN
*I *739:mem_rdata_i[2] I *D ntt_wb_bridge
*I *740:mem_rdata[2] O *D ntt_engine_256
*CAP
1 *739:mem_rdata_i[2] 0.00438493
2 *740:mem_rdata[2] 0.00065052
3 *682:39 0.0191373
4 *682:37 0.0147524
5 *682:35 0.0218178
6 *682:33 0.0218178
7 *682:31 0.00128558
8 *682:29 0.00160458
9 *682:23 0.00683224
10 *682:21 0.00663645
11 *682:15 0.0286072
12 *682:13 0.028484
13 *682:11 0.0345092
14 *682:9 0.0351597
15 *682:11 *721:15 2.23932e-05
16 *682:15 *685:25 0.154275
17 *682:15 *730:19 0.000139434
18 *682:21 *685:39 0.000132108
19 *682:23 *685:41 0.00283305
20 *682:23 *714:27 0
21 *682:23 *724:23 0.00160747
22 *682:29 *685:47 0.000126526
23 *682:29 *715:17 0.000345669
24 *682:31 *690:11 0.00707863
25 *682:31 *738:19 0.00707863
26 *682:35 *690:15 0
27 *78:173 *682:11 0.000247282
28 *114:37 *682:23 0.0058813
29 *140:17 *682:39 0.00420919
30 *646:23 *682:15 0.0849957
31 *646:23 *682:23 0.0260783
32 *653:21 *682:11 0.000249401
33 *658:11 *682:39 0.0123927
34 *658:15 *682:35 0.0618809
35 *658:27 *682:15 0.00792197
36 *658:47 *682:11 0.000289298
37 *667:11 *682:11 0.0681134
38 *673:11 *682:11 0.00954807
*RES
1 *740:mem_rdata[2] *682:9 20.4493 
2 *682:9 *682:11 168.269 
3 *682:11 *682:13 8 
4 *682:13 *682:15 2067.22 
5 *682:15 *682:21 16.3136 
6 *682:21 *682:23 331.159 
7 *682:23 *682:29 16.7429 
8 *682:29 *682:31 90.9979 
9 *682:31 *682:33 8 
10 *682:33 *682:35 114.387 
11 *682:35 *682:37 8 
12 *682:37 *682:39 64.1573 
13 *682:39 *739:mem_rdata_i[2] 18.7949 
*END

*D_NET *683 0.466755
*CONN
*I *739:mem_rdata_i[30] I *D ntt_wb_bridge
*I *740:mem_rdata[30] O *D ntt_engine_256
*CAP
1 *739:mem_rdata_i[30] 0.00135102
2 *740:mem_rdata[30] 0.00134683
3 *683:35 0.00208664
4 *683:27 0.00386929
5 *683:25 0.00313367
6 *683:23 0.00697241
7 *683:21 0.00729283
8 *683:15 0.0259917
9 *683:13 0.0256713
10 *683:11 0.00630909
11 *683:9 0.00765591
12 *683:11 *688:11 0.00495964
13 *683:15 *701:23 0.0182321
14 *683:23 *701:15 0.0031115
15 *683:23 *728:15 0.00338478
16 *683:35 *706:11 7.80362e-05
17 *683:35 *716:11 7.57449e-05
18 *94:21 *683:11 0.00054362
19 *116:111 *683:11 0.00337683
20 *118:27 *683:11 0.00287006
21 *282:19 *683:27 0
22 *365:19 *683:27 0.00499803
23 *370:19 *683:27 8.30566e-06
24 *371:19 *683:27 1.09111e-05
25 *375:15 *683:23 0.00828659
26 *384:21 *683:23 2.4754e-05
27 *386:23 *683:23 0.0267393
28 *390:15 *683:23 0.030744
29 *647:15 *683:27 0
30 *656:15 *683:23 0
31 *656:23 *683:15 0.000120995
32 *661:27 *683:27 0
33 *675:27 *683:15 0.0255893
34 *676:17 *683:11 0.000172492
35 *676:19 *683:15 0.137716
36 *677:11 *683:11 0.0176765
37 *678:11 *683:15 0.0863553
*RES
1 *740:mem_rdata[30] *683:9 10.716 
2 *683:9 *683:11 42.7056 
3 *683:11 *683:13 8 
4 *683:13 *683:15 254.007 
5 *683:15 *683:21 28.6032 
6 *683:21 *683:23 428.931 
7 *683:23 *683:25 15 
8 *683:25 *683:27 80.4336 
9 *683:27 *683:35 42.1282 
10 *683:35 *739:mem_rdata_i[30] 10.8933 
*END

*D_NET *684 0.0876653
*CONN
*I *739:mem_rdata_i[31] I *D ntt_wb_bridge
*I *740:mem_rdata[31] O *D ntt_engine_256
*CAP
1 *739:mem_rdata_i[31] 0.0103201
2 *740:mem_rdata[31] 0.000678757
3 *684:15 0.0146858
4 *684:13 0.00436572
5 *684:11 0.00754794
6 *684:9 0.0082267
7 *684:11 *740:mem_re 0.00743482
8 *684:11 *698:17 0.016819
9 *684:11 *699:15 0
10 *684:11 *705:17 0.0129645
11 *660:11 *684:11 0.00462198
*RES
1 *740:mem_rdata[31] *684:9 22.5621 
2 *684:9 *684:11 53.5509 
3 *684:11 *684:13 8 
4 *684:13 *684:15 91.7021 
5 *684:15 *739:mem_rdata_i[31] 37.8144 
*END

*D_NET *685 0.764034
*CONN
*I *739:mem_rdata_i[3] I *D ntt_wb_bridge
*I *740:mem_rdata[3] O *D ntt_engine_256
*CAP
1 *739:mem_rdata_i[3] 0.00146655
2 *740:mem_rdata[3] 0.000621489
3 *685:53 0.0325376
4 *685:51 0.031071
5 *685:49 0.0117905
6 *685:47 0.0120578
7 *685:41 0.0196586
8 *685:39 0.0194876
9 *685:33 0.00291379
10 *685:31 0.00296382
11 *685:25 0.0403
12 *685:23 0.0401536
13 *685:21 0.0320131
14 *685:19 0.0322983
15 *685:13 0.0202033
16 *685:11 0.0205395
17 *739:mem_rdata_i[3] *717:11 3.78361e-05
18 *685:21 *694:17 0.000729005
19 *685:21 *714:31 0
20 *685:25 *708:27 0.00395997
21 *685:25 *715:19 0
22 *685:25 *730:19 0.0673206
23 *685:33 *714:27 0
24 *685:41 *700:19 0.00525034
25 *685:41 *724:23 0.00771891
26 *685:47 *740:mem_wdata[16] 0
27 *685:47 *715:17 9.50812e-05
28 *685:49 *714:19 0
29 *685:49 *715:11 0.0141715
30 *78:161 *685:25 0
31 *114:37 *685:49 0.00620781
32 *114:45 *685:41 0.00101899
33 *115:219 *685:25 0
34 *115:233 *685:21 0
35 *360:31 *739:mem_rdata_i[3] 7.57449e-05
36 *540:17 *685:21 0.00531208
37 *646:11 *685:13 0.0108425
38 *646:19 *685:21 0.000168758
39 *646:23 *685:33 0.00814556
40 *646:23 *685:41 0.00316653
41 *648:15 *685:21 2.94414e-05
42 *654:11 *685:41 0
43 *654:11 *685:49 0.00409974
44 *658:19 *685:49 0.00703703
45 *658:33 *685:31 0
46 *658:35 *685:33 0
47 *658:39 *685:21 0.0848152
48 *658:47 *685:13 0.0198265
49 *679:11 *685:21 0.0365618
50 *682:15 *685:25 0.154275
51 *682:21 *685:39 0.000132108
52 *682:23 *685:41 0.00283305
53 *682:29 *685:47 0.000126526
*RES
1 *740:mem_rdata[3] *685:11 21.5471 
2 *685:11 *685:13 93.5648 
3 *685:13 *685:19 27.5468 
4 *685:19 *685:21 1031.14 
5 *685:21 *685:23 15 
6 *685:23 *685:25 1958.76 
7 *685:25 *685:31 32.0507 
8 *685:31 *685:33 103.499 
9 *685:33 *685:39 16.2707 
10 *685:39 *685:41 59.9685 
11 *685:41 *685:47 16.6141 
12 *685:47 *685:49 436.626 
13 *685:49 *685:51 15 
14 *685:51 *685:53 670.004 
15 *685:53 *739:mem_rdata_i[3] 27.3928 
*END

*D_NET *686 0.574113
*CONN
*I *739:mem_rdata_i[4] I *D ntt_wb_bridge
*I *740:mem_rdata[4] O *D ntt_engine_256
*CAP
1 *739:mem_rdata_i[4] 3.19517e-05
2 *740:mem_rdata[4] 0.00209489
3 *686:23 0.0401954
4 *686:21 0.0433844
5 *686:11 0.0319266
6 *686:9 0.0308006
7 *686:11 *721:11 0.195461
8 *73:24 *686:11 0.00556648
9 *73:24 *686:21 0.000772198
10 *75:17 *686:21 0.00186186
11 *76:23 *686:21 0.00163085
12 *102:27 *686:21 0.00472338
13 *113:19 *686:21 0.00186186
14 *659:15 *686:21 0.00472853
15 *665:11 *686:11 0.179656
16 *665:21 *686:11 0.000745482
17 *669:11 *686:11 0.000202568
18 *669:19 *686:21 1.29367e-05
19 *680:11 *686:11 0.028456
*RES
1 *740:mem_rdata[4] *686:9 12.9467 
2 *686:9 *686:11 2481.34 
3 *686:11 *686:21 45.1437 
4 *686:21 *686:23 127.139 
5 *686:23 *739:mem_rdata_i[4] 0.0914667 
*END

*D_NET *687 0.0942478
*CONN
*I *739:mem_rdata_i[5] I *D ntt_wb_bridge
*I *740:mem_rdata[5] O *D ntt_engine_256
*CAP
1 *739:mem_rdata_i[5] 0.000369985
2 *740:mem_rdata[5] 0.00133345
3 *687:15 0.00613496
4 *687:13 0.00576497
5 *687:11 0.00562145
6 *687:9 0.00695489
7 *739:mem_rdata_i[5] *712:12 0.000324219
8 *687:15 *697:11 0
9 *687:15 *712:18 0.000736363
10 *687:15 *713:11 0.011692
11 *687:15 *719:9 0.00279602
12 *356:29 *687:11 0.00919678
13 *358:23 *687:11 0.00152553
14 *650:31 *687:11 0.000939616
15 *657:15 *687:11 0.0249199
16 *662:31 *687:11 0.00124083
17 *668:23 *687:15 0.0146968
18 *677:21 *687:9 0
*RES
1 *740:mem_rdata[5] *687:9 32.4221 
2 *687:9 *687:11 46.1664 
3 *687:11 *687:13 8 
4 *687:13 *687:15 297.354 
5 *687:15 *739:mem_rdata_i[5] 8.952 
*END

*D_NET *688 0.624417
*CONN
*I *739:mem_rdata_i[6] I *D ntt_wb_bridge
*I *740:mem_rdata[6] O *D ntt_engine_256
*CAP
1 *739:mem_rdata_i[6] 0.0015356
2 *740:mem_rdata[6] 0.0011055
3 *688:27 0.00746861
4 *688:25 0.00593301
5 *688:23 0.0289086
6 *688:21 0.0299901
7 *688:17 0.00122016
8 *688:11 0.0388046
9 *688:9 0.0397714
10 *739:mem_rdata_i[6] *712:12 0.000227734
11 *688:9 *737:41 2.83426e-05
12 *688:11 *740:mem_wdata[14] 0.000755176
13 *688:11 *740:mem_wdata[8] 0.00222589
14 *688:11 *689:11 0.00914912
15 *688:11 *691:11 0.00926967
16 *688:11 *701:27 0.0149788
17 *688:11 *726:27 0.000315221
18 *688:11 *726:35 0.026027
19 *688:21 *726:27 0.00304872
20 *688:23 *702:18 0.176812
21 *688:23 *717:15 0.178295
22 *688:23 *718:15 5.48958e-05
23 *688:27 *689:27 0.000806232
24 *688:27 *716:11 0.0229774
25 *688:27 *717:11 0.000794694
26 *688:27 *718:11 0
27 *94:21 *688:11 0.000460576
28 *94:21 *688:21 0.000578216
29 *118:27 *688:21 0
30 *364:19 *688:27 0.0110512
31 *661:35 *688:27 0.00027256
32 *677:11 *688:11 0.00659194
33 *683:11 *688:11 0.00495964
*RES
1 *740:mem_rdata[6] *688:9 10.2008 
2 *688:9 *688:11 227.14 
3 *688:11 *688:17 16.2707 
4 *688:17 *688:21 46.8807 
5 *688:21 *688:23 328.754 
6 *688:23 *688:25 8 
7 *688:25 *688:27 313.552 
8 *688:27 *739:mem_rdata_i[6] 11.4459 
*END

*D_NET *689 0.778339
*CONN
*I *739:mem_rdata_i[7] I *D ntt_wb_bridge
*I *740:mem_rdata[7] O *D ntt_engine_256
*CAP
1 *739:mem_rdata_i[7] 0.0013443
2 *740:mem_rdata[7] 0.000917434
3 *689:27 0.0174829
4 *689:25 0.0161386
5 *689:23 0.0297635
6 *689:21 0.0297635
7 *689:19 0.0156515
8 *689:17 0.0157572
9 *689:11 0.0205894
10 *689:9 0.0214012
11 *739:mem_rdata_i[7] *739:mem_rdata_i[8] 0
12 *739:mem_rdata_i[7] *712:12 0.000227734
13 *689:11 *740:mem_wdata[8] 6.5751e-05
14 *689:11 *691:11 0
15 *689:11 *706:35 0.0333808
16 *689:11 *717:27 0.00441635
17 *689:11 *737:43 0.00319047
18 *689:17 *740:mem_wdata[8] 0.000131991
19 *689:19 *740:mem_wdata[14] 0.00046325
20 *689:19 *706:27 0.000252959
21 *689:19 *706:35 0.0105006
22 *689:19 *716:27 0.0087337
23 *689:19 *717:19 0.0688908
24 *689:19 *737:35 0.085741
25 *689:23 *691:23 0.000208266
26 *689:23 *709:15 0.177277
27 *689:23 *718:15 0
28 *689:23 *736:22 0.176225
29 *689:27 *701:11 0.00125615
30 *689:27 *706:11 0.000945395
31 *689:27 *716:11 0.000515984
32 *689:27 *718:11 0.000138759
33 *689:27 *725:11 0.00364246
34 *689:27 *726:11 0.00317627
35 *689:27 *737:11 0.020194
36 *101:19 *689:27 0
37 *662:43 *689:27 0
38 *688:11 *689:11 0.00914912
39 *688:27 *689:27 0.000806232
*RES
1 *740:mem_rdata[7] *689:9 9.85733 
2 *689:9 *689:11 117.85 
3 *689:11 *689:17 16.2707 
4 *689:17 *689:19 1088.97 
5 *689:19 *689:21 8 
6 *689:21 *689:23 327.852 
7 *689:23 *689:25 8 
8 *689:25 *689:27 53.7488 
9 *689:27 *739:mem_rdata_i[7] 10.8877 
*END

*D_NET *690 0.293505
*CONN
*I *739:mem_rdata_i[8] I *D ntt_wb_bridge
*I *740:mem_rdata[8] O *D ntt_engine_256
*CAP
1 *739:mem_rdata_i[8] 0.00325826
2 *740:mem_rdata[8] 0.0010708
3 *690:19 0.0210078
4 *690:17 0.0177495
5 *690:15 0.0358614
6 *690:13 0.0358614
7 *690:11 0.0188201
8 *690:9 0.0198909
9 *690:11 *705:23 0.0576076
10 *690:11 *715:19 0.012668
11 *690:11 *738:19 0.0335414
12 *690:15 *691:23 0
13 *690:15 *699:15 0
14 *690:15 *700:17 0.000262122
15 *690:15 *703:15 0
16 *690:19 *708:11 0.00686931
17 *690:19 *710:19 0.00354668
18 *690:19 *733:11 0
19 *690:19 *733:33 0
20 *739:mem_rdata_i[7] *739:mem_rdata_i[8] 0
21 *115:219 *690:11 0.00837698
22 *354:27 *690:19 0.00129952
23 *375:19 *690:19 0.00217811
24 *378:27 *690:19 0.00261343
25 *650:19 *690:19 0.00394328
26 *654:17 *690:9 0
27 *682:31 *690:11 0.00707863
28 *682:35 *690:15 0
*RES
1 *740:mem_rdata[8] *690:9 10.3333 
2 *690:9 *690:11 1069.25 
3 *690:11 *690:13 8 
4 *690:13 *690:15 117.736 
5 *690:15 *690:17 8 
6 *690:17 *690:19 53.7488 
7 *690:19 *739:mem_rdata_i[8] 15.532 
*END

*D_NET *691 0.760929
*CONN
*I *739:mem_rdata_i[9] I *D ntt_wb_bridge
*I *740:mem_rdata[9] O *D ntt_engine_256
*CAP
1 *739:mem_rdata_i[9] 0.00332433
2 *740:mem_rdata[9] 0.000828744
3 *691:27 0.00816323
4 *691:25 0.00483889
5 *691:23 0.0493658
6 *691:21 0.0493658
7 *691:19 0.0146122
8 *691:17 0.0147633
9 *691:11 0.0515638
10 *691:9 0.0522413
11 *691:11 *702:30 0.00614546
12 *691:11 *737:43 0
13 *691:17 *740:op[0] 1.46825e-05
14 *691:19 *709:19 0.0604669
15 *691:19 *729:27 2.04774e-05
16 *691:19 *736:34 0.00924465
17 *691:23 *695:31 0
18 *691:23 *706:23 0
19 *691:23 *709:15 0.177936
20 *691:23 *712:34 0.0284363
21 *691:23 *716:23 0
22 *691:27 *710:19 0.0212849
23 *116:111 *691:11 0.0104787
24 *118:27 *691:11 0.0248834
25 *357:23 *691:23 0.00655257
26 *357:27 *691:27 0
27 *656:27 *691:19 0.0777187
28 *656:35 *691:11 0.0364272
29 *664:31 *691:27 0.0179422
30 *676:17 *691:19 0.00146223
31 *676:31 *691:27 1.12487e-05
32 *677:11 *691:11 0.0162194
33 *677:11 *691:19 0.0071386
34 *688:11 *691:11 0.00926967
35 *689:11 *691:11 0
36 *689:23 *691:23 0.000208266
37 *690:15 *691:23 0
*RES
1 *740:mem_rdata[9] *691:9 10.2083 
2 *691:9 *691:11 254.43 
3 *691:11 *691:17 16.2707 
4 *691:17 *691:19 986.849 
5 *691:19 *691:21 8 
6 *691:21 *691:23 334.507 
7 *691:23 *691:25 8 
8 *691:25 *691:27 282.564 
9 *691:27 *739:mem_rdata_i[9] 15.7467 
*END

*D_NET *692 0.114735
*CONN
*I *740:mem_re I *D ntt_engine_256
*I *739:mem_re_o O *D ntt_wb_bridge
*CAP
1 *740:mem_re 0.00208528
2 *739:mem_re_o 0.0105924
3 *692:11 0.0252236
4 *692:9 0.0337307
5 la_data_out[90] *692:11 0.0282335
6 *660:11 *740:mem_re 0.00743482
7 *684:11 *740:mem_re 0.00743482
*RES
1 *739:mem_re_o *692:9 40.3904 
2 *692:9 *692:11 733.306 
3 *692:11 *740:mem_re 44.5847 
*END

*D_NET *693 0.123656
*CONN
*I *740:mem_slot[0] I *D ntt_engine_256
*I *739:mem_slot_o[0] O *D ntt_wb_bridge
*CAP
1 *740:mem_slot[0] 0.00166293
2 *739:mem_slot_o[0] 0.000237381
3 *693:17 0.00297897
4 *693:11 0.0225991
5 *693:9 0.0215205
6 *693:9 *736:6 0.000364411
7 *693:11 *696:11 0.0475523
8 *693:11 *736:6 0.00988317
9 *693:11 *736:18 0.0101585
10 *79:18 *693:11 0.000847532
11 *295:27 *693:11 0
12 *352:15 *693:17 0.00451211
13 *359:25 *693:17 0.00107533
14 *359:41 *693:11 0
15 *531:17 *693:11 0.000168918
16 *657:15 *693:17 9.53164e-05
*RES
1 *739:mem_slot_o[0] *693:9 8.69813 
2 *693:9 *693:11 700.205 
3 *693:11 *693:17 24.3851 
4 *693:17 *740:mem_slot[0] 28.6479 
*END

*D_NET *694 0.490177
*CONN
*I *740:mem_slot[1] I *D ntt_engine_256
*I *739:mem_slot_o[1] O *D ntt_wb_bridge
*CAP
1 *740:mem_slot[1] 0.000194905
2 *739:mem_slot_o[1] 2.38341e-05
3 *694:17 0.000930674
4 *694:11 0.0568785
5 *694:9 0.0561427
6 *694:7 0.03881
7 *694:5 0.0388339
8 *740:mem_slot[1] *732:25 2.33476e-05
9 *694:11 *720:11 0.118055
10 *694:11 *723:11 0.00772561
11 *694:11 *732:11 0.128743
12 *694:11 *732:15 0.00677107
13 *74:31 *694:11 2.12347e-06
14 *77:55 *694:7 0
15 *78:53 *694:7 0.00118509
16 *141:17 *694:11 0
17 *648:15 *694:17 5.85133e-05
18 *663:23 *740:mem_slot[1] 0.000459727
19 *674:13 *694:11 0.0346096
20 *685:21 *694:17 0.000729005
*RES
1 *739:mem_slot_o[1] *694:5 0.0914667 
2 *694:5 *694:7 125.979 
3 *694:7 *694:9 8 
4 *694:9 *694:11 3211.86 
5 *694:11 *694:17 45.3907 
6 *694:17 *740:mem_slot[1] 6.26607 
*END

*D_NET *695 0.992517
*CONN
*I *740:mem_target I *D ntt_engine_256
*I *739:mem_target_o O *D ntt_wb_bridge
*CAP
1 *740:mem_target 0.000423863
2 *739:mem_target_o 0.00142553
3 *695:47 0.0088006
4 *695:45 0.00968935
5 *695:35 0.0365404
6 *695:33 0.0352278
7 *695:31 0.00277923
8 *695:23 0.0602428
9 *695:21 0.0574636
10 *695:19 0.0203475
11 *695:17 0.0203475
12 *695:15 0.00220193
13 *695:13 0.00362746
14 *695:19 *707:11 0.000132757
15 *695:23 *704:23 0.000216843
16 *695:23 *710:23 0.000366727
17 *695:23 *734:23 0.130443
18 *695:31 *740:mem_wdata[30] 0
19 *695:31 *706:23 0.010101
20 *695:31 *734:31 0.0113187
21 *695:35 *734:35 0.195042
22 *695:45 *710:39 0.00102688
23 *695:45 *733:57 0.00111742
24 *695:45 *734:41 0.000593627
25 *695:47 *704:47 0.038745
26 *695:47 *710:39 0.0285306
27 *79:18 *695:13 0.000287215
28 *359:41 *695:13 0.000112317
29 *360:31 *695:13 0.000242843
30 *362:27 *695:19 0.0556547
31 *364:19 *695:13 8.69837e-05
32 *647:11 *695:23 0.0522672
33 *658:11 *695:19 0.00431501
34 *662:15 *695:45 0.00461066
35 *662:19 *695:35 0.1952
36 *664:19 *695:23 0.00298816
37 *691:23 *695:31 0
*RES
1 *739:mem_target_o *695:13 29.8865 
2 *695:13 *695:15 36.83 
3 *695:15 *695:17 15 
4 *695:17 *695:19 715.347 
5 *695:19 *695:21 15 
6 *695:21 *695:23 1758.64 
7 *695:23 *695:31 48.6401 
8 *695:31 *695:33 8 
9 *695:33 *695:35 2508.11 
10 *695:35 *695:45 35.1581 
11 *695:45 *695:47 71.4971 
12 *695:47 *740:mem_target 16.6793 
*END

*D_NET *696 0.445702
*CONN
*I *740:mem_wdata[0] I *D ntt_engine_256
*I *739:mem_wdata_o[0] O *D ntt_wb_bridge
*CAP
1 *740:mem_wdata[0] 0.00131602
2 *739:mem_wdata_o[0] 0.000201226
3 *696:23 0.0265061
4 *696:21 0.0252488
5 *696:15 0.00282974
6 *696:13 0.00277105
7 *696:11 0.00913799
8 *696:9 0.00933922
9 *696:9 *736:6 0.000227734
10 *696:11 *697:11 0.0412134
11 *696:11 *736:6 0.00240826
12 *696:11 *736:18 0.00442026
13 *79:18 *696:11 0.000336262
14 *356:25 *696:21 5.09387e-06
15 *359:41 *696:11 0
16 *362:23 *696:15 0.0059485
17 *657:15 *696:15 0.00360573
18 *657:15 *696:23 0.0682328
19 *661:15 *696:23 0.0379516
20 *662:31 *696:15 0.00292378
21 *664:25 *696:21 5.95262e-05
22 *664:27 *696:15 0.00184661
23 *676:19 *696:23 0.139047
24 *676:27 *696:15 0.0125732
25 *693:11 *696:11 0.0475523
*RES
1 *739:mem_wdata_o[0] *696:9 8.69813 
2 *696:9 *696:11 610.937 
3 *696:11 *696:13 15 
4 *696:13 *696:15 173.089 
5 *696:15 *696:21 24.0254 
6 *696:21 *696:23 256.368 
7 *696:23 *740:mem_wdata[0] 32.8779 
*END

*D_NET *697 0.345152
*CONN
*I *740:mem_wdata[10] I *D ntt_engine_256
*I *739:mem_wdata_o[10] O *D ntt_wb_bridge
*CAP
1 *740:mem_wdata[10] 0.000782747
2 *739:mem_wdata_o[10] 0.000178073
3 *697:15 0.0179293
4 *697:13 0.0171465
5 *697:11 0.0079405
6 *697:9 0.00811857
7 *697:11 *702:12 0.00095764
8 *697:11 *702:14 0.00479354
9 *697:11 *711:11 0.0321404
10 *697:11 *712:24 5.72481e-05
11 *697:11 *713:11 1.72627e-05
12 *697:11 *719:9 0
13 *697:11 *736:18 0.00020639
14 *697:15 *706:23 0.039911
15 *697:15 *716:23 0.000111773
16 *697:15 *722:19 0.0652653
17 *697:15 *727:15 0.105381
18 *359:41 *697:11 0.00300129
19 *687:15 *697:11 0
20 *696:11 *697:11 0.0412134
*RES
1 *739:mem_wdata_o[10] *697:9 8.5712 
2 *697:9 *697:11 536.811 
3 *697:11 *697:13 8 
4 *697:13 *697:15 194.286 
5 *697:15 *740:mem_wdata[10] 23.2664 
*END

*D_NET *698 0.108096
*CONN
*I *740:mem_wdata[11] I *D ntt_engine_256
*I *739:mem_wdata_o[11] O *D ntt_wb_bridge
*CAP
1 *740:mem_wdata[11] 0.000652972
2 *739:mem_wdata_o[11] 0.00847278
3 *698:17 0.00671223
4 *698:11 0.0296683
5 *698:9 0.0320818
6 *698:9 *724:15 0.0136887
7 *698:17 *699:15 0
8 *684:11 *698:17 0.016819
*RES
1 *739:mem_wdata_o[11] *698:9 41.6784 
2 *698:9 *698:11 531.881 
3 *698:11 *698:17 47.0539 
4 *698:17 *740:mem_wdata[11] 13.8579 
*END

*D_NET *699 0.300256
*CONN
*I *740:mem_wdata[12] I *D ntt_engine_256
*I *739:mem_wdata_o[12] O *D ntt_wb_bridge
*CAP
1 *740:mem_wdata[12] 0.00108065
2 *739:mem_wdata_o[12] 0.00489983
3 *699:19 0.0296824
4 *699:17 0.0286018
5 *699:15 0.0230711
6 *699:13 0.0230711
7 *699:11 0.0282816
8 *699:9 0.0331814
9 *699:15 *700:17 0
10 *699:15 *703:15 0.0569428
11 *699:15 *705:17 0
12 *699:15 *705:21 0
13 *699:19 *705:23 0.00390246
14 *699:19 *715:19 0.067205
15 *74:31 *699:19 0
16 *78:129 *699:19 0.000335862
17 *651:15 *699:15 0
18 *660:11 *699:15 0
19 *684:11 *699:15 0
20 *690:15 *699:15 0
21 *698:17 *699:15 0
*RES
1 *739:mem_wdata_o[12] *699:9 21.0275 
2 *699:9 *699:11 95.1291 
3 *699:11 *699:13 8 
4 *699:13 *699:15 112.498 
5 *699:15 *699:17 8 
6 *699:17 *699:19 969.242 
7 *699:19 *740:mem_wdata[12] 10.3371 
*END

*D_NET *700 0.20559
*CONN
*I *740:mem_wdata[13] I *D ntt_engine_256
*I *739:mem_wdata_o[13] O *D ntt_wb_bridge
*CAP
1 *740:mem_wdata[13] 0.000705316
2 *739:mem_wdata_o[13] 2.30967e-05
3 *700:19 0.00653604
4 *700:17 0.00664862
5 *700:11 0.0274338
6 *700:9 0.0266159
7 *700:7 0.0361939
8 *700:5 0.036217
9 *700:17 *703:15 0.000164448
10 *700:19 *714:19 0.00785679
11 *700:19 *730:19 0.00409447
12 *77:87 *700:7 0.00284378
13 *114:25 *700:11 0.00372771
14 *646:23 *700:19 0.0132623
15 *646:41 *700:11 0.00240767
16 *658:27 *700:19 0.0253471
17 *685:41 *700:19 0.00525034
18 *690:15 *700:17 0.000262122
19 *699:15 *700:17 0
*RES
1 *739:mem_wdata_o[13] *700:5 0.0914667 
2 *700:5 *700:7 122.33 
3 *700:7 *700:9 8 
4 *700:9 *700:11 94.3675 
5 *700:11 *700:17 18.3315 
6 *700:17 *700:19 422.012 
7 *700:19 *740:mem_wdata[13] 9.56427 
*END

*D_NET *701 0.471625
*CONN
*I *740:mem_wdata[14] I *D ntt_engine_256
*I *739:mem_wdata_o[14] O *D ntt_wb_bridge
*CAP
1 *740:mem_wdata[14] 0.00151464
2 *739:mem_wdata_o[14] 0.00108649
3 *701:27 0.0119554
4 *701:25 0.0104407
5 *701:23 0.0171621
6 *701:21 0.0174425
7 *701:15 0.034129
8 *701:13 0.0338487
9 *701:11 0.00664614
10 *701:9 0.00773263
11 *740:mem_wdata[14] *706:27 0.000403959
12 *740:mem_wdata[14] *716:27 0.00217055
13 *740:mem_wdata[14] *717:19 0.00046325
14 *740:mem_wdata[14] *726:35 2.13985e-05
15 *740:mem_wdata[14] *737:35 0.000410633
16 *701:11 *706:11 0.03464
17 *701:11 *718:11 8.0533e-05
18 *701:11 *725:11 7.7975e-05
19 *701:11 *726:11 0.0374533
20 *701:11 *735:11 0.00172379
21 *701:11 *737:11 0.000941676
22 *701:15 *725:23 0.00371156
23 *701:15 *729:15 0
24 *701:21 *740:mem_we 6.10602e-05
25 *701:23 *740:mem_we 7.47186e-05
26 *701:27 *706:27 0.00652309
27 *701:27 *716:27 0.0173511
28 *701:27 *717:19 0.00568821
29 *701:27 *725:27 0.000427014
30 *701:27 *726:27 0.005844
31 *94:21 *701:27 0.00550662
32 *342:27 *701:23 0.0015715
33 *350:27 *701:15 0.0173588
34 *361:23 *701:15 0.00752373
35 *364:15 *701:15 0.00964697
36 *390:15 *701:15 0.00186892
37 *394:15 *701:15 0.0269596
38 *656:15 *701:15 0
39 *656:15 *701:23 0.000897521
40 *656:23 *701:23 0.075746
41 *668:11 *701:23 0.0202981
42 *678:11 *701:23 0.00542402
43 *683:15 *701:23 0.0182321
44 *683:23 *701:15 0.0031115
45 *688:11 *740:mem_wdata[14] 0.000755176
46 *688:11 *701:27 0.0149788
47 *689:19 *740:mem_wdata[14] 0.00046325
48 *689:27 *701:11 0.00125615
*RES
1 *739:mem_wdata_o[14] *701:9 10.5947 
2 *701:9 *701:11 486.63 
3 *701:11 *701:13 15 
4 *701:13 *701:15 989.211 
5 *701:15 *701:21 27.5468 
6 *701:21 *701:23 150.022 
7 *701:23 *701:25 8 
8 *701:25 *701:27 77.7392 
9 *701:27 *740:mem_wdata[14] 14.6659 
*END

*D_NET *702 0.783385
*CONN
*I *740:mem_wdata[15] I *D ntt_engine_256
*I *739:mem_wdata_o[15] O *D ntt_wb_bridge
*CAP
1 *740:mem_wdata[15] 0.00130408
2 *739:mem_wdata_o[15] 0.0049295
3 *702:30 0.024967
4 *702:28 0.0238862
5 *702:22 0.0197787
6 *702:20 0.0195554
7 *702:18 0.056694
8 *702:16 0.056694
9 *702:14 0.0086168
10 *702:12 0.0135463
11 *702:12 *711:11 0.0006043
12 *702:12 *712:12 0.00603802
13 *702:12 *713:11 0.000179635
14 *702:12 *736:6 0.00991224
15 *702:12 *736:16 0.00117676
16 *702:12 *736:18 0.000507321
17 *702:14 *711:11 0.00417111
18 *702:14 *712:12 0.00280446
19 *702:14 *712:18 0.0172339
20 *702:14 *713:11 0.000328334
21 *702:14 *736:18 0.0256839
22 *702:18 *718:15 0.00013843
23 *702:28 *740:mem_wdata[2] 0
24 *702:30 *709:27 0.0225251
25 *116:109 *702:18 0.000695587
26 *116:111 *702:22 0.111407
27 *118:27 *702:22 8.47267e-05
28 *359:41 *702:12 0.00141043
29 *656:27 *702:22 0.0936539
30 *656:35 *702:30 0.0492717
31 *677:11 *702:22 0.0168774
32 *688:23 *702:18 0.176812
33 *691:11 *702:30 0.00614546
34 *697:11 *702:12 0.00095764
35 *697:11 *702:14 0.00479354
*RES
1 *739:mem_wdata_o[15] *702:12 38.3669 
2 *702:12 *702:14 62.8171 
3 *702:14 *702:16 8 
4 *702:16 *702:18 326.392 
5 *702:18 *702:20 8 
6 *702:20 *702:22 1416.46 
7 *702:22 *702:28 16.5283 
8 *702:28 *702:30 155.169 
9 *702:30 *740:mem_wdata[15] 11.2312 
*END

*D_NET *703 0.188042
*CONN
*I *740:mem_wdata[16] I *D ntt_engine_256
*I *739:mem_wdata_o[16] O *D ntt_wb_bridge
*CAP
1 *740:mem_wdata[16] 0.00555248
2 *739:mem_wdata_o[16] 0.00664974
3 *703:15 0.0264104
4 *703:13 0.0208579
5 *703:11 0.0270171
6 *703:9 0.0336668
7 *740:mem_wdata[16] *724:23 0.00734548
8 la_data_out[86] *703:11 0.00322498
9 *672:6 *740:mem_wdata[16] 0.000210019
10 *685:47 *740:mem_wdata[16] 0
11 *690:15 *703:15 0
12 *699:15 *703:15 0.0569428
13 *700:17 *703:15 0.000164448
*RES
1 *739:mem_wdata_o[16] *703:9 27.3816 
2 *703:9 *703:11 89.1632 
3 *703:11 *703:13 8 
4 *703:13 *703:15 105.329 
5 *703:15 *740:mem_wdata[16] 35.2211 
*END

*D_NET *704 1.02055
*CONN
*I *740:mem_wdata[17] I *D ntt_engine_256
*I *739:mem_wdata_o[17] O *D ntt_wb_bridge
*CAP
1 *740:mem_wdata[17] 0.000461868
2 *739:mem_wdata_o[17] 0.00142282
3 *704:47 0.0105482
4 *704:45 0.0108026
5 *704:35 0.0481696
6 *704:33 0.0474534
7 *704:31 0.0194207
8 *704:29 0.0194967
9 *704:23 0.0119662
10 *704:21 0.0118902
11 *704:19 0.00772921
12 *704:17 0.00962366
13 *704:13 0.00331728
14 *704:13 *705:7 0
15 *704:19 *707:11 0
16 *704:23 *706:15 0.062771
17 *704:23 *710:23 0.0744487
18 *704:23 *716:15 4.5051e-05
19 *704:31 *710:23 0.003801
20 *704:31 *710:31 0.0710423
21 *704:31 *719:13 0.0906696
22 *704:31 *734:23 0.00320911
23 *704:31 *734:31 0.00551972
24 *704:35 *716:27 0.0141203
25 *704:35 *717:27 0.0158088
26 *704:35 *733:43 0.19701
27 *704:35 *737:35 0.103359
28 *704:35 *737:43 0.00616887
29 *704:45 *734:41 0.0030906
30 *704:47 *734:43 0.0486322
31 la_data_out[83] *704:19 0.0179371
32 *81:19 *704:35 0.000196798
33 *116:119 *704:35 0
34 *353:23 *704:19 0.0360407
35 *357:27 *704:19 9.87077e-05
36 *358:27 *704:19 0.000364015
37 *360:31 *704:13 0.000131661
38 *364:19 *704:13 4.60289e-05
39 *540:17 *704:45 0.000852995
40 *647:11 *704:31 0.00824171
41 *649:9 *704:29 2.79482e-05
42 *649:11 *704:23 0.0139416
43 *649:11 *704:31 0.000122047
44 *675:13 *704:45 0.00152949
45 *675:25 *704:31 5.485e-05
46 *695:23 *704:23 0.000216843
47 *695:47 *704:47 0.038745
*RES
1 *739:mem_wdata_o[17] *704:13 28.351 
2 *704:13 *704:17 45.6364 
3 *704:17 *704:19 473.425 
4 *704:19 *704:21 15 
5 *704:21 *704:23 820.079 
6 *704:23 *704:29 24.3775 
7 *704:29 *704:31 186.387 
8 *704:31 *704:33 8 
9 *704:33 *704:35 2507.4 
10 *704:35 *704:45 32.2503 
11 *704:45 *704:47 89.7867 
12 *704:47 *740:mem_wdata[17] 18.0257 
*END

*D_NET *705 0.292368
*CONN
*I *740:mem_wdata[18] I *D ntt_engine_256
*I *739:mem_wdata_o[18] O *D ntt_wb_bridge
*CAP
1 *740:mem_wdata[18] 0.00129168
2 *739:mem_wdata_o[18] 2.30967e-05
3 *705:23 0.0122671
4 *705:21 0.0155063
5 *705:17 0.0121623
6 *705:13 0.00763147
7 *705:11 0.0251651
8 *705:9 0.0251651
9 *705:7 0.0160559
10 *705:5 0.016079
11 *705:23 *715:19 0.0499437
12 *705:23 *738:19 0.000252752
13 *78:129 *705:23 0.000660097
14 *115:111 *705:7 0.000341715
15 *282:23 *705:7 0.0082307
16 *651:15 *705:17 0.00202622
17 *651:15 *705:21 0.0018052
18 *652:11 *740:mem_wdata[18] 0.000227734
19 *660:11 *705:17 0.0230581
20 *684:11 *705:17 0.0129645
21 *690:11 *705:23 0.0576076
22 *699:15 *705:17 0
23 *699:15 *705:21 0
24 *699:19 *705:23 0.00390246
25 *704:13 *705:7 0
*RES
1 *739:mem_wdata_o[18] *705:5 0.0914667 
2 *705:5 *705:7 59.304 
3 *705:7 *705:9 8 
4 *705:9 *705:11 84.9744 
5 *705:11 *705:13 8 
6 *705:13 *705:17 49.9968 
7 *705:17 *705:21 24.3277 
8 *705:21 *705:23 751.618 
9 *705:23 *740:mem_wdata[18] 10.6731 
*END

*D_NET *706 0.762779
*CONN
*I *740:mem_wdata[19] I *D ntt_engine_256
*I *739:mem_wdata_o[19] O *D ntt_wb_bridge
*CAP
1 *740:mem_wdata[19] 0.000828514
2 *739:mem_wdata_o[19] 0.00111136
3 *706:35 0.0160655
4 *706:33 0.0153528
5 *706:27 0.0110774
6 *706:25 0.0109616
7 *706:23 0.0205169
8 *706:21 0.0207425
9 *706:15 0.01172
10 *706:13 0.0114944
11 *706:11 0.00766479
12 *706:9 0.00877615
13 *706:11 *716:11 0.0141328
14 *706:11 *718:11 0
15 *706:11 *735:11 0.00790448
16 *706:11 *737:11 0.000789168
17 *706:15 *716:15 0.0441013
18 *706:23 *740:mem_wdata[9] 0.00424256
19 *706:23 *716:23 0.110789
20 *706:23 *727:15 0.0139422
21 *706:23 *734:31 0.0164168
22 *706:27 *717:19 0.050919
23 *706:27 *726:27 0.0350392
24 *706:27 *726:35 0.0034925
25 *706:27 *737:35 0.000165877
26 *706:35 *740:mem_wdata[8] 0.00114619
27 *706:35 *716:27 0.0169755
28 *706:35 *717:27 0.0492102
29 *706:35 *726:35 0.0311589
30 *706:35 *737:35 0.0122195
31 *739:mem_rdata_i[24] *706:11 0.000133892
32 *739:mem_rdata_i[25] *706:11 7.80362e-05
33 *740:mem_wdata[14] *706:27 0.000403959
34 *118:27 *706:27 0
35 *649:11 *706:15 0.0141025
36 *683:35 *706:11 7.80362e-05
37 *689:11 *706:35 0.0333808
38 *689:19 *706:27 0.000252959
39 *689:19 *706:35 0.0105006
40 *689:27 *706:11 0.000945395
41 *691:23 *706:23 0
42 *695:31 *706:23 0.010101
43 *697:15 *706:23 0.039911
44 *701:11 *706:11 0.03464
45 *701:27 *706:27 0.00652309
46 *704:23 *706:15 0.062771
*RES
1 *739:mem_wdata_o[19] *706:9 10.6805 
2 *706:9 *706:11 459.867 
3 *706:11 *706:13 15 
4 *706:13 *706:15 685.726 
5 *706:15 *706:21 26.8425 
6 *706:21 *706:23 204.762 
7 *706:23 *706:25 8 
8 *706:25 *706:27 659.356 
9 *706:27 *706:33 16.1848 
10 *706:33 *706:35 157.199 
11 *706:35 *740:mem_wdata[19] 9.55867 
*END

*D_NET *707 0.0718441
*CONN
*I *740:mem_wdata[1] I *D ntt_engine_256
*I *739:mem_wdata_o[1] O *D ntt_wb_bridge
*CAP
1 *740:mem_wdata[1] 1.36105e-05
2 *739:mem_wdata_o[1] 0.00374282
3 *707:11 0.0197976
4 *707:9 0.0235268
5 io_out[1] *707:9 0
6 la_data_out[83] *707:11 0
7 *362:27 *707:11 0.0246306
8 *695:19 *707:11 0.000132757
9 *704:19 *707:11 0
*RES
1 *739:mem_wdata_o[1] *707:9 17.7216 
2 *707:9 *707:11 628.368 
3 *707:11 *740:mem_wdata[1] 0.310714 
*END

*D_NET *708 0.423248
*CONN
*I *740:mem_wdata[20] I *D ntt_engine_256
*I *739:mem_wdata_o[20] O *D ntt_wb_bridge
*CAP
1 *740:mem_wdata[20] 0.00100882
2 *739:mem_wdata_o[20] 0.00298794
3 *708:27 0.0237391
4 *708:25 0.0229159
5 *708:19 0.00932603
6 *708:15 0.0439624
7 *708:13 0.034822
8 *708:11 0.0127856
9 *708:9 0.0157735
10 *708:11 *733:11 0
11 *708:19 *724:23 0.0144901
12 *708:27 *730:19 0.110096
13 *708:27 *738:19 0.0928316
14 *739:mem_rdata_i[19] *708:15 0.00350162
15 *77:127 *708:15 0
16 *115:219 *708:27 0.0125123
17 *354:27 *708:11 0.00412515
18 *375:19 *708:11 0.0040243
19 *378:27 *708:11 0.0035165
20 *669:19 *708:15 0
21 *685:25 *708:27 0.00395997
22 *690:19 *708:11 0.00686931
*RES
1 *739:mem_wdata_o[20] *708:9 15.3603 
2 *708:9 *708:11 46.8944 
3 *708:11 *708:13 8 
4 *708:13 *708:15 117.35 
5 *708:15 *708:19 42.328 
6 *708:19 *708:25 16.3565 
7 *708:25 *708:27 1517.88 
8 *708:27 *740:mem_wdata[20] 10.3296 
*END

*D_NET *709 0.794541
*CONN
*I *740:mem_wdata[21] I *D ntt_engine_256
*I *739:mem_wdata_o[21] O *D ntt_wb_bridge
*CAP
1 *740:mem_wdata[21] 0.00134131
2 *739:mem_wdata_o[21] 0.000900875
3 *709:27 0.0585991
4 *709:25 0.0575344
5 *709:19 0.0126053
6 *709:17 0.0123286
7 *709:15 0.0297009
8 *709:13 0.0297009
9 *709:11 0.0142398
10 *709:9 0.0151407
11 *709:9 *710:13 0
12 *709:11 *718:11 0
13 *709:11 *722:15 5.03395e-05
14 *709:11 *727:11 0.0339457
15 *709:11 *731:11 0
16 *709:11 *737:21 0
17 *709:15 *736:22 0.000347622
18 *709:19 *718:19 0.0425487
19 *709:19 *729:27 0.000259286
20 *709:19 *736:34 0.0105932
21 *709:25 *740:slot_c[0] 4.59167e-06
22 *709:27 *718:27 0.0182637
23 *709:27 *729:35 0.0164203
24 *656:35 *709:27 0.000133494
25 *676:17 *709:19 0.00167684
26 *689:23 *709:15 0.177277
27 *691:19 *709:19 0.0604669
28 *691:23 *709:15 0.177936
29 *702:30 *709:27 0.0225251
*RES
1 *739:mem_wdata_o[21] *709:9 10.2848 
2 *709:9 *709:11 448.775 
3 *709:11 *709:13 8 
4 *709:13 *709:15 328.496 
5 *709:15 *709:17 8 
6 *709:17 *709:19 767.816 
7 *709:19 *709:25 16.6141 
8 *709:25 *709:27 215.462 
9 *709:27 *740:mem_wdata[21] 11.3208 
*END

*D_NET *710 0.853162
*CONN
*I *740:mem_wdata[22] I *D ntt_engine_256
*I *739:mem_wdata_o[22] O *D ntt_wb_bridge
*CAP
1 *740:mem_wdata[22] 0.000505064
2 *739:mem_wdata_o[22] 0.00146082
3 *710:39 0.00786306
4 *710:37 0.007358
5 *710:35 0.0425674
6 *710:33 0.0425674
7 *710:31 0.016633
8 *710:29 0.0166923
9 *710:23 0.0183019
10 *710:21 0.0182427
11 *710:19 0.00824163
12 *710:17 0.00977177
13 *710:13 0.00299095
14 *710:23 *734:23 0.101627
15 *710:39 *733:57 0.0196368
16 *710:39 *734:41 0.00302868
17 *710:39 *734:43 1.49526e-05
18 *81:19 *710:35 0.0691138
19 *119:57 *710:35 0.195178
20 *354:27 *710:19 0
21 *360:31 *710:13 0.000103385
22 *364:19 *710:13 3.11421e-05
23 *647:11 *710:23 0.0108933
24 *647:11 *710:31 0.014594
25 *650:19 *710:19 0.0331572
26 *664:19 *710:31 0.00786123
27 *675:25 *710:31 0.000678131
28 *690:19 *710:19 0.00354668
29 *691:27 *710:19 0.0212849
30 *695:23 *710:23 0.000366727
31 *695:45 *710:39 0.00102688
32 *695:47 *710:39 0.0285306
33 *704:23 *710:23 0.0744487
34 *704:31 *710:23 0.003801
35 *704:31 *710:31 0.0710423
36 *709:9 *710:13 0
*RES
1 *739:mem_wdata_o[22] *710:13 27.9988 
2 *710:13 *710:17 38.9664 
3 *710:17 *710:19 431.168 
4 *710:19 *710:21 15 
5 *710:21 *710:23 1117.37 
6 *710:23 *710:29 24.0254 
7 *710:29 *710:31 131.174 
8 *710:31 *710:33 8 
9 *710:33 *710:35 2509.51 
10 *710:35 *710:37 8 
11 *710:37 *710:39 58.3595 
12 *710:39 *740:mem_wdata[22] 18.3364 
*END

*D_NET *711 0.204146
*CONN
*I *740:mem_wdata[23] I *D ntt_engine_256
*I *739:mem_wdata_o[23] O *D ntt_wb_bridge
*CAP
1 *740:mem_wdata[23] 0.00172081
2 *739:mem_wdata_o[23] 0.000174694
3 *711:15 0.0142414
4 *711:13 0.0125206
5 *711:11 0.00542639
6 *711:9 0.00560109
7 *711:11 *713:11 0.0309192
8 *711:11 *736:16 0.00020711
9 *711:11 *736:18 0.000187461
10 *711:15 *713:15 0.0348639
11 *711:15 *725:23 0.000974226
12 *711:15 *728:23 0.0108397
13 *353:19 *711:15 0.0258288
14 *359:41 *711:11 0.000629995
15 *364:15 *711:15 0.00167283
16 *375:15 *711:15 0.000481574
17 *378:15 *711:15 0.00685646
18 *378:23 *711:15 0.00105167
19 *656:15 *711:15 0.0101069
20 *668:11 *711:15 4.07227e-05
21 *668:19 *711:15 0.00135215
22 *678:19 *711:15 0.00153251
23 *697:11 *711:11 0.0321404
24 *702:12 *711:11 0.0006043
25 *702:14 *711:11 0.00417111
*RES
1 *739:mem_wdata_o[23] *711:9 8.5712 
2 *711:9 *711:11 411.448 
3 *711:11 *711:13 8 
4 *711:13 *711:15 101.808 
5 *711:15 *740:mem_wdata[23] 38.7607 
*END

*D_NET *712 0.430807
*CONN
*I *740:mem_wdata[24] I *D ntt_engine_256
*I *739:mem_wdata_o[24] O *D ntt_wb_bridge
*CAP
1 *740:mem_wdata[24] 0.000657095
2 *739:mem_wdata_o[24] 0.00826899
3 *712:34 0.0443782
4 *712:32 0.0439278
5 *712:26 0.0058069
6 *712:24 0.0057976
7 *712:18 0.011914
8 *712:12 0.0199856
9 *712:12 *713:11 0.000633704
10 *712:12 *714:13 0.000227734
11 *712:12 *716:9 0.000221278
12 *712:12 *719:9 0.00164358
13 *712:18 *713:11 0.00315067
14 *712:18 *719:9 0.00036764
15 *712:26 *716:15 0.00424034
16 *712:26 *719:13 0.00328523
17 *712:26 *733:39 0
18 *712:34 *716:23 0.130202
19 *712:34 *722:19 0.0161132
20 *712:34 *733:39 0.0685894
21 *739:mem_rdata_i[10] *712:12 0.000227734
22 *739:mem_rdata_i[5] *712:12 0.000324219
23 *739:mem_rdata_i[6] *712:12 0.000227734
24 *739:mem_rdata_i[7] *712:12 0.000227734
25 *357:23 *712:34 0.00417287
26 *540:13 *740:mem_wdata[24] 0
27 *647:11 *712:18 0.000216987
28 *649:11 *712:18 0.000102152
29 *668:23 *712:18 0.000369831
30 *678:23 *712:18 0.000219296
31 *687:15 *712:18 0.000736363
32 *691:23 *712:34 0.0284363
33 *697:11 *712:24 5.72481e-05
34 *702:12 *712:12 0.00603802
35 *702:14 *712:12 0.00280446
36 *702:14 *712:18 0.0172339
*RES
1 *739:mem_wdata_o[24] *712:12 42.6901 
2 *712:12 *712:18 49.8003 
3 *712:18 *712:24 26.1382 
4 *712:24 *712:26 157.366 
5 *712:26 *712:32 26.4904 
6 *712:32 *712:34 295.523 
7 *712:34 *740:mem_wdata[24] 21.1536 
*END

*D_NET *713 0.149502
*CONN
*I *740:mem_wdata[25] I *D ntt_engine_256
*I *739:mem_wdata_o[25] O *D ntt_wb_bridge
*CAP
1 *740:mem_wdata[25] 0.00166066
2 *739:mem_wdata_o[25] 0.000135733
3 *713:15 0.00794216
4 *713:13 0.00628149
5 *713:11 0.00691563
6 *713:9 0.00705136
7 *740:mem_wdata[25] *728:21 1.97071e-05
8 *713:11 *719:9 0
9 *713:11 *735:19 0.00035625
10 *352:15 *713:15 0.0258321
11 *353:19 *713:15 1.67025e-05
12 *359:41 *713:11 0.00366634
13 *386:21 *713:15 0.00646636
14 *668:11 *713:15 0.00136135
15 *676:19 *713:15 1.13155e-05
16 *687:15 *713:11 0.011692
17 *697:11 *713:11 1.72627e-05
18 *702:12 *713:11 0.000179635
19 *702:14 *713:11 0.000328334
20 *711:11 *713:11 0.0309192
21 *711:15 *713:15 0.0348639
22 *712:12 *713:11 0.000633704
23 *712:18 *713:11 0.00315067
*RES
1 *739:mem_wdata_o[25] *713:9 8.31733 
2 *713:9 *713:11 396.658 
3 *713:11 *713:13 8 
4 *713:13 *713:15 64.6277 
5 *713:15 *740:mem_wdata[25] 38.0564 
*END

*D_NET *714 0.817202
*CONN
*I *740:mem_wdata[26] I *D ntt_engine_256
*I *739:mem_wdata_o[26] O *D ntt_wb_bridge
*CAP
1 *740:mem_wdata[26] 0.000460987
2 *739:mem_wdata_o[26] 0.00161213
3 *714:39 0.0140365
4 *714:37 0.0136754
5 *714:31 0.0475422
6 *714:29 0.0474424
7 *714:27 0.0345307
8 *714:25 0.0347665
9 *714:19 0.0149932
10 *714:17 0.0147575
11 *714:15 0.0311639
12 *714:13 0.032776
13 *714:13 *715:7 0
14 *714:19 *715:11 0
15 *714:19 *724:23 0.00645242
16 *714:19 *730:19 0.0111471
17 *714:27 *715:11 0.000134303
18 *714:27 *720:21 6.04407e-05
19 *714:31 *720:23 0.0052503
20 *714:31 *732:27 0
21 *77:145 *714:27 0.171373
22 *114:37 *714:19 0
23 *114:37 *714:27 0
24 *114:45 *714:27 0.0217496
25 *115:233 *714:31 0.00057106
26 *360:31 *714:13 0.000214959
27 *364:19 *714:13 7.55324e-05
28 *540:17 *714:39 0.010834
29 *646:11 *714:39 0.0497995
30 *646:19 *714:31 0
31 *646:23 *714:19 0.005645
32 *648:15 *714:31 0.0010668
33 *653:21 *714:27 9.40202e-05
34 *653:23 *714:31 0.00272587
35 *654:11 *714:27 0.00882207
36 *658:25 *714:25 0.000307289
37 *658:35 *714:27 0.154572
38 *658:39 *714:31 0
39 *658:47 *714:31 0.00402851
40 *663:11 *714:39 0.0295734
41 *663:19 *714:31 0.00382672
42 *666:9 *714:27 0.002605
43 *673:11 *714:31 0.0214043
44 *673:15 *714:27 1.97797e-05
45 *679:15 *714:27 0.0090073
46 *682:23 *714:27 0
47 *685:21 *714:31 0
48 *685:33 *714:27 0
49 *685:49 *714:19 0
50 *700:19 *714:19 0.00785679
51 *712:12 *714:13 0.000227734
*RES
1 *739:mem_wdata_o[26] *714:13 29.6613 
2 *714:13 *714:15 672.862 
3 *714:15 *714:17 15 
4 *714:17 *714:19 507.935 
5 *714:19 *714:25 34.4329 
6 *714:25 *714:27 2397.89 
7 *714:27 *714:29 15 
8 *714:29 *714:31 1139.76 
9 *714:31 *714:37 24.7296 
10 *714:37 *714:39 110.395 
11 *714:39 *740:mem_wdata[26] 18.1086 
*END

*D_NET *715 0.728439
*CONN
*I *740:mem_wdata[27] I *D ntt_engine_256
*I *739:mem_wdata_o[27] O *D ntt_wb_bridge
*CAP
1 *740:mem_wdata[27] 0.000400246
2 *739:mem_wdata_o[27] 3.32079e-05
3 *715:23 0.0194165
4 *715:21 0.0190162
5 *715:19 0.0630039
6 *715:17 0.0636514
7 *715:11 0.0140553
8 *715:9 0.0134078
9 *715:7 0.0381365
10 *715:5 0.0381697
11 *715:23 *721:15 0.0611496
12 *715:23 *732:27 0.00188259
13 *74:31 *715:19 0
14 *78:161 *715:19 0.0460702
15 *114:37 *715:11 3.15638e-05
16 *115:127 *715:7 0.000245078
17 *115:219 *715:19 0.00514105
18 *646:11 *715:23 0.0502313
19 *646:19 *715:23 0.00164683
20 *648:15 *715:23 0.00216345
21 *653:23 *715:23 0.00637014
22 *654:11 *715:11 0.00828209
23 *658:19 *715:11 0.00705159
24 *658:39 *715:23 0.00298934
25 *663:11 *715:23 0.0904332
26 *663:19 *715:23 0.00369576
27 *663:23 *715:11 0
28 *667:15 *715:11 0
29 *671:15 *715:23 0.0206983
30 *673:11 *715:23 3.00618e-05
31 *673:15 *715:11 0
32 *679:11 *715:23 0.000160124
33 *679:15 *715:11 0.00631306
34 *682:29 *715:17 0.000345669
35 *685:25 *715:19 0
36 *685:47 *715:17 9.50812e-05
37 *685:49 *715:11 0.0141715
38 *690:11 *715:19 0.012668
39 *699:19 *715:19 0.067205
40 *705:23 *715:19 0.0499437
41 *714:13 *715:7 0
42 *714:19 *715:11 0
43 *714:27 *715:11 0.000134303
*RES
1 *739:mem_wdata_o[27] *715:5 0.0914667 
2 *715:5 *715:7 123.833 
3 *715:7 *715:9 8 
4 *715:9 *715:11 506.526 
5 *715:11 *715:17 17.5157 
6 *715:17 *715:19 2394.72 
7 *715:19 *715:21 8 
8 *715:21 *715:23 205.878 
9 *715:23 *740:mem_wdata[27] 16.2029 
*END

*D_NET *716 0.635321
*CONN
*I *740:mem_wdata[28] I *D ntt_engine_256
*I *739:mem_wdata_o[28] O *D ntt_wb_bridge
*CAP
1 *740:mem_wdata[28] 0.000564974
2 *739:mem_wdata_o[28] 0.00140164
3 *716:27 0.0223636
4 *716:25 0.0217987
5 *716:23 0.0218094
6 *716:21 0.0220561
7 *716:15 0.0126497
8 *716:13 0.0124029
9 *716:11 0.0068712
10 *716:9 0.00827284
11 *716:9 *717:9 0
12 *716:11 *735:11 0.00171164
13 *716:11 *737:11 0.000316039
14 *716:23 *722:19 0.0197391
15 *716:27 *725:27 0.0502932
16 *716:27 *726:35 0.00893269
17 *716:27 *733:43 0.012303
18 *716:27 *737:35 0.0100214
19 *739:mem_rdata_i[24] *716:11 0.000131661
20 *739:mem_rdata_i[25] *716:11 7.57449e-05
21 *740:mem_wdata[14] *716:27 0.00217055
22 *81:19 *716:27 0.00269443
23 *364:19 *716:11 0.0023217
24 *649:11 *716:15 0.00982565
25 *683:35 *716:11 7.57449e-05
26 *688:27 *716:11 0.0229774
27 *689:19 *716:27 0.0087337
28 *689:27 *716:11 0.000515984
29 *691:23 *716:23 0
30 *697:15 *716:23 0.000111773
31 *701:27 *716:27 0.0173511
32 *704:23 *716:15 4.5051e-05
33 *704:35 *716:27 0.0141203
34 *706:11 *716:11 0.0141328
35 *706:15 *716:15 0.0441013
36 *706:23 *716:23 0.110789
37 *706:35 *716:27 0.0169755
38 *712:12 *716:9 0.000221278
39 *712:26 *716:15 0.00424034
40 *712:34 *716:23 0.130202
*RES
1 *739:mem_wdata_o[28] *716:9 11.36 
2 *716:9 *716:11 381.34 
3 *716:11 *716:13 15 
4 *716:13 *716:15 482.767 
5 *716:15 *716:21 27.1946 
6 *716:21 *716:23 241.213 
7 *716:23 *716:25 8 
8 *716:25 *716:27 158.723 
9 *716:27 *740:mem_wdata[28] 9.13307 
*END

*D_NET *717 0.788681
*CONN
*I *740:mem_wdata[29] I *D ntt_engine_256
*I *739:mem_wdata_o[29] O *D ntt_wb_bridge
*CAP
1 *740:mem_wdata[29] 0.000822525
2 *739:mem_wdata_o[29] 0.00144647
3 *717:27 0.0220196
4 *717:25 0.0213667
5 *717:19 0.0136914
6 *717:17 0.0135218
7 *717:15 0.0303918
8 *717:13 0.0303918
9 *717:11 0.00793352
10 *717:9 0.00937999
11 *717:9 *719:7 0
12 *717:15 *718:15 0.177708
13 *717:19 *726:35 0.00629269
14 *717:27 *733:43 0.0106766
15 *717:27 *737:43 0.0250859
16 *739:mem_rdata_i[12] *717:11 9.37667e-05
17 *739:mem_rdata_i[13] *717:11 6.86684e-05
18 *739:mem_rdata_i[3] *717:11 3.78361e-05
19 *740:mem_wdata[14] *717:19 0.00046325
20 *81:19 *717:27 0.00517227
21 *118:27 *717:19 0
22 *360:31 *717:11 0.00923065
23 *364:19 *717:11 0.0279214
24 *649:15 *717:11 0
25 *662:41 *717:11 7.04503e-05
26 *662:43 *717:11 0.000791055
27 *675:39 *717:11 8.03324e-05
28 *688:23 *717:15 0.178295
29 *688:27 *717:11 0.000794694
30 *689:11 *717:27 0.00441635
31 *689:19 *717:19 0.0688908
32 *701:27 *717:19 0.00568821
33 *704:35 *717:27 0.0158088
34 *706:27 *717:19 0.050919
35 *706:35 *717:27 0.0492102
36 *716:9 *717:9 0
*RES
1 *739:mem_wdata_o[29] *717:9 11.4496 
2 *717:9 *717:11 390.319 
3 *717:11 *717:13 8 
4 *717:13 *717:15 328.754 
5 *717:15 *717:17 8 
6 *717:17 *717:19 874.868 
7 *717:19 *717:25 16.2707 
8 *717:25 *717:27 135.621 
9 *717:27 *740:mem_wdata[29] 9.51387 
*END

*D_NET *718 0.649546
*CONN
*I *740:mem_wdata[2] I *D ntt_engine_256
*I *739:mem_wdata_o[2] O *D ntt_wb_bridge
*CAP
1 *740:mem_wdata[2] 0.00118802
2 *739:mem_wdata_o[2] 0.00100059
3 *718:27 0.0188394
4 *718:25 0.0177268
5 *718:19 0.0114839
6 *718:17 0.0114086
7 *718:15 0.0641105
8 *718:13 0.0641105
9 *718:11 0.0120443
10 *718:9 0.0130449
11 *718:11 *725:11 0.0421814
12 *718:11 *731:11 0.0367355
13 *718:11 *735:11 0
14 *718:11 *737:11 0.00657445
15 *718:11 *737:21 4.80121e-05
16 *718:15 *736:22 0
17 *718:19 *729:27 0.0172056
18 *718:27 *729:35 0.0333941
19 *718:27 *736:34 0.0167507
20 io_out[1] *718:9 0
21 *120:29 *718:19 0
22 *656:35 *718:27 0.0168878
23 *664:13 *718:25 8.91337e-05
24 *664:15 *718:19 0.00767425
25 *677:11 *718:27 0.0181145
26 *688:23 *718:15 5.48958e-05
27 *688:27 *718:11 0
28 *689:23 *718:15 0
29 *689:27 *718:11 0.000138759
30 *701:11 *718:11 8.0533e-05
31 *702:18 *718:15 0.00013843
32 *702:28 *740:mem_wdata[2] 0
33 *706:11 *718:11 0
34 *709:11 *718:11 0
35 *709:19 *718:19 0.0425487
36 *709:27 *718:27 0.0182637
37 *717:15 *718:15 0.177708
*RES
1 *739:mem_wdata_o[2] *718:9 10.464 
2 *718:9 *718:11 618.508 
3 *718:11 *718:13 8 
4 *718:13 *718:15 329.269 
5 *718:15 *718:17 8 
6 *718:17 *718:19 540.332 
7 *718:19 *718:25 16.1848 
8 *718:25 *718:27 157.199 
9 *718:27 *740:mem_wdata[2] 10.7235 
*END

*D_NET *719 0.42159
*CONN
*I *740:mem_wdata[30] I *D ntt_engine_256
*I *739:mem_wdata_o[30] O *D ntt_wb_bridge
*CAP
1 *740:mem_wdata[30] 0.000855799
2 *739:mem_wdata_o[30] 0.000121907
3 *719:13 0.0295343
4 *719:11 0.0286785
5 *719:9 0.0132735
6 *719:7 0.0133954
7 *719:9 *735:19 0
8 *719:13 *740:mem_wdata[9] 0.00223932
9 *719:13 *727:15 0.131801
10 *719:13 *731:43 0.0435625
11 *719:13 *734:31 0.0302694
12 *356:31 *719:9 0
13 *359:41 *719:9 0
14 *649:11 *719:13 0.0171595
15 *668:23 *719:9 0.00296903
16 *678:23 *719:9 0.00896799
17 *687:15 *719:9 0.00279602
18 *695:31 *740:mem_wdata[30] 0
19 *697:11 *719:9 0
20 *704:31 *719:13 0.0906696
21 *712:12 *719:9 0.00164358
22 *712:18 *719:9 0.00036764
23 *712:26 *719:13 0.00328523
24 *713:11 *719:9 0
25 *717:9 *719:7 0
*RES
1 *739:mem_wdata_o[30] *719:7 8.32853 
2 *719:7 *719:9 368.839 
3 *719:9 *719:11 8 
4 *719:11 *719:13 306.686 
5 *719:13 *740:mem_wdata[30] 24.675 
*END

*D_NET *720 0.551941
*CONN
*I *740:mem_wdata[31] I *D ntt_engine_256
*I *739:mem_wdata_o[31] O *D ntt_wb_bridge
*CAP
1 *740:mem_wdata[31] 0.000581451
2 *739:mem_wdata_o[31] 4.98287e-05
3 *720:23 0.00214518
4 *720:21 0.00213105
5 *720:11 0.0397529
6 *720:9 0.0391856
7 *720:7 0.0397997
8 *720:5 0.0398496
9 *720:7 *735:27 5.31315e-07
10 *720:11 *723:11 0.00561338
11 *720:21 *732:25 0.00104741
12 *720:23 *721:15 0.00206327
13 *77:95 *720:7 0
14 *141:17 *720:11 0.000700429
15 *359:39 *720:7 5.31315e-07
16 *648:15 *720:23 4.22158e-05
17 *653:23 *720:23 8.56254e-05
18 *658:35 *720:21 2.24608e-05
19 *663:19 *720:23 0.00907318
20 *671:15 *720:21 0.0011894
21 *671:17 *720:11 0.224396
22 *674:13 *720:11 0.00852899
23 *681:11 *720:11 0.0123163
24 *694:11 *720:11 0.118055
25 *714:27 *720:21 6.04407e-05
26 *714:31 *720:23 0.0052503
*RES
1 *739:mem_wdata_o[31] *720:5 0.0914667 
2 *720:5 *720:7 126.151 
3 *720:7 *720:9 8 
4 *720:9 *720:11 2865.88 
5 *720:11 *720:21 35.7225 
6 *720:21 *720:23 102.577 
7 *720:23 *740:mem_wdata[31] 25.5125 
*END

*D_NET *721 0.787403
*CONN
*I *740:mem_wdata[3] I *D ntt_engine_256
*I *739:mem_wdata_o[3] O *D ntt_wb_bridge
*CAP
1 *740:mem_wdata[3] 0.000568938
2 *739:mem_wdata_o[3] 2.38341e-05
3 *721:15 0.0112115
4 *721:13 0.0106426
5 *721:11 0.0448367
6 *721:9 0.0448367
7 *721:7 0.0393862
8 *721:5 0.0394101
9 *73:24 *721:11 0
10 *77:71 *721:7 0
11 *78:81 *721:7 0.00141673
12 *113:19 *721:11 0.24455
13 *646:17 *740:mem_wdata[3] 0.000123544
14 *653:21 *721:15 0.00165778
15 *665:21 *721:11 0.000270897
16 *669:11 *721:11 0.0281872
17 *669:17 *721:11 0.00109557
18 *671:15 *721:15 0.000264925
19 *673:11 *721:15 0.0602236
20 *682:11 *721:15 2.23932e-05
21 *686:11 *721:11 0.195461
22 *715:23 *721:15 0.0611496
23 *720:23 *721:15 0.00206327
*RES
1 *739:mem_wdata_o[3] *721:5 0.0914667 
2 *721:5 *721:7 127.267 
3 *721:7 *721:9 8 
4 *721:9 *721:11 3104.64 
5 *721:11 *721:13 8 
6 *721:13 *721:15 114.86 
7 *721:15 *740:mem_wdata[3] 19.7243 
*END

*D_NET *722 0.252828
*CONN
*I *740:mem_wdata[4] I *D ntt_engine_256
*I *739:mem_wdata_o[4] O *D ntt_wb_bridge
*CAP
1 *740:mem_wdata[4] 0.000740537
2 *739:mem_wdata_o[4] 0.00190151
3 *722:19 0.0128966
4 *722:17 0.012156
5 *722:15 0.00966613
6 *722:13 0.0115676
7 *722:13 *723:7 0
8 *722:13 *725:9 0.000340946
9 *722:13 *731:11 0.00182914
10 *722:13 *737:11 0.000277518
11 *722:15 *727:11 0.0418001
12 *722:15 *731:11 0
13 *722:19 *727:15 0.000440166
14 *722:19 *735:35 0.0142944
15 *79:18 *722:13 0.000441607
16 *356:31 *722:15 0
17 *357:23 *722:19 0.000707856
18 *657:11 *722:13 0
19 *657:11 *722:15 0.0425999
20 *697:15 *722:19 0.0652653
21 *709:11 *722:15 5.03395e-05
22 *712:34 *722:19 0.0161132
23 *716:23 *722:19 0.0197391
*RES
1 *739:mem_wdata_o[4] *722:13 38.1429 
2 *722:13 *722:15 563.574 
3 *722:15 *722:17 8 
4 *722:17 *722:19 121.987 
5 *722:19 *740:mem_wdata[4] 22.5621 
*END

*D_NET *723 0.573689
*CONN
*I *740:mem_wdata[5] I *D ntt_engine_256
*I *739:mem_wdata_o[5] O *D ntt_wb_bridge
*CAP
1 *740:mem_wdata[5] 0.00115074
2 *739:mem_wdata_o[5] 2.30967e-05
3 *723:11 0.122295
4 *723:9 0.121144
5 *723:7 0.0385145
6 *723:5 0.0385376
7 *723:11 *738:11 0.0293204
8 *74:31 *723:11 0.0422834
9 *659:15 *723:11 0
10 *671:17 *723:11 0.00561338
11 *674:13 *723:11 0.161468
12 *694:11 *723:11 0.00772561
13 *720:11 *723:11 0.00561338
14 *722:13 *723:7 0
*RES
1 *739:mem_wdata_o[5] *723:5 0.0914667 
2 *723:5 *723:7 125.765 
3 *723:7 *723:9 8 
4 *723:9 *723:11 535.461 
5 *723:11 *740:mem_wdata[5] 10.7235 
*END

*D_NET *724 0.205605
*CONN
*I *740:mem_wdata[6] I *D ntt_engine_256
*I *739:mem_wdata_o[6] O *D ntt_wb_bridge
*CAP
1 *740:mem_wdata[6] 0.000926407
2 *739:mem_wdata_o[6] 0.00542678
3 *724:23 0.0268333
4 *724:21 0.0322845
5 *724:15 0.0388839
6 *724:13 0.0379331
7 *724:13 *733:11 0
8 *724:15 *730:17 2.2447e-05
9 *724:21 *730:11 0.00020783
10 *740:mem_wdata[16] *724:23 0.00734548
11 *77:83 *724:15 0.000222486
12 *114:37 *724:23 0.00109381
13 *354:27 *724:13 0.000502477
14 *375:19 *724:13 0.000584873
15 *378:27 *724:13 0.000670717
16 *646:23 *724:23 0.0027639
17 *654:11 *724:21 0
18 *654:11 *724:23 0.00550404
19 *672:6 *740:mem_wdata[6] 0.000441607
20 *682:23 *724:23 0.00160747
21 *685:41 *724:23 0.00771891
22 *698:9 *724:15 0.0136887
23 *708:19 *724:23 0.0144901
24 *714:19 *724:23 0.00645242
*RES
1 *739:mem_wdata_o[6] *724:13 31.3309 
2 *724:13 *724:15 117.178 
3 *724:15 *724:21 25.6101 
4 *724:21 *724:23 116.01 
5 *724:23 *740:mem_wdata[6] 9.98427 
*END

*D_NET *725 0.530957
*CONN
*I *740:mem_wdata[7] I *D ntt_engine_256
*I *739:mem_wdata_o[7] O *D ntt_wb_bridge
*CAP
1 *740:mem_wdata[7] 0.000720723
2 *739:mem_wdata_o[7] 0.00111522
3 *725:27 0.0275587
4 *725:25 0.026838
5 *725:23 0.0567974
6 *725:21 0.0569835
7 *725:15 0.00406814
8 *725:13 0.00388205
9 *725:11 0.00727583
10 *725:9 0.00839104
11 *725:11 *726:11 0.0413684
12 *725:11 *735:11 0
13 *725:11 *737:11 0.0017933
14 *725:15 *729:15 0.00745533
15 *725:15 *737:23 0.0246857
16 *725:23 *726:23 0.0724433
17 *725:23 *728:23 0
18 *81:19 *725:27 0.0105122
19 *94:21 *725:27 4.10868e-05
20 *276:15 *725:15 6.67968e-05
21 *315:17 *725:23 0.00257021
22 *335:15 *725:23 0.0310515
23 *336:15 *725:23 0
24 *343:23 *725:23 0.00139286
25 *349:31 *725:23 0.000221343
26 *360:27 *725:15 0.0114423
27 *364:15 *725:23 0.0224322
28 *374:15 *725:23 0
29 *376:15 *725:15 0.00517816
30 *376:15 *725:23 0.000183076
31 *379:15 *725:23 0.00284028
32 *656:23 *725:23 0
33 *689:27 *725:11 0.00364246
34 *701:11 *725:11 7.7975e-05
35 *701:15 *725:23 0.00371156
36 *701:27 *725:27 0.000427014
37 *711:15 *725:23 0.000974226
38 *716:27 *725:27 0.0502932
39 *718:11 *725:11 0.0421814
40 *722:13 *725:9 0.000340946
*RES
1 *739:mem_wdata_o[7] *725:9 10.6768 
2 *725:9 *725:11 540.508 
3 *725:11 *725:13 15 
4 *725:13 *725:15 265.992 
5 *725:15 *725:21 26.4904 
6 *725:21 *725:23 279.681 
7 *725:23 *725:25 8 
8 *725:25 *725:27 122.674 
9 *725:27 *740:mem_wdata[7] 9.34213 
*END

*D_NET *726 0.610249
*CONN
*I *740:mem_wdata[8] I *D ntt_engine_256
*I *739:mem_wdata_o[8] O *D ntt_wb_bridge
*CAP
1 *740:mem_wdata[8] 0.00155641
2 *739:mem_wdata_o[8] 0.00109366
3 *726:35 0.0149756
4 *726:33 0.0134812
5 *726:27 0.0126655
6 *726:25 0.0126035
7 *726:23 0.0149737
8 *726:21 0.0153438
9 *726:15 0.0300916
10 *726:13 0.0297214
11 *726:11 0.00708671
12 *726:9 0.00818038
13 *726:11 *735:11 0.00135671
14 *726:11 *737:11 0.00162883
15 *726:15 *737:23 0
16 *726:23 *729:23 0.0720064
17 *726:27 *737:35 0
18 *740:mem_wdata[14] *726:35 2.13985e-05
19 *94:21 *726:27 0.000592169
20 *118:27 *726:27 0
21 *273:15 *726:15 0.00142508
22 *280:15 *726:15 0.00399179
23 *296:15 *726:15 0.00147072
24 *300:15 *726:15 0.00541787
25 *315:17 *726:23 0.000161626
26 *326:15 *726:15 0
27 *339:15 *726:15 0.00398298
28 *340:29 *726:15 0.000989361
29 *342:33 *726:21 0
30 *345:27 *726:15 0.0143327
31 *347:23 *726:15 0.000566822
32 *349:23 *726:15 0.00117749
33 *351:15 *726:15 0.000337968
34 *351:23 *726:15 0.0228299
35 *352:7 *726:15 0.00395147
36 *360:19 *726:15 0.000174478
37 *361:15 *726:15 0.0229142
38 *362:15 *726:15 1.40958e-05
39 *368:15 *726:15 0.000210625
40 *368:19 *726:15 0.00539744
41 *391:15 *726:15 0.00116356
42 *398:15 *726:15 0.00419727
43 *688:11 *740:mem_wdata[8] 0.00222589
44 *688:11 *726:27 0.000315221
45 *688:11 *726:35 0.026027
46 *688:21 *726:27 0.00304872
47 *689:11 *740:mem_wdata[8] 6.5751e-05
48 *689:17 *740:mem_wdata[8] 0.000131991
49 *689:27 *726:11 0.00317627
50 *701:11 *726:11 0.0374533
51 *701:27 *726:27 0.005844
52 *706:27 *726:27 0.0350392
53 *706:27 *726:35 0.0034925
54 *706:35 *740:mem_wdata[8] 0.00114619
55 *706:35 *726:35 0.0311589
56 *716:27 *726:35 0.00893269
57 *717:19 *726:35 0.00629269
58 *725:11 *726:11 0.0413684
59 *725:23 *726:23 0.0724433
*RES
1 *739:mem_wdata_o[8] *726:9 10.6357 
2 *726:9 *726:11 529.592 
3 *726:11 *726:13 15 
4 *726:13 *726:15 1052.58 
5 *726:15 *726:21 28.9554 
6 *726:21 *726:23 138.559 
7 *726:23 *726:25 8 
8 *726:25 *726:27 465.678 
9 *726:27 *726:33 16.0989 
10 *726:33 *726:35 112.06 
11 *726:35 *740:mem_wdata[8] 15.2147 
*END

*D_NET *727 0.405908
*CONN
*I *740:mem_wdata[9] I *D ntt_engine_256
*I *739:mem_wdata_o[9] O *D ntt_wb_bridge
*CAP
1 *740:mem_wdata[9] 0.00166324
2 *739:mem_wdata_o[9] 0.000852019
3 *727:15 0.0246054
4 *727:13 0.0229422
5 *727:11 0.0104287
6 *727:9 0.0112807
7 *740:mem_wdata[9] *734:31 2.81221e-05
8 *727:11 *731:11 0
9 io_oeb[1] *727:9 0.000142978
10 *357:23 *727:15 3.4915e-06
11 *649:11 *727:15 0.000169223
12 *697:15 *727:15 0.105381
13 *706:23 *740:mem_wdata[9] 0.00424256
14 *706:23 *727:15 0.0139422
15 *709:11 *727:11 0.0339457
16 *719:13 *740:mem_wdata[9] 0.00223932
17 *719:13 *727:15 0.131801
18 *722:15 *727:11 0.0418001
19 *722:19 *727:15 0.000440166
*RES
1 *739:mem_wdata_o[9] *727:9 10.1989 
2 *727:9 *727:11 543.149 
3 *727:11 *727:13 8 
4 *727:13 *727:15 244.218 
5 *727:15 *740:mem_wdata[9] 30.7999 
*END

*D_NET *728 0.324552
*CONN
*I *740:mem_we I *D ntt_engine_256
*I *739:mem_we_o O *D ntt_wb_bridge
*CAP
1 *740:mem_we 0.00256966
2 *739:mem_we_o 0.000611485
3 *728:23 0.0193867
4 *728:21 0.0169504
5 *728:15 0.00506887
6 *728:13 0.00493547
7 *728:11 0.0127868
8 *728:9 0.0133983
9 *728:11 *729:11 0.055534
10 *740:mem_wdata[25] *728:21 1.97071e-05
11 *335:15 *740:mem_we 7.59073e-05
12 *335:15 *728:23 0
13 *342:27 *740:mem_we 0.000321688
14 *343:23 *740:mem_we 0.000382259
15 *352:19 *728:11 9.47938e-05
16 *378:15 *728:15 0.00535835
17 *378:23 *728:15 0.000149509
18 *384:21 *728:15 0.0250177
19 *656:11 *728:11 0.0493137
20 *656:15 *740:mem_we 0.000594411
21 *656:15 *728:15 0.000196012
22 *656:15 *728:23 0.00611512
23 *668:11 *740:mem_we 0.00149656
24 *668:11 *728:23 0.0573789
25 *678:19 *728:15 0.0324357
26 *683:23 *728:15 0.00338478
27 *701:21 *740:mem_we 6.10602e-05
28 *701:23 *740:mem_we 7.47186e-05
29 *711:15 *728:23 0.0108397
30 *725:23 *728:23 0
*RES
1 *739:mem_we_o *728:9 9.34773 
2 *728:9 *728:11 724.679 
3 *728:11 *728:13 15 
4 *728:13 *728:15 366.519 
5 *728:15 *728:21 25.4339 
6 *728:21 *728:23 105.715 
7 *728:23 *740:mem_we 43.5762 
*END

*D_NET *729 0.615079
*CONN
*I *740:op[0] I *D ntt_engine_256
*I *739:op_o[0] O *D ntt_wb_bridge
*CAP
1 *740:op[0] 0.00158946
2 *739:op_o[0] 0.000692394
3 *729:35 0.0261087
4 *729:33 0.0246579
5 *729:27 0.0057419
6 *729:25 0.00560324
7 *729:23 0.0151647
8 *729:21 0.0152293
9 *729:15 0.0346141
10 *729:13 0.0345494
11 *729:11 0.0138704
12 *729:9 0.0145628
13 *729:9 *730:7 0
14 *729:15 *737:23 0.0267471
15 *729:21 *737:29 2.38465e-05
16 *729:23 *737:31 0.0717337
17 *729:27 *736:26 0.00910319
18 *729:35 *736:34 1.78744e-05
19 *77:39 *729:9 2.55744e-05
20 *79:18 *729:9 0.000441607
21 *115:35 *729:9 0.000150895
22 *118:27 *729:27 0
23 *120:29 *729:27 0
24 *143:19 *729:11 0
25 *315:17 *729:15 0.002179
26 *315:17 *729:23 2.60109e-05
27 *336:15 *729:15 0.00132811
28 *350:27 *729:15 0
29 *352:19 *729:11 0.000424916
30 *359:41 *729:9 0.000345385
31 *360:27 *729:15 0.0108067
32 *361:23 *729:15 0
33 *363:11 *729:11 0.0608264
34 *376:15 *729:15 0.000222116
35 *379:15 *729:15 0.00799083
36 *656:23 *729:23 0
37 *656:27 *729:27 0
38 *664:15 *729:27 0.00355728
39 *664:15 *729:35 0.0244343
40 *691:17 *740:op[0] 1.46825e-05
41 *691:19 *729:27 2.04774e-05
42 *701:15 *729:15 0
43 *709:19 *729:27 0.000259286
44 *709:27 *729:35 0.0164203
45 *718:19 *729:27 0.0172056
46 *718:27 *729:35 0.0333941
47 *725:15 *729:15 0.00745533
48 *726:23 *729:23 0.0720064
49 *728:11 *729:11 0.055534
*RES
1 *739:op_o[0] *729:9 9.7696 
2 *729:9 *729:11 801.094 
3 *729:11 *729:13 15 
4 *729:13 *729:15 1052.58 
5 *729:15 *729:21 24.3775 
6 *729:21 *729:23 138.473 
7 *729:23 *729:25 8 
8 *729:25 *729:27 251.575 
9 *729:27 *729:33 16.2707 
10 *729:33 *729:35 136.636 
11 *729:35 *740:op[0] 11.4029 
*END

*D_NET *730 0.458725
*CONN
*I *740:op[1] I *D ntt_engine_256
*I *739:op_o[1] O *D ntt_wb_bridge
*CAP
1 *740:op[1] 0.000685621
2 *739:op_o[1] 4.55871e-05
3 *730:19 0.037045
4 *730:17 0.0365585
5 *730:11 0.0159334
6 *730:9 0.0157343
7 *730:7 0.0252164
8 *730:5 0.025262
9 *730:19 *738:19 0.00739426
10 io_out[0] *730:7 0.0669169
11 *77:39 *730:7 0
12 *78:129 *730:19 0
13 *114:25 *730:11 0
14 *652:11 *730:11 0
15 *654:11 *730:11 0.00127362
16 *658:27 *730:19 0.0336313
17 *682:15 *730:19 0.000139434
18 *685:25 *730:19 0.0673206
19 *700:19 *730:19 0.00409447
20 *708:27 *730:19 0.110096
21 *714:19 *730:19 0.0111471
22 *724:15 *730:17 2.2447e-05
23 *724:21 *730:11 0.00020783
24 *729:9 *730:7 0
*RES
1 *739:op_o[1] *730:5 0.0914667 
2 *730:5 *730:7 124.391 
3 *730:7 *730:9 8 
4 *730:9 *730:11 52.4795 
5 *730:11 *730:17 16.4424 
6 *730:17 *730:19 1937.64 
7 *730:19 *740:op[1] 9.736 
*END

*D_NET *731 0.218824
*CONN
*I *740:op[2] I *D ntt_engine_256
*I *739:op_o[2] O *D ntt_wb_bridge
*CAP
1 *740:op[2] 0.000898001
2 *739:op_o[2] 0.00107752
3 *731:43 0.00794925
4 *731:41 0.011637
5 *731:23 0.00806559
6 *731:21 0.00368743
7 *731:15 0.00158911
8 *731:11 0.0232658
9 *731:9 0.0229617
10 *731:9 *732:7 0
11 *731:11 *735:11 0
12 *731:11 *737:11 0.0105043
13 *79:18 *731:9 0.000441607
14 *115:35 *731:9 0.000150895
15 *143:19 *731:11 0
16 *298:21 *731:41 0.000261186
17 *359:41 *731:9 0.000345385
18 *364:19 *731:11 0
19 *380:11 *731:41 7.66827e-05
20 *393:21 *731:41 0.000208542
21 *395:21 *731:41 1.13013e-05
22 *649:11 *731:43 0.043566
23 *657:11 *731:11 0
24 *709:11 *731:11 0
25 *718:11 *731:11 0.0367355
26 *719:13 *731:43 0.0435625
27 *722:13 *731:11 0.00182914
28 *722:15 *731:11 0
29 *727:11 *731:11 0
*RES
1 *739:op_o[2] *731:9 10.8859 
2 *731:9 *731:11 668.688 
3 *731:11 *731:15 38.9664 
4 *731:15 *731:21 19.5882 
5 *731:21 *731:23 78.7557 
6 *731:23 *731:41 47.3142 
7 *731:41 *731:43 80.2984 
8 *731:43 *740:op[2] 25.3793 
*END

*D_NET *732 0.715444
*CONN
*I *740:slot_a[0] I *D ntt_engine_256
*I *739:slot_a_o[0] O *D ntt_wb_bridge
*CAP
1 *740:slot_a[0] 0.000458132
2 *739:slot_a_o[0] 3.47106e-05
3 *732:27 0.00814774
4 *732:25 0.0088756
5 *732:15 0.0023511
6 *732:13 0.00119232
7 *732:11 0.0453466
8 *732:9 0.0453194
9 *732:7 0.0391735
10 *732:5 0.0392082
11 *732:11 *738:11 0.00612517
12 *740:mem_slot[1] *732:25 2.33476e-05
13 *74:31 *732:11 0.253492
14 *74:31 *732:15 0.00354438
15 *77:47 *732:7 0.000510127
16 *78:37 *732:7 0
17 *78:173 *732:25 0
18 *141:17 *732:11 0
19 *646:19 *732:27 0.0468669
20 *648:15 *732:27 0.0373483
21 *663:11 *732:27 0.00426681
22 *663:23 *732:25 3.4154e-05
23 *671:15 *732:25 7.169e-05
24 *671:15 *732:27 0.00418492
25 *674:13 *732:11 0.03018
26 *679:11 *732:25 0.000243725
27 *694:11 *732:11 0.128743
28 *694:11 *732:15 0.00677107
29 *714:31 *732:27 0
30 *715:23 *732:27 0.00188259
31 *720:21 *732:25 0.00104741
32 *731:9 *732:7 0
*RES
1 *739:slot_a_o[0] *732:5 0.0914667 
2 *732:5 *732:7 125.808 
3 *732:7 *732:9 8 
4 *732:9 *732:11 3218.85 
5 *732:11 *732:13 0.621429 
6 *732:13 *732:15 85.9436 
7 *732:15 *732:25 35.5334 
8 *732:25 *732:27 511.829 
9 *732:27 *740:slot_a[0] 24.1039 
*END

*D_NET *733 0.918042
*CONN
*I *740:slot_a[1] I *D ntt_engine_256
*I *739:slot_a_o[1] O *D ntt_wb_bridge
*CAP
1 *740:slot_a[1] 0.000526405
2 *739:slot_a_o[1] 0.00232063
3 *733:57 0.00586546
4 *733:53 0.00554359
5 *733:47 0.00133808
6 *733:43 0.0293795
7 *733:41 0.028246
8 *733:39 0.0869723
9 *733:37 0.0873096
10 *733:33 0.010615
11 *733:11 0.0476472
12 *733:9 0.0396902
13 *733:33 *734:19 0.000841708
14 *733:43 *737:43 0.00706594
15 la_data_out[82] *733:11 0.0056338
16 la_data_out[82] *733:33 0.00154541
17 *81:19 *733:43 0.197001
18 *105:19 *733:11 0.00402911
19 *105:19 *733:33 0.000448077
20 *354:25 *733:33 2.03202e-05
21 *357:23 *733:39 0.00348752
22 *361:27 *733:11 0.00992524
23 *361:27 *733:33 0.00131295
24 *368:23 *733:11 0.00866888
25 *368:23 *733:33 0.00118078
26 *376:19 *733:11 0.00493624
27 *376:19 *733:33 0.000940287
28 *379:19 *733:11 0.00564579
29 *379:19 *733:33 0.000995487
30 *382:17 *733:33 0.000399322
31 *383:37 *733:33 0.000399322
32 *540:17 *733:47 0.000761135
33 *662:15 *733:57 0.00685454
34 *675:31 *733:33 0.000714697
35 *677:27 *733:33 0.000448077
36 *690:19 *733:11 0
37 *690:19 *733:33 0
38 *695:45 *733:57 0.00111742
39 *704:35 *733:43 0.19701
40 *708:11 *733:11 0
41 *710:39 *733:57 0.0196368
42 *712:26 *733:39 0
43 *712:34 *733:39 0.0685894
44 *716:27 *733:43 0.012303
45 *717:27 *733:43 0.0106766
46 *724:13 *733:11 0
*RES
1 *739:slot_a_o[1] *733:9 13.9864 
2 *733:9 *733:11 114.961 
3 *733:11 *733:33 44.3677 
4 *733:33 *733:37 21.6596 
5 *733:37 *733:39 1837.73 
6 *733:39 *733:41 15 
7 *733:41 *733:43 2501.77 
8 *733:43 *733:47 37.0607 
9 *733:47 *733:53 26.4904 
10 *733:53 *733:57 44.2059 
11 *733:57 *740:slot_a[1] 10.5643 
*END

*D_NET *734 1.0995
*CONN
*I *740:slot_b[0] I *D ntt_engine_256
*I *739:slot_b_o[0] O *D ntt_wb_bridge
*CAP
1 *740:slot_b[0] 0.000420297
2 *739:slot_b_o[0] 0.00232422
3 *734:43 0.0119677
4 *734:41 0.0127825
5 *734:35 0.0364211
6 *734:33 0.035186
7 *734:31 0.00916857
8 *734:29 0.00936949
9 *734:23 0.0220554
10 *734:21 0.0218545
11 *734:19 0.0129985
12 *734:17 0.0129985
13 *734:15 0.00232422
14 *740:mem_wdata[9] *734:31 2.81221e-05
15 *82:25 *734:35 0
16 *105:19 *734:19 0.017175
17 *360:31 *734:15 2.11066e-05
18 *361:27 *734:19 0
19 *364:19 *734:15 6.10551e-06
20 *376:19 *734:19 0.0596335
21 *379:19 *734:19 2.31765e-05
22 *540:17 *734:41 5.02254e-05
23 *540:17 *734:43 0.0585128
24 *647:11 *734:23 0.0171856
25 *662:19 *734:35 2.47636e-05
26 *675:13 *734:41 0.000788734
27 *675:15 *734:35 0.19499
28 *675:25 *734:31 0
29 *675:31 *734:19 0.0111142
30 *677:27 *734:19 2.60152e-05
31 *695:23 *734:23 0.130443
32 *695:31 *734:31 0.0113187
33 *695:35 *734:35 0.195042
34 *695:45 *734:41 0.000593627
35 *704:31 *734:23 0.00320911
36 *704:31 *734:31 0.00551972
37 *704:45 *734:41 0.0030906
38 *704:47 *734:43 0.0486322
39 *706:23 *734:31 0.0164168
40 *710:23 *734:23 0.101627
41 *710:39 *734:41 0.00302868
42 *710:39 *734:43 1.49526e-05
43 *719:13 *734:31 0.0302694
44 *733:33 *734:19 0.000841708
*RES
1 *739:slot_b_o[0] *734:15 43.5085 
2 *734:15 *734:17 15 
3 *734:17 *734:19 779.789 
4 *734:19 *734:21 15 
5 *734:21 *734:23 1424.67 
6 *734:23 *734:29 26.4904 
7 *734:29 *734:31 77.7653 
8 *734:31 *734:33 8 
9 *734:33 *734:35 2506.7 
10 *734:35 *734:41 17.1672 
11 *734:41 *734:43 107.947 
12 *734:43 *740:slot_b[0] 17.3214 
*END

*D_NET *735 0.133796
*CONN
*I *740:slot_b[1] I *D ntt_engine_256
*I *739:slot_b_o[1] O *D ntt_wb_bridge
*CAP
1 *740:slot_b[1] 0.000636307
2 *739:slot_b_o[1] 0.00117973
3 *735:35 0.00350981
4 *735:29 0.016507
5 *735:27 0.0140953
6 *735:19 0.00157304
7 *735:11 0.0160986
8 *735:9 0.0161672
9 *735:11 *737:11 0.00216298
10 *735:27 *736:16 0
11 *735:29 *736:16 0
12 *735:29 *736:18 0
13 *79:18 *735:9 0.000364411
14 *357:23 *735:35 0.00766084
15 *359:27 *735:29 0.0262593
16 *359:39 *735:27 9.14883e-05
17 *359:41 *735:9 0.000142505
18 *364:19 *735:11 0
19 *701:11 *735:11 0.00172379
20 *706:11 *735:11 0.00790448
21 *713:11 *735:19 0.00035625
22 *716:11 *735:11 0.00171164
23 *718:11 *735:11 0
24 *719:9 *735:19 0
25 *720:7 *735:27 5.31315e-07
26 *722:19 *735:35 0.0142944
27 *725:11 *735:11 0
28 *726:11 *735:11 0.00135671
29 *731:11 *735:11 0
*RES
1 *739:slot_b_o[1] *735:9 11.2741 
2 *735:9 *735:11 410.568 
3 *735:11 *735:19 49.4611 
4 *735:19 *735:27 17.4429 
5 *735:27 *735:29 64.792 
6 *735:29 *735:35 42.3741 
7 *735:35 *740:slot_b[1] 12.4286 
*END

*D_NET *736 0.599652
*CONN
*I *740:slot_c[0] I *D ntt_engine_256
*I *739:slot_c_o[0] O *D ntt_wb_bridge
*CAP
1 *740:slot_c[0] 0.00149498
2 *739:slot_c_o[0] 0
3 *736:34 0.012611
4 *736:32 0.0112856
5 *736:26 0.00339125
6 *736:24 0.00322167
7 *736:22 0.063524
8 *736:20 0.063524
9 *736:18 0.0138572
10 *736:16 0.0148388
11 *736:6 0.0172639
12 *736:4 0.0162823
13 *79:18 *736:6 0.00534762
14 *79:24 *736:6 0
15 *120:29 *736:26 0
16 *359:27 *736:16 0
17 *359:39 *736:16 0.000315355
18 *359:41 *736:6 0.00103315
19 *664:15 *736:26 0.00187344
20 *664:15 *736:34 0.032689
21 *677:11 *736:34 0.0494688
22 *689:23 *736:22 0.176225
23 *691:19 *736:34 0.00924465
24 *693:9 *736:6 0.000364411
25 *693:11 *736:6 0.00988317
26 *693:11 *736:18 0.0101585
27 *696:9 *736:6 0.000227734
28 *696:11 *736:6 0.00240826
29 *696:11 *736:18 0.00442026
30 *697:11 *736:18 0.00020639
31 *702:12 *736:6 0.00991224
32 *702:12 *736:16 0.00117676
33 *702:12 *736:18 0.000507321
34 *702:14 *736:18 0.0256839
35 *709:15 *736:22 0.000347622
36 *709:19 *736:34 0.0105932
37 *709:25 *740:slot_c[0] 4.59167e-06
38 *711:11 *736:16 0.00020711
39 *711:11 *736:18 0.000187461
40 *718:15 *736:22 0
41 *718:27 *736:34 0.0167507
42 *729:27 *736:26 0.00910319
43 *729:35 *736:34 1.78744e-05
44 *735:27 *736:16 0
45 *735:29 *736:16 0
46 *735:29 *736:18 0
*RES
1 *739:slot_c_o[0] *736:4 8 
2 *736:4 *736:6 72.4715 
3 *736:6 *736:16 19.5205 
4 *736:16 *736:18 64.6651 
5 *736:18 *736:20 8 
6 *736:20 *736:22 326.736 
7 *736:22 *736:24 8 
8 *736:24 *736:26 115.648 
9 *736:26 *736:32 16.2707 
10 *736:32 *736:34 116.708 
11 *736:34 *740:slot_c[0] 11.0595 
*END

*D_NET *737 0.793285
*CONN
*I *740:slot_c[1] I *D ntt_engine_256
*I *739:slot_c_o[1] O *D ntt_wb_bridge
*CAP
1 *740:slot_c[1] 0.000720723
2 *739:slot_c_o[1] 0.00103511
3 *737:43 0.0425456
4 *737:41 0.0419826
5 *737:35 0.0193511
6 *737:33 0.0191934
7 *737:31 0.0273136
8 *737:29 0.0273997
9 *737:23 0.029949
10 *737:21 0.0300128
11 *737:11 0.0391467
12 *737:9 0.040032
13 *740:mem_wdata[14] *737:35 0.000410633
14 *79:18 *737:9 0.000364411
15 *81:19 *737:35 0.000456788
16 *81:19 *737:43 0.0141897
17 *101:19 *737:11 0
18 *273:15 *737:23 0.000139117
19 *274:15 *737:23 0.0007887
20 *276:15 *737:23 0.0213867
21 *315:17 *737:23 0.00427328
22 *315:17 *737:31 0.00023453
23 *336:15 *737:31 3.47247e-05
24 *339:25 *737:31 1.04745e-05
25 *345:35 *737:23 0.00215598
26 *346:27 *737:23 0.00108735
27 *351:23 *737:23 0
28 *359:41 *737:9 0.000142505
29 *364:15 *737:21 7.51535e-06
30 *374:15 *737:23 0.00740717
31 *379:15 *737:21 4.62843e-05
32 *650:13 *737:9 0
33 *688:9 *737:41 2.83426e-05
34 *689:11 *737:43 0.00319047
35 *689:19 *737:35 0.085741
36 *689:27 *737:11 0.020194
37 *691:11 *737:43 0
38 *701:11 *737:11 0.000941676
39 *704:35 *737:35 0.103359
40 *704:35 *737:43 0.00616887
41 *706:11 *737:11 0.000789168
42 *706:27 *737:35 0.000165877
43 *706:35 *737:35 0.0122195
44 *709:11 *737:21 0
45 *716:11 *737:11 0.000316039
46 *716:27 *737:35 0.0100214
47 *717:27 *737:43 0.0250859
48 *718:11 *737:11 0.00657445
49 *718:11 *737:21 4.80121e-05
50 *722:13 *737:11 0.000277518
51 *725:11 *737:11 0.0017933
52 *725:15 *737:23 0.0246857
53 *726:11 *737:11 0.00162883
54 *726:15 *737:23 0
55 *726:27 *737:35 0
56 *729:15 *737:23 0.0267471
57 *729:21 *737:29 2.38465e-05
58 *729:23 *737:31 0.0717337
59 *731:11 *737:11 0.0105043
60 *733:43 *737:43 0.00706594
61 *735:11 *737:11 0.00216298
*RES
1 *739:slot_c_o[1] *737:9 10.716 
2 *737:9 *737:11 132.447 
3 *737:11 *737:21 32.8286 
4 *737:21 *737:23 1059.25 
5 *737:23 *737:29 24.7296 
6 *737:29 *737:31 136.67 
7 *737:31 *737:33 8 
8 *737:33 *737:35 1331.95 
9 *737:35 *737:41 16.2707 
10 *737:41 *737:43 157.199 
11 *737:43 *740:slot_c[1] 9.34213 
*END

*D_NET *738 0.409694
*CONN
*I *740:start I *D ntt_engine_256
*I *739:start_o O *D ntt_wb_bridge
*CAP
1 *740:start 0.00119274
2 *739:start_o 4.48498e-05
3 *738:19 0.027267
4 *738:17 0.026398
5 *738:11 0.0346587
6 *738:9 0.034335
7 *738:7 0.0380477
8 *738:5 0.0380926
9 *74:31 *738:11 0.0163639
10 *78:129 *738:19 0
11 *115:219 *738:19 0.0167081
12 *659:15 *738:11 0
13 *669:19 *738:17 4.11726e-05
14 *682:31 *738:19 0.00707863
15 *690:11 *738:19 0.0335414
16 *705:23 *738:19 0.000252752
17 *708:27 *738:19 0.0928316
18 *723:11 *738:11 0.0293204
19 *730:19 *738:19 0.00739426
20 *732:11 *738:11 0.00612517
*RES
1 *739:start_o *738:5 0.0914667 
2 *738:5 *738:7 125.593 
3 *738:7 *738:9 8 
4 *738:9 *738:11 116.454 
5 *738:11 *738:17 16.7 
6 *738:17 *738:19 1386.18 
7 *738:19 *740:start 10.5424 
*END
