*SPEF "ieee 1481-1999"
*DESIGN "user_project_wrapper"
*DATE "11:11:11 Fri 11 11, 1111"
*VENDOR "OpenRCX"
*PROGRAM "Parallel Extraction"
*VERSION "1.0"
*DESIGN_FLOW "NAME_SCOPE LOCAL" "PIN_CAP NONE"
*DIVIDER /
*DELIMITER :
*BUS_DELIMITER []
*T_UNIT 1 NS
*C_UNIT 1 PF
*R_UNIT 1 OHM
*L_UNIT 1 HENRY

*NAME_MAP
*1 analog_io[0]
*2 analog_io[10]
*3 analog_io[11]
*4 analog_io[12]
*5 analog_io[13]
*6 analog_io[14]
*7 analog_io[15]
*8 analog_io[16]
*9 analog_io[17]
*10 analog_io[18]
*11 analog_io[19]
*12 analog_io[1]
*13 analog_io[20]
*14 analog_io[21]
*15 analog_io[22]
*16 analog_io[23]
*17 analog_io[24]
*18 analog_io[25]
*19 analog_io[26]
*20 analog_io[27]
*21 analog_io[28]
*22 analog_io[2]
*23 analog_io[3]
*24 analog_io[4]
*25 analog_io[5]
*26 analog_io[6]
*27 analog_io[7]
*28 analog_io[8]
*29 analog_io[9]
*30 io_in[0]
*31 io_in[10]
*32 io_in[11]
*33 io_in[12]
*34 io_in[13]
*35 io_in[14]
*36 io_in[15]
*37 io_in[16]
*38 io_in[17]
*39 io_in[18]
*40 io_in[19]
*41 io_in[1]
*42 io_in[20]
*43 io_in[21]
*44 io_in[22]
*45 io_in[23]
*46 io_in[24]
*47 io_in[25]
*48 io_in[26]
*49 io_in[27]
*50 io_in[28]
*51 io_in[29]
*52 io_in[2]
*53 io_in[30]
*54 io_in[31]
*55 io_in[32]
*56 io_in[33]
*57 io_in[34]
*58 io_in[35]
*59 io_in[36]
*60 io_in[37]
*61 io_in[3]
*62 io_in[4]
*63 io_in[5]
*64 io_in[6]
*65 io_in[7]
*66 io_in[8]
*67 io_in[9]
*68 io_oeb[0]
*69 io_oeb[10]
*70 io_oeb[11]
*71 io_oeb[12]
*72 io_oeb[13]
*73 io_oeb[14]
*74 io_oeb[15]
*75 io_oeb[16]
*76 io_oeb[17]
*77 io_oeb[18]
*78 io_oeb[19]
*79 io_oeb[1]
*80 io_oeb[20]
*81 io_oeb[21]
*82 io_oeb[22]
*83 io_oeb[23]
*84 io_oeb[24]
*85 io_oeb[25]
*86 io_oeb[26]
*87 io_oeb[27]
*88 io_oeb[28]
*89 io_oeb[29]
*90 io_oeb[2]
*91 io_oeb[30]
*92 io_oeb[31]
*93 io_oeb[32]
*94 io_oeb[33]
*95 io_oeb[34]
*96 io_oeb[35]
*97 io_oeb[36]
*98 io_oeb[37]
*99 io_oeb[3]
*100 io_oeb[4]
*101 io_oeb[5]
*102 io_oeb[6]
*103 io_oeb[7]
*104 io_oeb[8]
*105 io_oeb[9]
*106 io_out[0]
*107 io_out[10]
*108 io_out[11]
*109 io_out[12]
*110 io_out[13]
*111 io_out[14]
*112 io_out[15]
*113 io_out[16]
*114 io_out[17]
*115 io_out[18]
*116 io_out[19]
*117 io_out[1]
*118 io_out[20]
*119 io_out[21]
*120 io_out[22]
*121 io_out[23]
*122 io_out[24]
*123 io_out[25]
*124 io_out[26]
*125 io_out[27]
*126 io_out[28]
*127 io_out[29]
*128 io_out[2]
*129 io_out[30]
*130 io_out[31]
*131 io_out[32]
*132 io_out[33]
*133 io_out[34]
*134 io_out[35]
*135 io_out[36]
*136 io_out[37]
*137 io_out[3]
*138 io_out[4]
*139 io_out[5]
*140 io_out[6]
*141 io_out[7]
*142 io_out[8]
*143 io_out[9]
*144 la_data_in[0]
*145 la_data_in[100]
*146 la_data_in[101]
*147 la_data_in[102]
*148 la_data_in[103]
*149 la_data_in[104]
*150 la_data_in[105]
*151 la_data_in[106]
*152 la_data_in[107]
*153 la_data_in[108]
*154 la_data_in[109]
*155 la_data_in[10]
*156 la_data_in[110]
*157 la_data_in[111]
*158 la_data_in[112]
*159 la_data_in[113]
*160 la_data_in[114]
*161 la_data_in[115]
*162 la_data_in[116]
*163 la_data_in[117]
*164 la_data_in[118]
*165 la_data_in[119]
*166 la_data_in[11]
*167 la_data_in[120]
*168 la_data_in[121]
*169 la_data_in[122]
*170 la_data_in[123]
*171 la_data_in[124]
*172 la_data_in[125]
*173 la_data_in[126]
*174 la_data_in[127]
*175 la_data_in[12]
*176 la_data_in[13]
*177 la_data_in[14]
*178 la_data_in[15]
*179 la_data_in[16]
*180 la_data_in[17]
*181 la_data_in[18]
*182 la_data_in[19]
*183 la_data_in[1]
*184 la_data_in[20]
*185 la_data_in[21]
*186 la_data_in[22]
*187 la_data_in[23]
*188 la_data_in[24]
*189 la_data_in[25]
*190 la_data_in[26]
*191 la_data_in[27]
*192 la_data_in[28]
*193 la_data_in[29]
*194 la_data_in[2]
*195 la_data_in[30]
*196 la_data_in[31]
*197 la_data_in[32]
*198 la_data_in[33]
*199 la_data_in[34]
*200 la_data_in[35]
*201 la_data_in[36]
*202 la_data_in[37]
*203 la_data_in[38]
*204 la_data_in[39]
*205 la_data_in[3]
*206 la_data_in[40]
*207 la_data_in[41]
*208 la_data_in[42]
*209 la_data_in[43]
*210 la_data_in[44]
*211 la_data_in[45]
*212 la_data_in[46]
*213 la_data_in[47]
*214 la_data_in[48]
*215 la_data_in[49]
*216 la_data_in[4]
*217 la_data_in[50]
*218 la_data_in[51]
*219 la_data_in[52]
*220 la_data_in[53]
*221 la_data_in[54]
*222 la_data_in[55]
*223 la_data_in[56]
*224 la_data_in[57]
*225 la_data_in[58]
*226 la_data_in[59]
*227 la_data_in[5]
*228 la_data_in[60]
*229 la_data_in[61]
*230 la_data_in[62]
*231 la_data_in[63]
*232 la_data_in[64]
*233 la_data_in[65]
*234 la_data_in[66]
*235 la_data_in[67]
*236 la_data_in[68]
*237 la_data_in[69]
*238 la_data_in[6]
*239 la_data_in[70]
*240 la_data_in[71]
*241 la_data_in[72]
*242 la_data_in[73]
*243 la_data_in[74]
*244 la_data_in[75]
*245 la_data_in[76]
*246 la_data_in[77]
*247 la_data_in[78]
*248 la_data_in[79]
*249 la_data_in[7]
*250 la_data_in[80]
*251 la_data_in[81]
*252 la_data_in[82]
*253 la_data_in[83]
*254 la_data_in[84]
*255 la_data_in[85]
*256 la_data_in[86]
*257 la_data_in[87]
*258 la_data_in[88]
*259 la_data_in[89]
*260 la_data_in[8]
*261 la_data_in[90]
*262 la_data_in[91]
*263 la_data_in[92]
*264 la_data_in[93]
*265 la_data_in[94]
*266 la_data_in[95]
*267 la_data_in[96]
*268 la_data_in[97]
*269 la_data_in[98]
*270 la_data_in[99]
*271 la_data_in[9]
*272 la_data_out[0]
*273 la_data_out[100]
*274 la_data_out[101]
*275 la_data_out[102]
*276 la_data_out[103]
*277 la_data_out[104]
*278 la_data_out[105]
*279 la_data_out[106]
*280 la_data_out[107]
*281 la_data_out[108]
*282 la_data_out[109]
*283 la_data_out[10]
*284 la_data_out[110]
*285 la_data_out[111]
*286 la_data_out[112]
*287 la_data_out[113]
*288 la_data_out[114]
*289 la_data_out[115]
*290 la_data_out[116]
*291 la_data_out[117]
*292 la_data_out[118]
*293 la_data_out[119]
*294 la_data_out[11]
*295 la_data_out[120]
*296 la_data_out[121]
*297 la_data_out[122]
*298 la_data_out[123]
*299 la_data_out[124]
*300 la_data_out[125]
*301 la_data_out[126]
*302 la_data_out[127]
*303 la_data_out[12]
*304 la_data_out[13]
*305 la_data_out[14]
*306 la_data_out[15]
*307 la_data_out[16]
*308 la_data_out[17]
*309 la_data_out[18]
*310 la_data_out[19]
*311 la_data_out[1]
*312 la_data_out[20]
*313 la_data_out[21]
*314 la_data_out[22]
*315 la_data_out[23]
*316 la_data_out[24]
*317 la_data_out[25]
*318 la_data_out[26]
*319 la_data_out[27]
*320 la_data_out[28]
*321 la_data_out[29]
*322 la_data_out[2]
*323 la_data_out[30]
*324 la_data_out[31]
*325 la_data_out[32]
*326 la_data_out[33]
*327 la_data_out[34]
*328 la_data_out[35]
*329 la_data_out[36]
*330 la_data_out[37]
*331 la_data_out[38]
*332 la_data_out[39]
*333 la_data_out[3]
*334 la_data_out[40]
*335 la_data_out[41]
*336 la_data_out[42]
*337 la_data_out[43]
*338 la_data_out[44]
*339 la_data_out[45]
*340 la_data_out[46]
*341 la_data_out[47]
*342 la_data_out[48]
*343 la_data_out[49]
*344 la_data_out[4]
*345 la_data_out[50]
*346 la_data_out[51]
*347 la_data_out[52]
*348 la_data_out[53]
*349 la_data_out[54]
*350 la_data_out[55]
*351 la_data_out[56]
*352 la_data_out[57]
*353 la_data_out[58]
*354 la_data_out[59]
*355 la_data_out[5]
*356 la_data_out[60]
*357 la_data_out[61]
*358 la_data_out[62]
*359 la_data_out[63]
*360 la_data_out[64]
*361 la_data_out[65]
*362 la_data_out[66]
*363 la_data_out[67]
*364 la_data_out[68]
*365 la_data_out[69]
*366 la_data_out[6]
*367 la_data_out[70]
*368 la_data_out[71]
*369 la_data_out[72]
*370 la_data_out[73]
*371 la_data_out[74]
*372 la_data_out[75]
*373 la_data_out[76]
*374 la_data_out[77]
*375 la_data_out[78]
*376 la_data_out[79]
*377 la_data_out[7]
*378 la_data_out[80]
*379 la_data_out[81]
*380 la_data_out[82]
*381 la_data_out[83]
*382 la_data_out[84]
*383 la_data_out[85]
*384 la_data_out[86]
*385 la_data_out[87]
*386 la_data_out[88]
*387 la_data_out[89]
*388 la_data_out[8]
*389 la_data_out[90]
*390 la_data_out[91]
*391 la_data_out[92]
*392 la_data_out[93]
*393 la_data_out[94]
*394 la_data_out[95]
*395 la_data_out[96]
*396 la_data_out[97]
*397 la_data_out[98]
*398 la_data_out[99]
*399 la_data_out[9]
*400 la_oenb[0]
*401 la_oenb[100]
*402 la_oenb[101]
*403 la_oenb[102]
*404 la_oenb[103]
*405 la_oenb[104]
*406 la_oenb[105]
*407 la_oenb[106]
*408 la_oenb[107]
*409 la_oenb[108]
*410 la_oenb[109]
*411 la_oenb[10]
*412 la_oenb[110]
*413 la_oenb[111]
*414 la_oenb[112]
*415 la_oenb[113]
*416 la_oenb[114]
*417 la_oenb[115]
*418 la_oenb[116]
*419 la_oenb[117]
*420 la_oenb[118]
*421 la_oenb[119]
*422 la_oenb[11]
*423 la_oenb[120]
*424 la_oenb[121]
*425 la_oenb[122]
*426 la_oenb[123]
*427 la_oenb[124]
*428 la_oenb[125]
*429 la_oenb[126]
*430 la_oenb[127]
*431 la_oenb[12]
*432 la_oenb[13]
*433 la_oenb[14]
*434 la_oenb[15]
*435 la_oenb[16]
*436 la_oenb[17]
*437 la_oenb[18]
*438 la_oenb[19]
*439 la_oenb[1]
*440 la_oenb[20]
*441 la_oenb[21]
*442 la_oenb[22]
*443 la_oenb[23]
*444 la_oenb[24]
*445 la_oenb[25]
*446 la_oenb[26]
*447 la_oenb[27]
*448 la_oenb[28]
*449 la_oenb[29]
*450 la_oenb[2]
*451 la_oenb[30]
*452 la_oenb[31]
*453 la_oenb[32]
*454 la_oenb[33]
*455 la_oenb[34]
*456 la_oenb[35]
*457 la_oenb[36]
*458 la_oenb[37]
*459 la_oenb[38]
*460 la_oenb[39]
*461 la_oenb[3]
*462 la_oenb[40]
*463 la_oenb[41]
*464 la_oenb[42]
*465 la_oenb[43]
*466 la_oenb[44]
*467 la_oenb[45]
*468 la_oenb[46]
*469 la_oenb[47]
*470 la_oenb[48]
*471 la_oenb[49]
*472 la_oenb[4]
*473 la_oenb[50]
*474 la_oenb[51]
*475 la_oenb[52]
*476 la_oenb[53]
*477 la_oenb[54]
*478 la_oenb[55]
*479 la_oenb[56]
*480 la_oenb[57]
*481 la_oenb[58]
*482 la_oenb[59]
*483 la_oenb[5]
*484 la_oenb[60]
*485 la_oenb[61]
*486 la_oenb[62]
*487 la_oenb[63]
*488 la_oenb[64]
*489 la_oenb[65]
*490 la_oenb[66]
*491 la_oenb[67]
*492 la_oenb[68]
*493 la_oenb[69]
*494 la_oenb[6]
*495 la_oenb[70]
*496 la_oenb[71]
*497 la_oenb[72]
*498 la_oenb[73]
*499 la_oenb[74]
*500 la_oenb[75]
*501 la_oenb[76]
*502 la_oenb[77]
*503 la_oenb[78]
*504 la_oenb[79]
*505 la_oenb[7]
*506 la_oenb[80]
*507 la_oenb[81]
*508 la_oenb[82]
*509 la_oenb[83]
*510 la_oenb[84]
*511 la_oenb[85]
*512 la_oenb[86]
*513 la_oenb[87]
*514 la_oenb[88]
*515 la_oenb[89]
*516 la_oenb[8]
*517 la_oenb[90]
*518 la_oenb[91]
*519 la_oenb[92]
*520 la_oenb[93]
*521 la_oenb[94]
*522 la_oenb[95]
*523 la_oenb[96]
*524 la_oenb[97]
*525 la_oenb[98]
*526 la_oenb[99]
*527 la_oenb[9]
*528 user_clock2
*529 user_irq[0]
*530 user_irq[1]
*531 user_irq[2]
*540 wb_clk_i
*541 wb_rst_i
*542 wbs_ack_o
*543 wbs_adr_i[0]
*544 wbs_adr_i[10]
*545 wbs_adr_i[11]
*546 wbs_adr_i[12]
*547 wbs_adr_i[13]
*548 wbs_adr_i[14]
*549 wbs_adr_i[15]
*550 wbs_adr_i[16]
*551 wbs_adr_i[17]
*552 wbs_adr_i[18]
*553 wbs_adr_i[19]
*554 wbs_adr_i[1]
*555 wbs_adr_i[20]
*556 wbs_adr_i[21]
*557 wbs_adr_i[22]
*558 wbs_adr_i[23]
*559 wbs_adr_i[24]
*560 wbs_adr_i[25]
*561 wbs_adr_i[26]
*562 wbs_adr_i[27]
*563 wbs_adr_i[28]
*564 wbs_adr_i[29]
*565 wbs_adr_i[2]
*566 wbs_adr_i[30]
*567 wbs_adr_i[31]
*568 wbs_adr_i[3]
*569 wbs_adr_i[4]
*570 wbs_adr_i[5]
*571 wbs_adr_i[6]
*572 wbs_adr_i[7]
*573 wbs_adr_i[8]
*574 wbs_adr_i[9]
*575 wbs_cyc_i
*576 wbs_dat_i[0]
*577 wbs_dat_i[10]
*578 wbs_dat_i[11]
*579 wbs_dat_i[12]
*580 wbs_dat_i[13]
*581 wbs_dat_i[14]
*582 wbs_dat_i[15]
*583 wbs_dat_i[16]
*584 wbs_dat_i[17]
*585 wbs_dat_i[18]
*586 wbs_dat_i[19]
*587 wbs_dat_i[1]
*588 wbs_dat_i[20]
*589 wbs_dat_i[21]
*590 wbs_dat_i[22]
*591 wbs_dat_i[23]
*592 wbs_dat_i[24]
*593 wbs_dat_i[25]
*594 wbs_dat_i[26]
*595 wbs_dat_i[27]
*596 wbs_dat_i[28]
*597 wbs_dat_i[29]
*598 wbs_dat_i[2]
*599 wbs_dat_i[30]
*600 wbs_dat_i[31]
*601 wbs_dat_i[3]
*602 wbs_dat_i[4]
*603 wbs_dat_i[5]
*604 wbs_dat_i[6]
*605 wbs_dat_i[7]
*606 wbs_dat_i[8]
*607 wbs_dat_i[9]
*608 wbs_dat_o[0]
*609 wbs_dat_o[10]
*610 wbs_dat_o[11]
*611 wbs_dat_o[12]
*612 wbs_dat_o[13]
*613 wbs_dat_o[14]
*614 wbs_dat_o[15]
*615 wbs_dat_o[16]
*616 wbs_dat_o[17]
*617 wbs_dat_o[18]
*618 wbs_dat_o[19]
*619 wbs_dat_o[1]
*620 wbs_dat_o[20]
*621 wbs_dat_o[21]
*622 wbs_dat_o[22]
*623 wbs_dat_o[23]
*624 wbs_dat_o[24]
*625 wbs_dat_o[25]
*626 wbs_dat_o[26]
*627 wbs_dat_o[27]
*628 wbs_dat_o[28]
*629 wbs_dat_o[29]
*630 wbs_dat_o[2]
*631 wbs_dat_o[30]
*632 wbs_dat_o[31]
*633 wbs_dat_o[3]
*634 wbs_dat_o[4]
*635 wbs_dat_o[5]
*636 wbs_dat_o[6]
*637 wbs_dat_o[7]
*638 wbs_dat_o[8]
*639 wbs_dat_o[9]
*640 wbs_sel_i[0]
*641 wbs_sel_i[1]
*642 wbs_sel_i[2]
*643 wbs_sel_i[3]
*644 wbs_stb_i
*645 wbs_we_i
*646 ntt\.busy
*647 ntt\.done
*648 ntt\.engine_rst_n
*649 ntt\.ext_rvalid_o
*650 ntt\.mac_init
*651 ntt\.mem_addr\[0\]
*652 ntt\.mem_addr\[1\]
*653 ntt\.mem_addr\[2\]
*654 ntt\.mem_addr\[3\]
*655 ntt\.mem_addr\[4\]
*656 ntt\.mem_addr\[5\]
*657 ntt\.mem_addr\[6\]
*658 ntt\.mem_addr\[7\]
*659 ntt\.mem_addr\[8\]
*660 ntt\.mem_rdata\[0\]
*661 ntt\.mem_rdata\[10\]
*662 ntt\.mem_rdata\[11\]
*663 ntt\.mem_rdata\[12\]
*664 ntt\.mem_rdata\[13\]
*665 ntt\.mem_rdata\[14\]
*666 ntt\.mem_rdata\[15\]
*667 ntt\.mem_rdata\[16\]
*668 ntt\.mem_rdata\[17\]
*669 ntt\.mem_rdata\[18\]
*670 ntt\.mem_rdata\[19\]
*671 ntt\.mem_rdata\[1\]
*672 ntt\.mem_rdata\[20\]
*673 ntt\.mem_rdata\[21\]
*674 ntt\.mem_rdata\[22\]
*675 ntt\.mem_rdata\[23\]
*676 ntt\.mem_rdata\[24\]
*677 ntt\.mem_rdata\[25\]
*678 ntt\.mem_rdata\[26\]
*679 ntt\.mem_rdata\[27\]
*680 ntt\.mem_rdata\[28\]
*681 ntt\.mem_rdata\[29\]
*682 ntt\.mem_rdata\[2\]
*683 ntt\.mem_rdata\[30\]
*684 ntt\.mem_rdata\[31\]
*685 ntt\.mem_rdata\[3\]
*686 ntt\.mem_rdata\[4\]
*687 ntt\.mem_rdata\[5\]
*688 ntt\.mem_rdata\[6\]
*689 ntt\.mem_rdata\[7\]
*690 ntt\.mem_rdata\[8\]
*691 ntt\.mem_rdata\[9\]
*692 ntt\.mem_re
*693 ntt\.mem_slot\[0\]
*694 ntt\.mem_slot\[1\]
*695 ntt\.mem_target
*696 ntt\.mem_wdata\[0\]
*697 ntt\.mem_wdata\[10\]
*698 ntt\.mem_wdata\[11\]
*699 ntt\.mem_wdata\[12\]
*700 ntt\.mem_wdata\[13\]
*701 ntt\.mem_wdata\[14\]
*702 ntt\.mem_wdata\[15\]
*703 ntt\.mem_wdata\[16\]
*704 ntt\.mem_wdata\[17\]
*705 ntt\.mem_wdata\[18\]
*706 ntt\.mem_wdata\[19\]
*707 ntt\.mem_wdata\[1\]
*708 ntt\.mem_wdata\[20\]
*709 ntt\.mem_wdata\[21\]
*710 ntt\.mem_wdata\[22\]
*711 ntt\.mem_wdata\[23\]
*712 ntt\.mem_wdata\[24\]
*713 ntt\.mem_wdata\[25\]
*714 ntt\.mem_wdata\[26\]
*715 ntt\.mem_wdata\[27\]
*716 ntt\.mem_wdata\[28\]
*717 ntt\.mem_wdata\[29\]
*718 ntt\.mem_wdata\[2\]
*719 ntt\.mem_wdata\[30\]
*720 ntt\.mem_wdata\[31\]
*721 ntt\.mem_wdata\[3\]
*722 ntt\.mem_wdata\[4\]
*723 ntt\.mem_wdata\[5\]
*724 ntt\.mem_wdata\[6\]
*725 ntt\.mem_wdata\[7\]
*726 ntt\.mem_wdata\[8\]
*727 ntt\.mem_wdata\[9\]
*728 ntt\.mem_we
*729 ntt\.op\[0\]
*730 ntt\.op\[1\]
*731 ntt\.op\[2\]
*732 ntt\.slot_a\[0\]
*733 ntt\.slot_a\[1\]
*734 ntt\.slot_b\[0\]
*735 ntt\.slot_b\[1\]
*736 ntt\.slot_c\[0\]
*737 ntt\.slot_c\[1\]
*738 ntt\.start
*739 ntt\.u_bridge
*740 ntt\.u_engine

*PORTS
analog_io[0] I
analog_io[10] I
analog_io[11] I
analog_io[12] I
analog_io[13] I
analog_io[14] I
analog_io[15] I
analog_io[16] I
analog_io[17] I
analog_io[18] I
analog_io[19] I
analog_io[1] I
analog_io[20] I
analog_io[21] I
analog_io[22] I
analog_io[23] I
analog_io[24] I
analog_io[25] I
analog_io[26] I
analog_io[27] I
analog_io[28] I
analog_io[2] I
analog_io[3] I
analog_io[4] I
analog_io[5] I
analog_io[6] I
analog_io[7] I
analog_io[8] I
analog_io[9] I
io_in[0] I
io_in[10] I
io_in[11] I
io_in[12] I
io_in[13] I
io_in[14] I
io_in[15] I
io_in[16] I
io_in[17] I
io_in[18] I
io_in[19] I
io_in[1] I
io_in[20] I
io_in[21] I
io_in[22] I
io_in[23] I
io_in[24] I
io_in[25] I
io_in[26] I
io_in[27] I
io_in[28] I
io_in[29] I
io_in[2] I
io_in[30] I
io_in[31] I
io_in[32] I
io_in[33] I
io_in[34] I
io_in[35] I
io_in[36] I
io_in[37] I
io_in[3] I
io_in[4] I
io_in[5] I
io_in[6] I
io_in[7] I
io_in[8] I
io_in[9] I
io_oeb[0] O
io_oeb[10] O
io_oeb[11] O
io_oeb[12] O
io_oeb[13] O
io_oeb[14] O
io_oeb[15] O
io_oeb[16] O
io_oeb[17] O
io_oeb[18] O
io_oeb[19] O
io_oeb[1] O
io_oeb[20] O
io_oeb[21] O
io_oeb[22] O
io_oeb[23] O
io_oeb[24] O
io_oeb[25] O
io_oeb[26] O
io_oeb[27] O
io_oeb[28] O
io_oeb[29] O
io_oeb[2] O
io_oeb[30] O
io_oeb[31] O
io_oeb[32] O
io_oeb[33] O
io_oeb[34] O
io_oeb[35] O
io_oeb[36] O
io_oeb[37] O
io_oeb[3] O
io_oeb[4] O
io_oeb[5] O
io_oeb[6] O
io_oeb[7] O
io_oeb[8] O
io_oeb[9] O
io_out[0] O
io_out[10] O
io_out[11] O
io_out[12] O
io_out[13] O
io_out[14] O
io_out[15] O
io_out[16] O
io_out[17] O
io_out[18] O
io_out[19] O
io_out[1] O
io_out[20] O
io_out[21] O
io_out[22] O
io_out[23] O
io_out[24] O
io_out[25] O
io_out[26] O
io_out[27] O
io_out[28] O
io_out[29] O
io_out[2] O
io_out[30] O
io_out[31] O
io_out[32] O
io_out[33] O
io_out[34] O
io_out[35] O
io_out[36] O
io_out[37] O
io_out[3] O
io_out[4] O
io_out[5] O
io_out[6] O
io_out[7] O
io_out[8] O
io_out[9] O
la_data_in[0] I
la_data_in[100] I
la_data_in[101] I
la_data_in[102] I
la_data_in[103] I
la_data_in[104] I
la_data_in[105] I
la_data_in[106] I
la_data_in[107] I
la_data_in[108] I
la_data_in[109] I
la_data_in[10] I
la_data_in[110] I
la_data_in[111] I
la_data_in[112] I
la_data_in[113] I
la_data_in[114] I
la_data_in[115] I
la_data_in[116] I
la_data_in[117] I
la_data_in[118] I
la_data_in[119] I
la_data_in[11] I
la_data_in[120] I
la_data_in[121] I
la_data_in[122] I
la_data_in[123] I
la_data_in[124] I
la_data_in[125] I
la_data_in[126] I
la_data_in[127] I
la_data_in[12] I
la_data_in[13] I
la_data_in[14] I
la_data_in[15] I
la_data_in[16] I
la_data_in[17] I
la_data_in[18] I
la_data_in[19] I
la_data_in[1] I
la_data_in[20] I
la_data_in[21] I
la_data_in[22] I
la_data_in[23] I
la_data_in[24] I
la_data_in[25] I
la_data_in[26] I
la_data_in[27] I
la_data_in[28] I
la_data_in[29] I
la_data_in[2] I
la_data_in[30] I
la_data_in[31] I
la_data_in[32] I
la_data_in[33] I
la_data_in[34] I
la_data_in[35] I
la_data_in[36] I
la_data_in[37] I
la_data_in[38] I
la_data_in[39] I
la_data_in[3] I
la_data_in[40] I
la_data_in[41] I
la_data_in[42] I
la_data_in[43] I
la_data_in[44] I
la_data_in[45] I
la_data_in[46] I
la_data_in[47] I
la_data_in[48] I
la_data_in[49] I
la_data_in[4] I
la_data_in[50] I
la_data_in[51] I
la_data_in[52] I
la_data_in[53] I
la_data_in[54] I
la_data_in[55] I
la_data_in[56] I
la_data_in[57] I
la_data_in[58] I
la_data_in[59] I
la_data_in[5] I
la_data_in[60] I
la_data_in[61] I
la_data_in[62] I
la_data_in[63] I
la_data_in[64] I
la_data_in[65] I
la_data_in[66] I
la_data_in[67] I
la_data_in[68] I
la_data_in[69] I
la_data_in[6] I
la_data_in[70] I
la_data_in[71] I
la_data_in[72] I
la_data_in[73] I
la_data_in[74] I
la_data_in[75] I
la_data_in[76] I
la_data_in[77] I
la_data_in[78] I
la_data_in[79] I
la_data_in[7] I
la_data_in[80] I
la_data_in[81] I
la_data_in[82] I
la_data_in[83] I
la_data_in[84] I
la_data_in[85] I
la_data_in[86] I
la_data_in[87] I
la_data_in[88] I
la_data_in[89] I
la_data_in[8] I
la_data_in[90] I
la_data_in[91] I
la_data_in[92] I
la_data_in[93] I
la_data_in[94] I
la_data_in[95] I
la_data_in[96] I
la_data_in[97] I
la_data_in[98] I
la_data_in[99] I
la_data_in[9] I
la_data_out[0] O
la_data_out[100] O
la_data_out[101] O
la_data_out[102] O
la_data_out[103] O
la_data_out[104] O
la_data_out[105] O
la_data_out[106] O
la_data_out[107] O
la_data_out[108] O
la_data_out[109] O
la_data_out[10] O
la_data_out[110] O
la_data_out[111] O
la_data_out[112] O
la_data_out[113] O
la_data_out[114] O
la_data_out[115] O
la_data_out[116] O
la_data_out[117] O
la_data_out[118] O
la_data_out[119] O
la_data_out[11] O
la_data_out[120] O
la_data_out[121] O
la_data_out[122] O
la_data_out[123] O
la_data_out[124] O
la_data_out[125] O
la_data_out[126] O
la_data_out[127] O
la_data_out[12] O
la_data_out[13] O
la_data_out[14] O
la_data_out[15] O
la_data_out[16] O
la_data_out[17] O
la_data_out[18] O
la_data_out[19] O
la_data_out[1] O
la_data_out[20] O
la_data_out[21] O
la_data_out[22] O
la_data_out[23] O
la_data_out[24] O
la_data_out[25] O
la_data_out[26] O
la_data_out[27] O
la_data_out[28] O
la_data_out[29] O
la_data_out[2] O
la_data_out[30] O
la_data_out[31] O
la_data_out[32] O
la_data_out[33] O
la_data_out[34] O
la_data_out[35] O
la_data_out[36] O
la_data_out[37] O
la_data_out[38] O
la_data_out[39] O
la_data_out[3] O
la_data_out[40] O
la_data_out[41] O
la_data_out[42] O
la_data_out[43] O
la_data_out[44] O
la_data_out[45] O
la_data_out[46] O
la_data_out[47] O
la_data_out[48] O
la_data_out[49] O
la_data_out[4] O
la_data_out[50] O
la_data_out[51] O
la_data_out[52] O
la_data_out[53] O
la_data_out[54] O
la_data_out[55] O
la_data_out[56] O
la_data_out[57] O
la_data_out[58] O
la_data_out[59] O
la_data_out[5] O
la_data_out[60] O
la_data_out[61] O
la_data_out[62] O
la_data_out[63] O
la_data_out[64] O
la_data_out[65] O
la_data_out[66] O
la_data_out[67] O
la_data_out[68] O
la_data_out[69] O
la_data_out[6] O
la_data_out[70] O
la_data_out[71] O
la_data_out[72] O
la_data_out[73] O
la_data_out[74] O
la_data_out[75] O
la_data_out[76] O
la_data_out[77] O
la_data_out[78] O
la_data_out[79] O
la_data_out[7] O
la_data_out[80] O
la_data_out[81] O
la_data_out[82] O
la_data_out[83] O
la_data_out[84] O
la_data_out[85] O
la_data_out[86] O
la_data_out[87] O
la_data_out[88] O
la_data_out[89] O
la_data_out[8] O
la_data_out[90] O
la_data_out[91] O
la_data_out[92] O
la_data_out[93] O
la_data_out[94] O
la_data_out[95] O
la_data_out[96] O
la_data_out[97] O
la_data_out[98] O
la_data_out[99] O
la_data_out[9] O
la_oenb[0] I
la_oenb[100] I
la_oenb[101] I
la_oenb[102] I
la_oenb[103] I
la_oenb[104] I
la_oenb[105] I
la_oenb[106] I
la_oenb[107] I
la_oenb[108] I
la_oenb[109] I
la_oenb[10] I
la_oenb[110] I
la_oenb[111] I
la_oenb[112] I
la_oenb[113] I
la_oenb[114] I
la_oenb[115] I
la_oenb[116] I
la_oenb[117] I
la_oenb[118] I
la_oenb[119] I
la_oenb[11] I
la_oenb[120] I
la_oenb[121] I
la_oenb[122] I
la_oenb[123] I
la_oenb[124] I
la_oenb[125] I
la_oenb[126] I
la_oenb[127] I
la_oenb[12] I
la_oenb[13] I
la_oenb[14] I
la_oenb[15] I
la_oenb[16] I
la_oenb[17] I
la_oenb[18] I
la_oenb[19] I
la_oenb[1] I
la_oenb[20] I
la_oenb[21] I
la_oenb[22] I
la_oenb[23] I
la_oenb[24] I
la_oenb[25] I
la_oenb[26] I
la_oenb[27] I
la_oenb[28] I
la_oenb[29] I
la_oenb[2] I
la_oenb[30] I
la_oenb[31] I
la_oenb[32] I
la_oenb[33] I
la_oenb[34] I
la_oenb[35] I
la_oenb[36] I
la_oenb[37] I
la_oenb[38] I
la_oenb[39] I
la_oenb[3] I
la_oenb[40] I
la_oenb[41] I
la_oenb[42] I
la_oenb[43] I
la_oenb[44] I
la_oenb[45] I
la_oenb[46] I
la_oenb[47] I
la_oenb[48] I
la_oenb[49] I
la_oenb[4] I
la_oenb[50] I
la_oenb[51] I
la_oenb[52] I
la_oenb[53] I
la_oenb[54] I
la_oenb[55] I
la_oenb[56] I
la_oenb[57] I
la_oenb[58] I
la_oenb[59] I
la_oenb[5] I
la_oenb[60] I
la_oenb[61] I
la_oenb[62] I
la_oenb[63] I
la_oenb[64] I
la_oenb[65] I
la_oenb[66] I
la_oenb[67] I
la_oenb[68] I
la_oenb[69] I
la_oenb[6] I
la_oenb[70] I
la_oenb[71] I
la_oenb[72] I
la_oenb[73] I
la_oenb[74] I
la_oenb[75] I
la_oenb[76] I
la_oenb[77] I
la_oenb[78] I
la_oenb[79] I
la_oenb[7] I
la_oenb[80] I
la_oenb[81] I
la_oenb[82] I
la_oenb[83] I
la_oenb[84] I
la_oenb[85] I
la_oenb[86] I
la_oenb[87] I
la_oenb[88] I
la_oenb[89] I
la_oenb[8] I
la_oenb[90] I
la_oenb[91] I
la_oenb[92] I
la_oenb[93] I
la_oenb[94] I
la_oenb[95] I
la_oenb[96] I
la_oenb[97] I
la_oenb[98] I
la_oenb[99] I
la_oenb[9] I
user_clock2 I
user_irq[0] O
user_irq[1] O
user_irq[2] O
wb_clk_i I
wb_rst_i I
wbs_ack_o O
wbs_adr_i[0] I
wbs_adr_i[10] I
wbs_adr_i[11] I
wbs_adr_i[12] I
wbs_adr_i[13] I
wbs_adr_i[14] I
wbs_adr_i[15] I
wbs_adr_i[16] I
wbs_adr_i[17] I
wbs_adr_i[18] I
wbs_adr_i[19] I
wbs_adr_i[1] I
wbs_adr_i[20] I
wbs_adr_i[21] I
wbs_adr_i[22] I
wbs_adr_i[23] I
wbs_adr_i[24] I
wbs_adr_i[25] I
wbs_adr_i[26] I
wbs_adr_i[27] I
wbs_adr_i[28] I
wbs_adr_i[29] I
wbs_adr_i[2] I
wbs_adr_i[30] I
wbs_adr_i[31] I
wbs_adr_i[3] I
wbs_adr_i[4] I
wbs_adr_i[5] I
wbs_adr_i[6] I
wbs_adr_i[7] I
wbs_adr_i[8] I
wbs_adr_i[9] I
wbs_cyc_i I
wbs_dat_i[0] I
wbs_dat_i[10] I
wbs_dat_i[11] I
wbs_dat_i[12] I
wbs_dat_i[13] I
wbs_dat_i[14] I
wbs_dat_i[15] I
wbs_dat_i[16] I
wbs_dat_i[17] I
wbs_dat_i[18] I
wbs_dat_i[19] I
wbs_dat_i[1] I
wbs_dat_i[20] I
wbs_dat_i[21] I
wbs_dat_i[22] I
wbs_dat_i[23] I
wbs_dat_i[24] I
wbs_dat_i[25] I
wbs_dat_i[26] I
wbs_dat_i[27] I
wbs_dat_i[28] I
wbs_dat_i[29] I
wbs_dat_i[2] I
wbs_dat_i[30] I
wbs_dat_i[31] I
wbs_dat_i[3] I
wbs_dat_i[4] I
wbs_dat_i[5] I
wbs_dat_i[6] I
wbs_dat_i[7] I
wbs_dat_i[8] I
wbs_dat_i[9] I
wbs_dat_o[0] O
wbs_dat_o[10] O
wbs_dat_o[11] O
wbs_dat_o[12] O
wbs_dat_o[13] O
wbs_dat_o[14] O
wbs_dat_o[15] O
wbs_dat_o[16] O
wbs_dat_o[17] O
wbs_dat_o[18] O
wbs_dat_o[19] O
wbs_dat_o[1] O
wbs_dat_o[20] O
wbs_dat_o[21] O
wbs_dat_o[22] O
wbs_dat_o[23] O
wbs_dat_o[24] O
wbs_dat_o[25] O
wbs_dat_o[26] O
wbs_dat_o[27] O
wbs_dat_o[28] O
wbs_dat_o[29] O
wbs_dat_o[2] O
wbs_dat_o[30] O
wbs_dat_o[31] O
wbs_dat_o[3] O
wbs_dat_o[4] O
wbs_dat_o[5] O
wbs_dat_o[6] O
wbs_dat_o[7] O
wbs_dat_o[8] O
wbs_dat_o[9] O
wbs_sel_i[0] I
wbs_sel_i[1] I
wbs_sel_i[2] I
wbs_sel_i[3] I
wbs_stb_i I
wbs_we_i I

*D_NET *68 0.329167
*CONN
*P io_oeb[0] O
*I *739:io_oeb_o[0] O *D ntt_wb_bridge
*CAP
1 io_oeb[0] 0.00459318
2 *739:io_oeb_o[0] 0.000888809
3 *68:27 0.0249827
4 *68:25 0.0209047
5 *68:19 0.00803565
6 *68:17 0.00840925
7 io_oeb[0] user_irq[0] 0.000132256
8 io_oeb[0] *90:31 0.00855764
9 io_oeb[0] *128:33 0.00206102
10 *68:17 *92:23 0.000136361
11 *68:17 *137:21 0.000140433
12 *68:17 *140:13 2.16497e-05
13 *68:19 *74:25 0.00145469
14 *68:19 *76:17 9.05749e-06
15 *68:19 *76:19 0.0256961
16 *68:19 *90:25 0.000431011
17 *68:19 *92:23 0.00280288
18 *68:19 *97:15 0.00410539
19 *68:19 *99:21 0.00826466
20 *68:19 *109:13 0.000472395
21 *68:19 *112:13 0.0093172
22 *68:19 *140:13 0.0465035
23 *68:19 *141:13 0.000651507
24 *68:25 *104:21 0.000843208
25 *68:27 *78:13 0.000285779
26 *68:27 *90:27 0
27 *68:27 *99:23 0.0316044
28 *68:27 *104:23 0.0843039
29 *68:27 *128:29 0
30 *68:27 *137:29 0.0335573
*RES
1 *739:io_oeb_o[0] *68:17 14.6779 
2 *68:17 *68:19 72.5461 
3 *68:19 *68:25 8.67807 
4 *68:25 *68:27 134.956 
5 *68:27 io_oeb[0] 26.9501 
*END

*D_NET *69 0.461366
*CONN
*P io_oeb[10] O
*I *739:io_oeb_o[10] O *D ntt_wb_bridge
*CAP
1 io_oeb[10] 0.00839121
2 *739:io_oeb_o[10] 0.00164401
3 *69:21 0.0991324
4 *69:19 0.0907412
5 *69:17 0.0344473
6 *69:15 0.0360913
7 *69:15 *99:21 0
8 *69:15 *99:23 7.9537e-05
9 *69:17 *70:20 0.00217158
10 *69:17 *98:14 0.0123363
11 *69:17 *138:13 0.0198392
12 *69:17 *353:27 0.000763437
13 *69:17 *358:31 0.037145
14 *69:21 *103:37 0.118584
15 *69:21 *655:11 0
*RES
1 *739:io_oeb_o[10] *69:15 10.638 
2 *69:15 *69:17 165.368 
3 *69:17 *69:19 3.41 
4 *69:19 *69:21 375.044 
5 *69:21 io_oeb[10] 28.801 
*END

*D_NET *70 0.47814
*CONN
*P io_oeb[11] O
*I *739:io_oeb_o[11] O *D ntt_wb_bridge
*CAP
1 io_oeb[11] 0.00113186
2 *739:io_oeb_o[11] 0.00193775
3 *70:30 0.00696649
4 *70:28 0.00583463
5 *70:26 0.11507
6 *70:24 0.11507
7 *70:22 0.0129153
8 *70:20 0.0148531
9 *70:20 la_data_out[62] 4.6025e-06
10 *70:20 *71:19 0
11 *70:20 *353:27 0.00216388
12 *70:22 *71:21 0.0983742
13 *70:22 *73:20 0.0933882
14 *70:22 *79:14 0.00712364
15 *70:22 *95:13 0.000949572
16 *70:22 *357:31 0.000185098
17 *69:17 *70:20 0.00217158
*RES
1 *739:io_oeb_o[11] *70:20 24.4928 
2 *70:20 *70:22 931.625 
3 *70:22 *70:24 4.5 
4 *70:24 *70:26 2366.77 
5 *70:26 *70:28 4.5 
6 *70:28 *70:30 110.607 
7 *70:30 io_oeb[11] 15.0907 
*END

*D_NET *71 0.499158
*CONN
*P io_oeb[12] O
*I *739:io_oeb_o[12] O *D ntt_wb_bridge
*CAP
1 io_oeb[12] 0.000981829
2 *739:io_oeb_o[12] 0.00173852
3 *71:29 0.0059473
4 *71:27 0.00496547
5 *71:25 0.126717
6 *71:23 0.126717
7 *71:21 0.0131239
8 *71:19 0.0148624
9 *71:19 *93:19 0.000107875
10 *71:19 *96:14 0.000226189
11 *71:19 *99:23 0.000187348
12 *71:21 *72:25 0.099242
13 *71:21 *81:15 0
14 *71:21 *95:13 0.000385683
15 *71:21 *96:14 0.00543746
16 *71:21 *357:31 0.000143439
17 *70:20 *71:19 0
18 *70:22 *71:21 0.0983742
*RES
1 *739:io_oeb_o[12] *71:19 18.9106 
2 *71:19 *71:21 953.804 
3 *71:21 *71:23 4.5 
4 *71:23 *71:25 2606.89 
5 *71:25 *71:27 4.5 
6 *71:27 *71:29 98.2857 
7 *71:29 io_oeb[12] 12.055 
*END

*D_NET *72 0.457414
*CONN
*P io_oeb[13] O
*I *739:io_oeb_o[13] O *D ntt_wb_bridge
*CAP
1 io_oeb[13] 0.00111701
2 *739:io_oeb_o[13] 0.00149687
3 *72:33 0.00530529
4 *72:31 0.00418828
5 *72:29 0.138054
6 *72:27 0.138054
7 *72:25 0.0310971
8 *72:23 0.032594
9 *72:23 *93:19 6.9913e-05
10 *72:23 *96:14 0.000144221
11 *72:23 *99:23 8.42714e-05
12 *72:25 *81:15 0
13 *72:25 *96:14 0.00585669
14 *72:25 *357:31 0.000110042
15 *72:29 la_data_out[123] 0
16 *71:21 *72:25 0.099242
*RES
1 *739:io_oeb_o[13] *72:23 18.3187 
2 *72:23 *72:25 958.321 
3 *72:25 *72:27 4.5 
4 *72:27 *72:29 2840.64 
5 *72:29 *72:31 4.5 
6 *72:31 *72:33 79.8036 
7 *72:33 io_oeb[13] 14.7871 
*END

*D_NET *73 0.570271
*CONN
*P io_oeb[14] O
*I *739:io_oeb_o[14] O *D ntt_wb_bridge
*CAP
1 io_oeb[14] 0.000968471
2 *739:io_oeb_o[14] 0.00124064
3 *73:28 0.00837147
4 *73:26 0.007403
5 *73:24 0.112371
6 *73:22 0.112371
7 *73:20 0.024413
8 *73:18 0.0256537
9 *73:18 *93:19 0.000167804
10 *73:18 *96:14 0.000324656
11 *73:20 *79:14 0.00769945
12 *73:20 *95:13 0.0222095
13 *73:20 *357:31 0.000851675
14 *73:24 la_data_out[119] 0
15 *73:24 *75:17 0
16 *73:24 *78:145 0.0143723
17 *73:24 *112:17 0
18 *73:24 *113:19 0
19 *73:24 *115:203 0.0351779
20 *73:24 *665:11 0.070315
21 *73:24 *665:21 0.00191187
22 *73:24 *669:11 0.00232375
23 *73:24 *680:11 0.0222874
24 *73:24 *686:11 0.00553942
25 *73:24 *686:21 0.000909132
26 *73:24 *721:11 0
27 *70:22 *73:20 0.0933882
*RES
1 *739:io_oeb_o[14] *73:18 19.1151 
2 *73:18 *73:20 884.393 
3 *73:20 *73:22 4.5 
4 *73:22 *73:24 3081.98 
5 *73:24 *73:26 4.5 
6 *73:26 *73:28 141.411 
7 *73:28 io_oeb[14] 11.7514 
*END

*D_NET *74 0.703861
*CONN
*P io_oeb[15] O
*I *739:io_oeb_o[15] O *D ntt_wb_bridge
*CAP
1 io_oeb[15] 0.000714541
2 *739:io_oeb_o[15] 0.00123929
3 *74:35 0.00350944
4 *74:33 0.0027949
5 *74:31 0.101223
6 *74:29 0.101223
7 *74:27 0.0224885
8 *74:25 0.0237278
9 *74:25 *75:11 1.72319e-05
10 *74:25 *87:13 0.000104274
11 *74:25 *92:23 0.000589918
12 *74:25 *99:23 0.000500536
13 *74:25 *109:13 0.00029115
14 *74:25 *110:13 0.000260832
15 *74:25 *115:29 6.30931e-05
16 *74:25 *141:13 0.000270003
17 *74:27 *75:13 0.0902408
18 *74:27 *76:19 0.0189291
19 *74:27 *105:15 0.0013702
20 *74:27 *112:13 7.03393e-05
21 *74:27 *140:13 0.00600912
22 *74:27 *143:15 0.0272207
23 *74:31 *78:129 0
24 *74:31 *141:17 0
25 *74:31 *648:11 0
26 *74:31 *694:11 2.30116e-06
27 *74:31 *699:19 0
28 *74:31 *715:19 0
29 *74:31 *723:11 0.0404066
30 *74:31 *732:11 0.226376
31 *74:31 *732:15 0.00339428
32 *74:31 *738:11 0.0201763
33 *74:35 *113:23 0.00919394
34 *68:19 *74:25 0.00145469
*RES
1 *739:io_oeb_o[15] *74:25 26.8375 
2 *74:25 *74:27 850.714 
3 *74:27 *74:29 4.5 
4 *74:29 *74:31 3092 
5 *74:31 *74:33 4.5 
6 *74:33 *74:35 86.375 
7 *74:35 io_oeb[15] 18.6786 
*END

*D_NET *75 0.915902
*CONN
*P io_oeb[16] O
*I *739:io_oeb_o[16] O *D ntt_wb_bridge
*CAP
1 io_oeb[16] 0.000759011
2 *739:io_oeb_o[16] 0.000928188
3 *75:21 0.0145638
4 *75:19 0.0138048
5 *75:17 0.0386775
6 *75:15 0.0386775
7 *75:13 0.011134
8 *75:11 0.0120622
9 *75:11 *80:13 0.000164784
10 *75:11 *82:13 0.000152816
11 *75:11 *87:13 0.000152816
12 *75:11 *99:23 0.000460054
13 *75:11 *115:29 0
14 *75:13 *76:19 0.011136
15 *75:13 *112:13 0.0909369
16 *75:13 *140:13 0.0063512
17 *75:17 *76:23 0.252101
18 *75:17 *102:27 0.00250811
19 *75:17 *113:19 0.251611
20 *75:17 *659:15 0.00563371
21 *75:17 *669:11 0.0308816
22 *75:17 *686:21 0.00177922
23 *75:21 *76:27 0.00109366
24 *75:21 *78:241 0.00705537
25 *75:21 *112:23 0
26 *75:21 *113:23 0.0330191
27 *73:24 *75:17 0
28 *74:25 *75:11 1.72319e-05
29 *74:27 *75:13 0.0902408
*RES
1 *739:io_oeb_o[16] *75:11 19.1293 
2 *75:11 *75:13 856.054 
3 *75:13 *75:15 4.5 
4 *75:15 *75:17 3091.09 
5 *75:17 *75:19 4.5 
6 *75:19 *75:21 382.5 
7 *75:21 io_oeb[16] 19.2857 
*END

*D_NET *76 0.878737
*CONN
*P io_oeb[17] O
*I *739:io_oeb_o[17] O *D ntt_wb_bridge
*CAP
1 io_oeb[17] 0.000661505
2 *739:io_oeb_o[17] 0.000715873
3 *76:27 0.0175727
4 *76:25 0.0169112
5 *76:23 0.0562458
6 *76:21 0.0562458
7 *76:19 0.0427026
8 *76:17 0.0434185
9 *76:17 *92:23 5.40377e-05
10 *76:17 *99:23 0.000126606
11 *76:19 *92:23 0.0055826
12 *76:19 *106:13 1.94276e-05
13 *76:19 *109:13 0.0194329
14 *76:19 *110:13 0.0173498
15 *76:19 *112:13 0.0138878
16 *76:19 *117:13 0.0033295
17 *76:19 *128:29 0
18 *76:19 *140:13 0.00391767
19 *76:19 *141:13 0.0179272
20 *76:23 *102:27 0.00250811
21 *76:23 *113:19 1.08359e-05
22 *76:23 *141:17 0
23 *76:23 *648:11 0
24 *76:23 *653:11 0.0877866
25 *76:23 *659:15 0.0060985
26 *76:23 *669:11 0.0345531
27 *76:23 *686:21 0.00199921
28 *76:27 *77:241 0.04578
29 *76:27 *78:241 0.00473793
30 *76:27 *113:23 0.00434894
31 *76:27 *114:49 0.065847
32 *68:19 *76:17 9.05749e-06
33 *68:19 *76:19 0.0256961
34 *74:27 *76:19 0.0189291
35 *75:13 *76:19 0.011136
36 *75:17 *76:23 0.252101
37 *75:21 *76:27 0.00109366
*RES
1 *739:io_oeb_o[17] *76:17 14.9028 
2 *76:17 *76:19 149.261 
3 *76:19 *76:21 3.41 
4 *76:21 *76:23 3091.7 
5 *76:23 *76:25 3.41 
6 *76:25 *76:27 117.876 
7 *76:27 io_oeb[17] 16.8296 
*END

*D_NET *77 0.854941
*CONN
*P io_oeb[18] O
*I *739:io_oeb_o[18] O *D ntt_wb_bridge
*CAP
1 io_oeb[18] 0.000691211
2 *739:io_oeb_o[18] 0.000956281
3 *77:241 0.0178821
4 *77:239 0.0206374
5 *77:227 0.0065685
6 *77:213 0.00668838
7 *77:203 0.00684719
8 *77:191 0.00826242
9 *77:175 0.00749724
10 *77:159 0.00516842
11 *77:145 0.0259541
12 *77:143 0.0233013
13 *77:141 0.00951057
14 *77:135 0.0205635
15 *77:127 0.0142518
16 *77:119 0.00739027
17 *77:115 0.00572394
18 *77:111 0.00426334
19 *77:105 0.0073194
20 *77:97 0.00705765
21 *77:95 0.00695552
22 *77:89 0.010814
23 *77:87 0.0110857
24 *77:73 0.0080842
25 *77:71 0.00555351
26 *77:63 0.00665282
27 *77:57 0.00529219
28 *77:55 0.00161567
29 *77:49 0.00362662
30 *77:47 0.0092854
31 *77:35 0.00776297
32 *77:31 0.00290674
33 *77:21 0.00449687
34 *77:19 0.00361099
35 *77:13 0.00296
36 *77:11 0.00325078
37 *77:11 *99:23 0.000154685
38 *77:13 *81:15 0.00116462
39 *77:13 *104:15 0.00330255
40 *77:13 *105:15 0.00887312
41 *77:21 *78:13 0
42 *77:21 *87:13 0
43 *77:21 *103:19 0.00169811
44 *77:21 *108:15 0.00952889
45 *77:31 *99:23 0.00702732
46 *77:31 *103:19 0.00391688
47 *77:31 *108:15 0.00137189
48 *77:35 *143:19 0
49 *77:35 *363:11 0.00315757
50 *77:47 *78:39 0.00035694
51 *77:47 *285:17 0
52 *77:47 *729:9 2.63501e-05
53 *77:47 *730:7 0
54 *77:47 *732:7 0.000501541
55 *77:49 la_data_out[86] 0
56 *77:49 *78:47 0.0033298
57 *77:55 *281:23 0.00020499
58 *77:55 *694:7 0
59 *77:57 la_data_out[87] 0.00428865
60 *77:57 *78:55 0.000304083
61 *77:57 *651:11 0.00335732
62 *77:71 io_out[1] 0
63 *77:71 *115:83 0.00251802
64 *77:71 *721:7 0
65 *77:87 la_data_out[93] 0.000738188
66 *77:87 *700:7 0.00280343
67 *77:87 *724:15 0.000228147
68 *77:89 *115:117 0
69 *77:95 *720:7 0
70 *77:105 la_data_out[107] 0.00244148
71 *77:111 *140:21 0
72 *77:115 *115:163 0.0015545
73 *77:119 *665:23 0
74 *77:119 *666:13 0.00123377
75 *77:127 la_data_out[115] 0
76 *77:127 *672:10 0
77 *77:127 *708:15 0
78 *77:135 *658:15 0.00062968
79 *77:141 *114:35 0.000593901
80 *77:141 *646:41 0.000461446
81 *77:141 *672:6 0.0214692
82 *77:145 *114:45 0.0210606
83 *77:145 *654:11 0.00849601
84 *77:145 *666:9 0.00381031
85 *77:145 *679:15 0.153031
86 *77:145 *714:27 0.153037
87 *77:159 *78:175 0.00139514
88 *77:159 *115:223 0.00130544
89 *77:175 *78:183 9.89651e-05
90 *77:191 *78:195 0.000752171
91 *77:213 *78:221 0
92 *77:227 *78:239 0
93 *77:239 *78:241 0
94 *77:241 *78:241 0.0784482
95 *76:27 *77:241 0.04578
*RES
1 *739:io_oeb_o[18] *77:11 19.5352 
2 *77:11 *77:13 83.5 
3 *77:13 *77:19 18.2321 
4 *77:19 *77:21 89.6607 
5 *77:21 *77:31 22.67 
6 *77:31 *77:35 42.9993 
7 *77:35 *77:47 47.7284 
8 *77:47 *77:49 73.5893 
9 *77:49 *77:55 9.10107 
10 *77:55 *77:57 52.9464 
11 *77:57 *77:63 19.839 
12 *77:63 *77:71 49.1534 
13 *77:71 *77:73 67.5179 
14 *77:73 *77:87 40.2621 
15 *77:87 *77:89 129.446 
16 *77:89 *77:95 19.839 
17 *77:95 *77:97 49.9107 
18 *77:97 *77:105 47.5826 
19 *77:105 *77:111 15.0826 
20 *77:111 *77:115 40.5707 
21 *77:115 *77:119 16.9335 
22 *77:119 *77:127 46.3195 
23 *77:127 *77:135 41.8256 
24 *77:135 *77:141 49.0016 
25 *77:141 *77:143 3.41 
26 *77:143 *77:145 1875.59 
27 *77:145 *77:159 32.0293 
28 *77:159 *77:175 48.0484 
29 *77:175 *77:191 47.0529 
30 *77:191 *77:203 45.0159 
31 *77:203 *77:213 47.5922 
32 *77:213 *77:227 47.9438 
33 *77:227 *77:239 31.4511 
34 *77:239 *77:241 122.272 
35 *77:241 io_oeb[18] 17.4368 
*END

*D_NET *78 0.778622
*CONN
*P io_oeb[19] O
*I *739:io_oeb_o[19] O *D ntt_wb_bridge
*CAP
1 io_oeb[19] 0.000720918
2 *739:io_oeb_o[19] 0.000276542
3 *78:241 0.0460498
4 *78:239 0.0467326
5 *78:231 0.00300299
6 *78:221 0.00718581
7 *78:205 0.00850984
8 *78:195 0.00613544
9 *78:183 0.00492811
10 *78:175 0.00483041
11 *78:161 0.0222992
12 *78:159 0.0196819
13 *78:153 0.00857753
14 *78:151 0.00864659
15 *78:145 0.00594326
16 *78:143 0.00595932
17 *78:137 0.0068464
18 *78:135 0.00674475
19 *78:129 0.0126655
20 *78:127 0.0160079
21 *78:117 0.0104786
22 *78:111 0.0121888
23 *78:105 0.00869471
24 *78:103 0.00629801
25 *78:89 0.00875906
26 *78:87 0.0092863
27 *78:83 0.00551791
28 *78:73 0.00342927
29 *78:71 0.00610625
30 *78:63 0.00974607
31 *78:55 0.00674746
32 *78:47 0.00353496
33 *78:39 0.00572447
34 *78:25 0.00614535
35 *78:23 0.00509907
36 *78:13 0.008383
37 *78:11 0.00598384
38 *78:11 *99:23 0.00014374
39 *78:13 *86:11 0.000102437
40 *78:13 *86:13 0.00722186
41 *78:13 *87:13 0.00051061
42 *78:13 *95:11 0.000134854
43 *78:13 *99:23 0.00173353
44 *78:13 *108:15 0
45 *78:13 *137:29 0.0163891
46 *78:13 *139:21 0.00356837
47 *78:23 *104:23 0.000874527
48 *78:23 *359:41 0
49 *78:25 *357:27 0
50 *78:25 *378:27 0
51 *78:39 *732:7 0
52 *78:55 la_data_out[87] 0.00135576
53 *78:55 *694:7 0.00117932
54 *78:63 *653:7 0.0034717
55 *78:63 *654:7 0
56 *78:71 la_data_out[93] 0.00200054
57 *78:73 la_data_out[97] 0.00212517
58 *78:83 la_data_out[98] 0
59 *78:83 *721:7 0.00140988
60 *78:111 *115:153 0.00141647
61 *78:117 *115:163 0
62 *78:127 la_data_out[115] 0
63 *78:127 *140:21 0
64 *78:127 *296:19 0
65 *78:129 *699:19 0.000299594
66 *78:129 *705:23 0.000588681
67 *78:129 *730:19 0
68 *78:129 *738:19 0
69 *78:137 *141:17 0.0346381
70 *78:137 *648:11 0.0194405
71 *78:137 *681:11 0.00737151
72 *78:145 *112:17 0
73 *78:153 *115:211 0.0106108
74 *78:153 *648:11 0.00907241
75 *78:153 *671:17 0.0420438
76 *78:153 *674:13 0.00643208
77 *78:161 *115:219 0.0824574
78 *78:161 *685:25 0
79 *78:161 *715:19 0.0443207
80 *78:175 *679:11 0
81 *78:175 *682:11 0.000253973
82 *78:175 *732:25 0
83 *78:241 *116:179 0.00245025
84 *68:27 *78:13 0.000285779
85 *73:24 *78:145 0.0143723
86 *74:31 *78:129 0
87 *75:21 *78:241 0.00705537
88 *76:27 *78:241 0.00473793
89 *77:21 *78:13 0
90 *77:47 *78:39 0.00035694
91 *77:49 *78:47 0.0033298
92 *77:57 *78:55 0.000304083
93 *77:159 *78:175 0.00139514
94 *77:175 *78:183 9.89651e-05
95 *77:191 *78:195 0.000752171
96 *77:213 *78:221 0
97 *77:227 *78:239 0
98 *77:239 *78:241 0
99 *77:241 *78:241 0.0784482
*RES
1 *739:io_oeb_o[19] *78:11 8.85105 
2 *78:11 *78:13 216.571 
3 *78:13 *78:23 21.2943 
4 *78:23 *78:25 48.0893 
5 *78:25 *78:39 34.5886 
6 *78:39 *78:47 49.7605 
7 *78:47 *78:55 42.1865 
8 *78:55 *78:63 46.2676 
9 *78:63 *78:71 43.1993 
10 *78:71 *78:73 46.875 
11 *78:73 *78:83 39.2783 
12 *78:83 *78:87 14.267 
13 *78:87 *78:89 114.875 
14 *78:89 *78:103 44.1569 
15 *78:103 *78:105 63.875 
16 *78:105 *78:111 23.6585 
17 *78:111 *78:117 49.6082 
18 *78:117 *78:127 36.976 
19 *78:127 *78:129 244.196 
20 *78:129 *78:135 7.80387 
21 *78:135 *78:137 424.518 
22 *78:137 *78:143 7.948 
23 *78:143 *78:145 176.196 
24 *78:145 *78:151 8.02007 
25 *78:151 *78:153 514.982 
26 *78:153 *78:159 7.87593 
27 *78:159 *78:161 1031.05 
28 *78:161 *78:175 32.9005 
29 *78:175 *78:183 34.0775 
30 *78:183 *78:195 47.191 
31 *78:195 *78:205 46.7886 
32 *78:205 *78:221 48.7511 
33 *78:221 *78:231 27.8867 
34 *78:231 *78:239 32.1243 
35 *78:239 *78:241 185.979 
36 *78:241 io_oeb[19] 18.0439 
*END

*D_NET *79 0.271887
*CONN
*P io_oeb[1] O
*I *739:io_oeb_o[1] O *D ntt_wb_bridge
*CAP
1 io_oeb[1] 0.0459305
2 *739:io_oeb_o[1] 0.00108217
3 *79:24 0.0481498
4 *79:20 0.0117663
5 *79:14 0.0199242
6 *79:12 0.0114594
7 io_oeb[1] *727:9 0.000150004
8 *79:14 *83:17 0.0012851
9 *79:14 *84:17 0.00112493
10 *79:14 *85:13 0.00279792
11 *79:14 *95:13 0.00259637
12 *79:14 *96:14 0.0410024
13 *79:14 *98:14 0
14 *79:14 *101:15 0
15 *79:14 *104:15 0
16 *79:14 *350:35 0.000181816
17 *79:14 *352:23 0.00367848
18 *79:14 *357:31 0.0337386
19 *79:20 *115:35 0.000773531
20 *79:20 *117:19 0.0189599
21 *79:20 *359:41 0.00329055
22 *79:20 *656:9 0.000207921
23 *79:20 *693:11 0.000997825
24 *79:20 *695:15 0.000284346
25 *79:20 *696:11 0.000395891
26 *79:20 *722:13 0.000437196
27 *79:20 *729:9 0.000437196
28 *79:20 *731:9 0.000437196
29 *79:20 *735:9 0.000360771
30 *79:20 *736:6 0.00501594
31 *79:20 *737:9 0.000360771
32 *79:24 *727:9 0.000237214
33 *79:24 *736:6 0
34 *70:22 *79:14 0.00712364
35 *73:20 *79:14 0.00769945
*RES
1 *739:io_oeb_o[1] *79:12 9.75593 
2 *79:12 *79:14 73.555 
3 *79:14 *79:20 49.4324 
4 *79:20 *79:24 9.80513 
5 *79:24 io_oeb[1] 134.212 
*END

*D_NET *80 0.91107
*CONN
*P io_oeb[20] O
*I *739:io_oeb_o[20] O *D ntt_wb_bridge
*CAP
1 io_oeb[20] 0.000691211
2 *739:io_oeb_o[20] 0.000100363
3 *80:33 0.0155522
4 *80:31 0.014861
5 *80:29 0.0702739
6 *80:27 0.0702739
7 *80:25 0.01599
8 *80:23 0.0165011
9 *80:13 0.0157312
10 *80:11 0.0153205
11 *80:11 *99:23 5.56292e-05
12 *80:13 *87:13 0.061587
13 *80:13 *90:25 0.00010104
14 *80:13 *97:23 0.00644273
15 *80:13 *99:23 0.00186719
16 *80:13 *103:17 0.00011348
17 *80:13 *120:13 0
18 *80:13 *122:11 0.000117087
19 *80:13 *126:13 0.000109876
20 *80:13 *132:17 0.00010102
21 *80:13 *136:25 0.000119135
22 *80:13 *136:37 0.00397758
23 *80:13 *137:21 0.00205746
24 *80:13 *139:13 0.00438464
25 *80:23 *91:23 0.002618
26 *80:23 *97:41 3.29139e-05
27 *80:23 *136:53 0.00252614
28 *80:25 *91:23 0.0474434
29 *80:25 *97:41 0.000871572
30 *80:25 *119:51 0.00388838
31 *80:25 *123:25 0.000109422
32 *80:25 *136:65 9.52798e-05
33 *80:25 *136:67 0.0794522
34 *80:29 *120:29 0.247346
35 *80:29 *580:5 0
36 *80:29 *662:19 0.0933121
37 *80:33 io_oeb[22] 5.99199e-06
38 *80:33 io_out[22] 0.000525027
39 *80:33 *81:23 9.76285e-05
40 *80:33 *118:31 0.0707963
41 *80:33 *119:61 0.0454554
42 *75:11 *80:13 0.000164784
*RES
1 *739:io_oeb_o[20] *80:11 8.63762 
2 *80:11 *80:13 579.232 
3 *80:13 *80:23 14.2084 
4 *80:23 *80:25 132.397 
5 *80:25 *80:27 3.41 
6 *80:27 *80:29 3083.8 
7 *80:29 *80:31 3.41 
8 *80:31 *80:33 111.462 
9 *80:33 io_oeb[20] 17.4368 
*END

*D_NET *81 0.724294
*CONN
*P io_oeb[21] O
*I *739:io_oeb_o[21] O *D ntt_wb_bridge
*CAP
1 io_oeb[21] 0.000631798
2 *739:io_oeb_o[21] 0.000930464
3 *81:23 0.0105192
4 *81:21 0.00988744
5 *81:19 0.0759634
6 *81:17 0.0759634
7 *81:15 0.0573145
8 *81:13 0.058245
9 *81:13 *99:23 0.000136809
10 *81:15 *93:19 0.00491062
11 *81:15 *100:19 0.00612612
12 *81:15 *105:15 0.00279864
13 *81:15 *124:15 0.0151572
14 *81:15 *129:15 0.028089
15 *81:15 *129:23 0.0116955
16 *81:15 *131:15 0.0004136
17 *81:15 *132:17 0.000121064
18 *81:15 *132:19 0.0144782
19 *81:15 *133:25 0.000380414
20 *81:15 *143:15 0.00198875
21 *81:15 *345:43 0
22 *81:15 *346:35 0
23 *81:19 wbs_dat_o[14] 0
24 *81:19 *82:23 0.000281475
25 *81:19 *119:57 0
26 *81:19 *581:5 0.0172679
27 *81:19 *704:35 0.000189354
28 *81:19 *710:35 0.068956
29 *81:19 *716:27 0.00355391
30 *81:19 *717:27 0.00682215
31 *81:19 *725:27 0.0100456
32 *81:19 *733:43 0.175926
33 *81:19 *737:35 0.00045801
34 *81:19 *737:43 0.0135599
35 *81:23 io_out[22] 0.0129712
36 *81:23 *119:61 0.0372486
37 *71:21 *81:15 0
38 *72:25 *81:15 0
39 *77:13 *81:15 0.00116462
40 *80:33 *81:23 9.76285e-05
*RES
1 *739:io_oeb_o[21] *81:13 19.7636 
2 *81:13 *81:15 1354.25 
3 *81:15 *81:17 4.5 
4 *81:17 *81:19 3095.19 
5 *81:19 *81:21 3.41 
6 *81:21 *81:23 58.3489 
7 *81:23 io_oeb[21] 16.2225 
*END

*D_NET *82 0.661533
*CONN
*P io_oeb[22] O
*I *739:io_oeb_o[22] O *D ntt_wb_bridge
*CAP
1 io_oeb[22] 0.0029119
2 *739:io_oeb_o[22] 0.000261757
3 *82:25 0.125756
4 *82:23 0.123954
5 *82:13 0.0455127
6 *82:11 0.0446642
7 io_oeb[22] io_out[22] 0.00626614
8 *82:11 *86:13 0.000104274
9 *82:11 *99:23 0.000260013
10 *82:13 *86:13 0.0740775
11 *82:13 *87:13 0.0740794
12 *82:13 *87:21 0.0137675
13 *82:13 *97:41 0.000286769
14 *82:13 *99:23 0.00115778
15 *82:13 *103:17 0.000119155
16 *82:13 *117:11 0.000130095
17 *82:13 *119:51 0.000493636
18 *82:13 *119:53 0.000526672
19 *82:13 *122:11 0.000108583
20 *82:13 *136:37 0.00234819
21 *82:13 *136:53 0.000195841
22 *82:13 *137:21 0.00109794
23 *82:13 *139:13 0.000217146
24 *82:23 wbs_dat_o[14] 0
25 *82:23 *86:21 0.00107077
26 *82:23 *119:57 7.81859e-05
27 *82:25 *84:29 0.12204
28 *82:25 *91:27 0.00291608
29 *82:25 *92:27 0.00404483
30 *82:25 *93:23 0.0126451
31 *82:25 *580:5 0
32 *82:25 *675:15 0
33 *82:25 *734:35 0
34 *75:11 *82:13 0.000152816
35 *80:33 io_oeb[22] 5.99199e-06
36 *81:19 *82:23 0.000281475
*RES
1 *739:io_oeb_o[22] *82:11 8.92625 
2 *82:11 *82:13 1361.64 
3 *82:13 *82:23 18.2981 
4 *82:23 *82:25 3080.77 
5 *82:25 io_oeb[22] 29.2031 
*END

*D_NET *83 0.691051
*CONN
*P io_oeb[23] O
*I *739:io_oeb_o[23] O *D ntt_wb_bridge
*CAP
1 io_oeb[23] 0.000720918
2 *739:io_oeb_o[23] 0.00125548
3 *83:35 0.011213
4 *83:29 0.161339
5 *83:27 0.150847
6 *83:25 0.0150794
7 *83:23 0.0151457
8 *83:17 0.0131948
9 *83:15 0.0143841
10 *83:15 *99:23 4.46107e-05
11 *83:17 *84:17 0.0758395
12 *83:17 *96:14 0.000874867
13 *83:17 *342:45 0.00865138
14 *83:17 *343:39 0.000350219
15 *83:17 *349:39 0.0506474
16 *83:17 *350:35 0.000926199
17 *83:17 *351:39 0.000611631
18 *83:17 *352:23 0.00868899
19 *83:23 *84:23 6.75683e-05
20 *83:23 *85:19 8.661e-05
21 *83:23 *317:19 3.03595e-05
22 *83:23 *325:19 1.30914e-05
23 *83:25 *84:25 0.0745549
24 *83:25 *85:21 0.0768873
25 *83:25 *95:27 6.14836e-06
26 *83:25 *98:14 0
27 *83:25 *343:39 8.92921e-06
28 *83:29 wbs_dat_o[11] 0
29 *83:29 *546:5 0
30 *83:35 io_out[23] 0.00829657
31 *79:14 *83:17 0.0012851
*RES
1 *739:io_oeb_o[23] *83:15 25.6724 
2 *83:15 *83:17 717.232 
3 *83:17 *83:23 9.70464 
4 *83:23 *83:25 122.849 
5 *83:25 *83:27 3.41 
6 *83:27 *83:29 3096.55 
7 *83:29 *83:35 43.1886 
8 *83:35 io_oeb[23] 14.6339 
*END

*D_NET *84 0.827479
*CONN
*P io_oeb[24] O
*I *739:io_oeb_o[24] O *D ntt_wb_bridge
*CAP
1 io_oeb[24] 0.0150722
2 *739:io_oeb_o[24] 0.00128266
3 *84:37 0.074607
4 *84:35 0.0599191
5 *84:29 0.0246887
6 *84:27 0.0243043
7 *84:25 0.0272156
8 *84:23 0.0272349
9 *84:17 0.0094913
10 *84:15 0.0107547
11 *84:15 *99:23 5.52631e-05
12 *84:17 *85:13 0.0769296
13 *84:17 *96:14 0.00114038
14 *84:17 *342:45 0.00933737
15 *84:17 *343:39 0.000305843
16 *84:17 *348:51 2.56811e-05
17 *84:17 *349:39 2.38501e-05
18 *84:17 *352:23 0.00520122
19 *84:23 *317:19 6.92285e-05
20 *84:25 *98:14 0
21 *84:25 *343:39 0.000598855
22 *84:29 *86:25 0.102562
23 *84:29 *87:25 9.58561e-05
24 *84:29 *93:23 0.0139312
25 *84:29 *121:23 4.43299e-05
26 *84:29 *547:5 0
27 *84:29 *580:5 0
28 *84:35 io_oeb[30] 0
29 *84:37 *86:33 0.0105398
30 *84:37 *87:33 0.0584199
31 *79:14 *84:17 0.00112493
32 *82:25 *84:29 0.12204
33 *83:17 *84:17 0.0758395
34 *83:23 *84:23 6.75683e-05
35 *83:25 *84:25 0.0745549
*RES
1 *739:io_oeb_o[24] *84:15 25.8077 
2 *84:15 *84:17 728.321 
3 *84:17 *84:23 8.79393 
4 *84:23 *84:25 119.101 
5 *84:25 *84:27 3.41 
6 *84:27 *84:29 1516.77 
7 *84:29 *84:35 7.76783 
8 *84:35 *84:37 244.328 
9 *84:37 io_oeb[24] 48.6914 
*END

*D_NET *85 0.67857
*CONN
*P io_oeb[25] O
*I *739:io_oeb_o[25] O *D ntt_wb_bridge
*CAP
1 io_oeb[25] 0.0133812
2 *739:io_oeb_o[25] 0.00151564
3 *85:25 0.161605
4 *85:23 0.148224
5 *85:21 0.0187075
6 *85:19 0.0187904
7 *85:13 0.00982559
8 *85:11 0.0112583
9 *85:11 *99:23 0.000218588
10 *85:11 *137:27 0
11 *85:13 *95:13 0.0779905
12 *85:13 *96:14 0.00177743
13 *85:13 *341:53 0.00829328
14 *85:13 *342:45 0.000359477
15 *85:13 *348:51 0.000247765
16 *85:13 *357:31 0.00379785
17 *85:19 *317:19 9.65999e-06
18 *85:19 *325:19 5.84602e-05
19 *85:21 *93:19 0.0392049
20 *85:21 *95:27 1.75318e-05
21 *85:21 *98:14 0
22 *85:21 *131:15 0.00119192
23 *85:25 *89:25 0
24 *85:25 *545:5 0.00539299
25 *79:14 *85:13 0.00279792
26 *83:23 *85:19 8.661e-05
27 *83:25 *85:21 0.0768873
28 *84:17 *85:13 0.0769296
*RES
1 *739:io_oeb_o[25] *85:11 24.9654 
2 *85:11 *85:13 742.286 
3 *85:13 *85:19 9.70464 
4 *85:19 *85:21 125.191 
5 *85:21 *85:23 3.41 
6 *85:23 *85:25 469.433 
7 *85:25 io_oeb[25] 43.6467 
*END

*D_NET *86 0.757811
*CONN
*P io_oeb[26] O
*I *739:io_oeb_o[26] O *D ntt_wb_bridge
*CAP
1 io_oeb[26] 0.0162076
2 *739:io_oeb_o[26] 0.00021283
3 *86:33 0.0533299
4 *86:31 0.0373734
5 *86:25 0.0203689
6 *86:23 0.0201178
7 *86:21 0.0295582
8 *86:19 0.029615
9 *86:13 0.0128202
10 *86:11 0.0129762
11 *86:11 *99:23 0.000211867
12 *86:11 *137:29 0.000118855
13 *86:13 *87:13 0.00252647
14 *86:13 *97:41 0.000220834
15 *86:13 *99:23 0.00169499
16 *86:13 *110:11 0.000101623
17 *86:13 *119:13 0.0161761
18 *86:13 *119:31 0.00466027
19 *86:13 *136:37 0.000686842
20 *86:13 *136:53 0.000170243
21 *86:13 *137:21 0.0033468
22 *86:13 *139:13 0.00024257
23 *86:13 *139:21 0.0157398
24 *86:19 *323:23 8.18599e-05
25 *86:19 *327:39 0.000161255
26 *86:21 *97:59 0.00909927
27 *86:21 *132:27 0.0577148
28 *86:25 *87:25 0.0839289
29 *86:25 *92:27 0.0293225
30 *86:31 io_oeb[31] 5.76069e-05
31 *86:33 *87:33 0.0785594
32 *86:33 *129:27 0.0247292
33 *86:33 *661:11 0
34 *78:13 *86:11 0.000102437
35 *78:13 *86:13 0.00722186
36 *82:11 *86:13 0.000104274
37 *82:13 *86:13 0.0740775
38 *82:23 *86:21 0.00107077
39 *84:29 *86:25 0.102562
40 *84:37 *86:33 0.0105398
*RES
1 *739:io_oeb_o[26] *86:11 9.02965 
2 *86:11 *86:13 739.411 
3 *86:13 *86:19 10.0082 
4 *86:19 *86:21 120.254 
5 *86:21 *86:23 3.41 
6 *86:23 *86:25 1258.73 
7 *86:25 *86:31 7.4075 
8 *86:31 *86:33 204.698 
9 *86:33 io_oeb[26] 48.9796 
*END

*D_NET *87 0.752518
*CONN
*P io_oeb[27] O
*I *739:io_oeb_o[27] O *D ntt_wb_bridge
*CAP
1 io_oeb[27] 0.015242
2 *739:io_oeb_o[27] 0.000238941
3 *87:33 0.044513
4 *87:31 0.0295167
5 *87:25 0.0321604
6 *87:23 0.0319148
7 *87:21 0.0149663
8 *87:19 0.0149781
9 *87:13 0.0123501
10 *87:11 0.0125772
11 *87:11 *99:23 0.00021581
12 *87:13 *97:23 0
13 *87:13 *97:41 0.000370056
14 *87:13 *99:23 0.00277999
15 *87:13 *103:17 0.000130784
16 *87:13 *108:15 0
17 *87:13 *117:11 0.000130095
18 *87:13 *119:51 0.000453866
19 *87:13 *120:13 0
20 *87:13 *122:11 0.000108583
21 *87:13 *136:25 0.000103563
22 *87:13 *136:37 0.00340474
23 *87:13 *136:53 0.000214955
24 *87:13 *136:65 0.00384288
25 *87:13 *136:67 0.000584916
26 *87:13 *137:21 0.00112709
27 *87:13 *139:13 0.000217146
28 *87:19 *323:23 9.59532e-06
29 *87:19 *327:39 1.90936e-05
30 *87:21 *97:59 0.00128555
31 *87:21 *119:53 0.0744013
32 *87:21 *136:67 0.0431233
33 *87:25 *92:27 0.0272921
34 *87:25 *547:5 0
35 *87:31 io_oeb[32] 0.000122954
36 *87:33 *129:27 0.0103901
37 *74:25 *87:13 0.000104274
38 *75:11 *87:13 0.000152816
39 *77:21 *87:13 0
40 *78:13 *87:13 0.00051061
41 *80:13 *87:13 0.061587
42 *82:13 *87:13 0.0740794
43 *82:13 *87:21 0.0137675
44 *84:29 *87:25 9.58561e-05
45 *84:37 *87:33 0.0584199
46 *86:13 *87:13 0.00252647
47 *86:25 *87:25 0.0839289
48 *86:33 *87:33 0.0785594
*RES
1 *739:io_oeb_o[27] *87:11 8.78525 
2 *87:11 *87:13 751.732 
3 *87:13 *87:19 8.18679 
4 *87:19 *87:21 120.326 
5 *87:21 *87:23 3.41 
6 *87:23 *87:25 1032.88 
7 *87:25 *87:31 7.47957 
8 *87:31 *87:33 203.952 
9 *87:33 io_oeb[27] 48.8355 
*END

*D_NET *88 0.627744
*CONN
*P io_oeb[28] O
*I *739:io_oeb_o[28] O *D ntt_wb_bridge
*CAP
1 io_oeb[28] 0.0131819
2 *739:io_oeb_o[28] 0.000334714
3 *88:27 0.123685
4 *88:25 0.110503
5 *88:23 0.0140176
6 *88:21 0.0140841
7 *88:15 0.00982481
8 *88:13 0.010093
9 *88:13 *99:23 9.69978e-05
10 *88:15 *89:13 0.0754752
11 *88:15 *91:23 0.000152412
12 *88:15 *102:19 0.00528341
13 *88:15 *113:15 0.0152241
14 *88:15 *118:23 0.00193186
15 *88:15 *120:13 0.0249593
16 *88:15 *121:13 0.000386371
17 *88:15 *142:17 0.000249486
18 *88:15 *142:19 0.00807664
19 *88:15 *142:27 0.0237227
20 *88:23 *91:23 0.000716897
21 *88:23 *118:23 0.0807715
22 *88:23 *121:23 0.00584464
23 *88:23 *133:27 0.0879451
24 *88:27 *544:5 0.00118273
*RES
1 *739:io_oeb_o[28] *88:13 11.2103 
2 *88:13 *88:15 716.411 
3 *88:15 *88:21 8.79393 
4 *88:21 *88:23 137.874 
5 *88:23 *88:25 3.41 
6 *88:25 *88:27 345.002 
7 *88:27 io_oeb[28] 40.4758 
*END

*D_NET *89 0.597218
*CONN
*P io_oeb[29] O
*I *739:io_oeb_o[29] O *D ntt_wb_bridge
*CAP
1 io_oeb[29] 0.0132076
2 *739:io_oeb_o[29] 0.000313343
3 *89:25 0.10935
4 *89:23 0.0961427
5 *89:21 0.014242
6 *89:19 0.0143688
7 *89:13 0.0120501
8 *89:11 0.0122365
9 *89:11 *99:23 5.40795e-05
10 *89:13 *102:19 0.00527729
11 *89:13 *114:13 0.0100432
12 *89:13 *115:31 0.00570663
13 *89:13 *118:23 0.00178107
14 *89:13 *121:13 0.0256583
15 *89:13 *122:13 0.000314648
16 *89:13 *123:15 0.000641641
17 *89:13 *133:27 0.000370196
18 *89:13 *142:19 0.0091764
19 *89:13 *142:27 0.00072385
20 *89:21 *92:23 0.00253155
21 *89:21 *106:13 0.000799627
22 *89:21 *120:21 0.0725517
23 *89:21 *120:27 0.00112945
24 *89:21 *122:23 0.0048551
25 *89:21 *133:27 0.0873265
26 *89:25 wbs_dat_o[10] 0.0208908
27 *85:25 *89:25 0
28 *88:15 *89:13 0.0754752
*RES
1 *739:io_oeb_o[29] *89:11 11.9832 
2 *89:11 *89:13 722.161 
3 *89:13 *89:19 9.70464 
4 *89:19 *89:21 136.866 
5 *89:21 *89:23 3.41 
6 *89:23 *89:25 304.413 
7 *89:25 io_oeb[29] 42.6378 
*END

*D_NET *90 0.386124
*CONN
*P io_oeb[2] O
*I *739:io_oeb_o[2] O *D ntt_wb_bridge
*CAP
1 io_oeb[2] 0.000836336
2 *739:io_oeb_o[2] 0.0023073
3 *90:31 0.0155698
4 *90:29 0.0147334
5 *90:27 0.0195395
6 *90:25 0.0218468
7 *90:25 *92:23 0.00358849
8 *90:25 *99:21 0.0055805
9 *90:25 *109:13 0.000135196
10 *90:25 *110:13 0.00125028
11 *90:25 *137:21 0.000554829
12 *90:25 *141:13 0.000155726
13 *90:27 *99:23 0
14 *90:27 *100:27 0.0965148
15 *90:27 *102:19 0.0151583
16 *90:27 *115:31 0.00548134
17 *90:27 *128:29 0.123554
18 *90:27 *142:19 6.58294e-06
19 *90:31 *99:27 0.0387201
20 *90:31 *100:31 0.000140919
21 *90:31 *128:33 0.0030732
22 *90:31 *137:33 0.00828684
23 io_oeb[0] *90:31 0.00855764
24 *68:19 *90:25 0.000431011
25 *68:27 *90:27 0
26 *80:13 *90:25 0.00010104
*RES
1 *739:io_oeb_o[2] *90:25 32.3079 
2 *90:25 *90:27 193.186 
3 *90:27 *90:29 3.41 
4 *90:29 *90:31 81.3319 
5 *90:31 io_oeb[2] 5.73963 
*END

*D_NET *91 0.636141
*CONN
*P io_oeb[30] O
*I *739:io_oeb_o[30] O *D ntt_wb_bridge
*CAP
1 io_oeb[30] 0.0155229
2 *739:io_oeb_o[30] 0.000456105
3 *91:27 0.0462787
4 *91:25 0.0307558
5 *91:23 0.0171824
6 *91:21 0.0173828
7 *91:15 0.0212806
8 *91:13 0.0215363
9 *91:13 *99:23 0.000112339
10 *91:15 *106:13 0.0163401
11 *91:15 *107:35 0.0548601
12 *91:15 *109:13 0
13 *91:15 *110:13 0
14 *91:15 *114:13 0.000504051
15 *91:15 *118:15 0.0128557
16 *91:21 *143:13 0
17 *91:23 *97:41 0.00109218
18 *91:23 *118:23 0.090524
19 *91:23 *119:27 0.000453319
20 *91:23 *121:23 0.000268159
21 *91:23 *123:25 0.000975694
22 *91:23 *133:27 0.000285704
23 *91:23 *136:53 0.000825564
24 *91:23 *142:17 0.000778117
25 *91:27 *92:27 0.106212
26 *91:27 *129:27 0.125812
27 *91:27 *661:11 0
28 *80:23 *91:23 0.002618
29 *80:25 *91:23 0.0474434
30 *82:25 *91:27 0.00291608
31 *84:35 io_oeb[30] 0
32 *88:15 *91:23 0.000152412
33 *88:23 *91:23 0.000716897
*RES
1 *739:io_oeb_o[30] *91:13 13.351 
2 *91:13 *91:15 645.357 
3 *91:15 *91:21 10.6154 
4 *91:21 *91:23 145.369 
5 *91:23 *91:25 3.41 
6 *91:25 *91:27 263.184 
7 *91:27 io_oeb[30] 49.2679 
*END

*D_NET *92 0.652023
*CONN
*P io_oeb[31] O
*I *739:io_oeb_o[31] O *D ntt_wb_bridge
*CAP
1 io_oeb[31] 0.0155908
2 *739:io_oeb_o[31] 0.00100062
3 *92:27 0.0457249
4 *92:25 0.0301341
5 *92:23 0.0323716
6 *92:21 0.0333722
7 *92:21 *99:23 0.000469192
8 *92:21 *100:27 0.000314987
9 *92:21 *115:31 0.000555446
10 *92:21 *142:27 0.000795552
11 *92:23 *99:21 0.000993044
12 *92:23 *106:13 0.000771706
13 *92:23 *110:13 0.00199164
14 *92:23 *116:27 0.00523939
15 *92:23 *117:13 0.0811701
16 *92:23 *120:21 0.0408698
17 *92:23 *120:27 0.00209418
18 *92:23 *122:23 0.000298641
19 *92:23 *124:23 0.0332506
20 *92:23 *126:25 0.000699445
21 *92:23 *130:15 0.00402155
22 *92:23 *134:15 0.0497255
23 *92:23 *136:25 0.000813546
24 *92:23 *140:13 0.000364443
25 *92:27 *93:23 0.0869716
26 *92:27 *129:27 0.000175725
27 *92:27 *650:35 2.74131e-05
28 *92:27 *661:11 0
29 *68:17 *92:23 0.000136361
30 *68:19 *92:23 0.00280288
31 *74:25 *92:23 0.000589918
32 *76:17 *92:23 5.40377e-05
33 *76:19 *92:23 0.0055826
34 *82:25 *92:27 0.00404483
35 *86:25 *92:27 0.0293225
36 *86:31 io_oeb[31] 5.76069e-05
37 *87:25 *92:27 0.0272921
38 *89:21 *92:23 0.00253155
39 *90:25 *92:23 0.00358849
40 *91:27 *92:27 0.106212
*RES
1 *739:io_oeb_o[31] *92:21 37.2825 
2 *92:21 *92:23 257.433 
3 *92:23 *92:25 3.41 
4 *92:25 *92:27 223.021 
5 *92:27 io_oeb[31] 49.412 
*END

*D_NET *93 0.540739
*CONN
*P io_oeb[32] O
*I *739:io_oeb_o[32] O *D ntt_wb_bridge
*CAP
1 io_oeb[32] 0.0165655
2 *739:io_oeb_o[32] 0.00103489
3 *93:23 0.0546355
4 *93:21 0.03807
5 *93:19 0.0434265
6 *93:17 0.0444614
7 *93:17 *96:14 2.41391e-05
8 *93:17 *99:23 0.000169435
9 *93:17 *104:15 0.000189974
10 *93:19 *95:27 8.04541e-05
11 *93:19 *96:14 0.0263709
12 *93:19 *100:17 1.57978e-05
13 *93:19 *100:19 0.0160945
14 *93:19 *104:15 0.000915701
15 *93:19 *131:15 0.118862
16 *93:19 *132:17 0.000179959
17 *93:19 *132:19 5.39976e-05
18 *93:19 *133:25 0.000305057
19 *93:19 *137:19 0.00841465
20 *93:19 *140:13 0.00149688
21 *93:23 *129:27 0.000118681
22 *93:23 *580:5 0.00204271
23 *93:23 *650:35 0.00905167
24 *93:23 *661:11 2.71848e-05
25 *71:19 *93:19 0.000107875
26 *72:23 *93:19 6.9913e-05
27 *73:18 *93:19 0.000167804
28 *81:15 *93:19 0.00491062
29 *82:25 *93:23 0.0126451
30 *84:29 *93:23 0.0139312
31 *85:21 *93:19 0.0392049
32 *87:31 io_oeb[32] 0.000122954
33 *92:27 *93:23 0.0869716
*RES
1 *739:io_oeb_o[32] *93:17 19.4348 
2 *93:17 *93:19 261.793 
3 *93:19 *93:21 3.41 
4 *93:21 *93:23 183.284 
5 *93:23 io_oeb[32] 49.5562 
*END

*D_NET *94 0.386217
*CONN
*P io_oeb[33] O
*I *739:io_oeb_o[33] O *D ntt_wb_bridge
*CAP
1 io_oeb[33] 0.0170239
2 *739:io_oeb_o[33] 0.00183775
3 *94:23 0.0170239
4 *94:21 0.0451901
5 *94:19 0.0451901
6 *94:17 0.0536852
7 *94:15 0.0555229
8 *94:15 *99:23 8.66508e-05
9 *94:17 *98:14 0.0479538
10 *94:17 *138:13 0.0825954
11 *94:17 *334:43 0
12 *94:17 *337:61 0
13 *94:17 *344:23 0.0125789
14 *94:21 *683:13 0.000539847
15 *94:21 *688:11 0.000436037
16 *94:21 *688:21 0.000552553
17 *94:21 *701:27 0.00523338
18 *94:21 *725:27 4.08339e-05
19 *94:21 *726:27 0.000725924
*RES
1 *739:io_oeb_o[33] *94:15 11.1894 
2 *94:15 *94:17 261.361 
3 *94:17 *94:19 3.41 
4 *94:19 *94:21 143.867 
5 *94:21 *94:23 3.41 
6 *94:23 io_oeb[33] 48.8847 
*END

*D_NET *95 0.462211
*CONN
*P io_oeb[34] O
*I *739:io_oeb_o[34] O *D ntt_wb_bridge
*CAP
1 io_oeb[34] 0.0437261
2 *739:io_oeb_o[34] 0.0013894
3 *95:31 0.0437261
4 *95:29 0.0134705
5 *95:27 0.0154675
6 *95:13 0.0166496
7 *95:11 0.0160421
8 io_oeb[34] *611:7 0
9 io_oeb[34] *612:7 0.0738248
10 *95:11 *99:23 0.000336374
11 *95:11 *137:29 0.000117228
12 *95:13 *96:14 0.00204467
13 *95:13 *341:53 0.00895122
14 *95:13 *342:45 0.000313892
15 *95:13 *348:51 0.0484554
16 *95:13 *357:31 0.00811778
17 *95:27 *96:14 4.926e-05
18 *95:27 *272:25 0.00185831
19 *95:27 *283:25 0.00184526
20 *95:27 *323:23 2.06112e-05
21 *95:27 *327:39 7.69776e-06
22 *95:27 *341:53 0.000246415
23 *95:27 *343:39 9.13835e-05
24 *95:29 *272:25 0.0163999
25 *95:29 *283:25 0.0446889
26 *70:22 *95:13 0.000949572
27 *71:21 *95:13 0.000385683
28 *73:20 *95:13 0.0222095
29 *78:13 *95:11 0.000134854
30 *79:14 *95:13 0.00259637
31 *83:25 *95:27 6.14836e-06
32 *85:13 *95:13 0.0779905
33 *85:21 *95:27 1.75318e-05
34 *93:19 *95:27 8.04541e-05
*RES
1 *739:io_oeb_o[34] *95:11 25.0222 
2 *95:11 *95:13 826.071 
3 *95:13 *95:27 20.5879 
4 *95:27 *95:29 94.1943 
5 *95:29 *95:31 3.41 
6 *95:31 io_oeb[34] 165.2 
*END

*D_NET *96 0.378368
*CONN
*P io_oeb[35] O
*I *739:io_oeb_o[35] O *D ntt_wb_bridge
*CAP
1 io_oeb[35] 0.0435639
2 *739:io_oeb_o[35] 0.00121489
3 *96:24 0.0468085
4 *96:18 0.0185017
5 *96:16 0.0152571
6 *96:14 0.0260213
7 *96:12 0.0272362
8 io_oeb[35] *605:9 0
9 io_oeb[35] *606:9 0.0215379
10 *96:14 *98:14 0
11 *96:14 *104:15 0
12 *96:14 *135:14 0
13 *96:14 *137:19 0.00450096
14 *96:14 *341:53 0.0213524
15 *96:14 *342:45 0.000577162
16 *96:14 *343:39 0.000385615
17 *96:14 *345:43 0.0101216
18 *96:14 *346:35 0.00974459
19 *96:14 *347:43 0.0100933
20 *96:14 *348:51 0.0112699
21 *96:18 *311:25 0.0105407
22 *96:18 *327:39 0.00621335
23 *96:18 *342:41 0.00668801
24 *96:24 *605:9 0.00146574
25 *96:24 *606:9 0
26 *71:19 *96:14 0.000226189
27 *71:21 *96:14 0.00543746
28 *72:23 *96:14 0.000144221
29 *72:25 *96:14 0.00585669
30 *73:18 *96:14 0.000324656
31 *79:14 *96:14 0.0410024
32 *83:17 *96:14 0.000874867
33 *84:17 *96:14 0.00114038
34 *85:13 *96:14 0.00177743
35 *93:17 *96:14 2.41391e-05
36 *93:19 *96:14 0.0263709
37 *95:13 *96:14 0.00204467
38 *95:27 *96:14 4.926e-05
*RES
1 *739:io_oeb_o[35] *96:12 9.6494 
2 *96:12 *96:14 147.928 
3 *96:14 *96:16 3.41 
4 *96:16 *96:18 60.8775 
5 *96:18 *96:24 13.374 
6 *96:24 io_oeb[35] 156.552 
*END

*D_NET *97 0.433989
*CONN
*P io_oeb[36] O
*I *739:io_oeb_o[36] O *D ntt_wb_bridge
*CAP
1 io_oeb[36] 0.00686241
2 *739:io_oeb_o[36] 0.000666915
3 *97:59 0.030065
4 *97:57 0.0232605
5 *97:51 0.00192608
6 *97:41 0.00368645
7 *97:23 0.0165184
8 *97:21 0.0152218
9 *97:15 0.00264514
10 *97:13 0.00279043
11 io_oeb[36] *123:27 0.00432356
12 io_oeb[36] *123:33 0
13 io_oeb[36] *124:27 0.00153121
14 io_oeb[36] *125:27 0
15 io_oeb[36] *132:31 0.0131331
16 io_oeb[36] *133:31 2.26355e-05
17 *97:13 *99:23 9.60257e-05
18 *97:15 *112:13 0.0180083
19 *97:15 *141:13 0.0180047
20 *97:23 *103:17 0.000132088
21 *97:23 *108:15 0.0550698
22 *97:23 *120:13 0.000557399
23 *97:23 *137:21 0.0115158
24 *97:23 *139:13 2.51343e-06
25 *97:23 *142:17 0.000213386
26 *97:41 *119:27 0.000775243
27 *97:41 *119:31 0.000114806
28 *97:41 *119:51 8.22793e-06
29 *97:41 *136:37 0.00419904
30 *97:41 *136:53 0.00489863
31 *97:41 *137:19 0.000134564
32 *97:41 *138:11 4.63962e-05
33 *97:41 *139:13 0.000802209
34 *97:41 *140:11 5.08737e-05
35 *97:41 *142:17 0.00147815
36 *97:51 *119:51 0.00177967
37 *97:51 *120:13 0
38 *97:51 *136:65 0.0021185
39 *97:57 *119:51 0.000101764
40 *97:59 *119:53 0.0753437
41 *97:59 *132:27 0.0847394
42 *97:59 *136:67 0.00733643
43 *68:19 *97:15 0.00410539
44 *80:13 *97:23 0.00644273
45 *80:23 *97:41 3.29139e-05
46 *80:25 *97:41 0.000871572
47 *82:13 *97:41 0.000286769
48 *86:13 *97:41 0.000220834
49 *86:21 *97:59 0.00909927
50 *87:13 *97:23 0
51 *87:13 *97:41 0.000370056
52 *87:21 *97:59 0.00128555
53 *91:23 *97:41 0.00109218
*RES
1 *739:io_oeb_o[36] *97:13 16.9688 
2 *97:13 *97:15 169.339 
3 *97:15 *97:21 16.4107 
4 *97:21 *97:23 535.696 
5 *97:23 *97:41 30.602 
6 *97:41 *97:51 47.8014 
7 *97:51 *97:57 8.58786 
8 *97:57 *97:59 167.422 
9 *97:59 io_oeb[36] 37.1146 
*END

*D_NET *98 0.308619
*CONN
*P io_oeb[37] O
*I *739:io_oeb_o[37] O *D ntt_wb_bridge
*CAP
1 io_oeb[37] 0.00110596
2 *739:io_oeb_o[37] 0.00164791
3 *98:14 0.06355
4 *98:12 0.0640919
5 *98:14 *135:14 0.0296052
6 *98:14 *138:13 0.0875588
7 *98:14 *343:39 5.34258e-05
8 *98:14 *352:23 0
9 *98:14 *353:27 0.000716076
10 *69:17 *98:14 0.0123363
11 *79:14 *98:14 0
12 *83:25 *98:14 0
13 *84:25 *98:14 0
14 *85:21 *98:14 0
15 *94:17 *98:14 0.0479538
16 *96:14 *98:14 0
*RES
1 *739:io_oeb_o[37] *98:12 10.6145 
2 *98:12 *98:14 315.987 
3 *98:14 io_oeb[37] 3.59863 
*END

*D_NET *99 0.351548
*CONN
*P io_oeb[3] O
*I *739:io_oeb_o[3] O *D ntt_wb_bridge
*CAP
1 io_oeb[3] 0.000914599
2 *739:io_oeb_o[3] 0.00255972
3 *99:27 0.0126118
4 *99:25 0.0116972
5 *99:23 0.0346948
6 *99:21 0.0372546
7 *99:21 *109:13 0.00177147
8 *99:21 *110:13 0.000518444
9 *99:21 *137:21 5.72741e-05
10 *99:21 *141:13 0.0016428
11 *99:23 *100:27 0.00280797
12 *99:23 *102:19 1.1537e-05
13 *99:23 *102:25 0.00269705
14 *99:23 *103:19 0.0263995
15 *99:23 *103:35 0.00187273
16 *99:23 *108:15 0.00217836
17 *99:23 *137:21 0.0187418
18 *99:23 *137:29 0.00103903
19 *99:27 *100:31 0.0536578
20 *99:27 *104:27 0.0116651
21 *99:27 *140:25 0.0110132
22 *99:27 *143:27 0.00996112
23 *68:19 *99:21 0.00826466
24 *68:27 *99:23 0.0316044
25 *69:15 *99:21 0
26 *69:15 *99:23 7.9537e-05
27 *71:19 *99:23 0.000187348
28 *72:23 *99:23 8.42714e-05
29 *74:25 *99:23 0.000500536
30 *75:11 *99:23 0.000460054
31 *76:17 *99:23 0.000126606
32 *77:11 *99:23 0.000154685
33 *77:31 *99:23 0.00702732
34 *78:11 *99:23 0.00014374
35 *78:13 *99:23 0.00173353
36 *80:11 *99:23 5.56292e-05
37 *80:13 *99:23 0.00186719
38 *81:13 *99:23 0.000136809
39 *82:11 *99:23 0.000260013
40 *82:13 *99:23 0.00115778
41 *83:15 *99:23 4.46107e-05
42 *84:15 *99:23 5.52631e-05
43 *85:11 *99:23 0.000218588
44 *86:11 *99:23 0.000211867
45 *86:13 *99:23 0.00169499
46 *87:11 *99:23 0.00021581
47 *87:13 *99:23 0.00277999
48 *88:13 *99:23 9.69978e-05
49 *89:11 *99:23 5.40795e-05
50 *90:25 *99:21 0.0055805
51 *90:27 *99:23 0
52 *90:31 *99:27 0.0387201
53 *91:13 *99:23 0.000112339
54 *92:21 *99:23 0.000469192
55 *92:23 *99:21 0.000993044
56 *93:17 *99:23 0.000169435
57 *94:15 *99:23 8.66508e-05
58 *95:11 *99:23 0.000336374
59 *97:13 *99:23 9.60257e-05
*RES
1 *739:io_oeb_o[3] *99:21 36.3297 
2 *99:21 *99:23 188.862 
3 *99:23 *99:25 3.41 
4 *99:25 *99:27 111.907 
5 *99:27 io_oeb[3] 5.88377 
*END

*D_NET *100 0.452416
*CONN
*P io_oeb[4] O
*I *739:io_oeb_o[4] O *D ntt_wb_bridge
*CAP
1 io_oeb[4] 0.000998775
2 *739:io_oeb_o[4] 0.000912033
3 *100:31 0.0309225
4 *100:29 0.0299238
5 *100:27 0.0163704
6 *100:25 0.0170715
7 *100:19 0.00773403
8 *100:17 0.00794493
9 *100:17 *137:21 0.000122527
10 *100:17 *140:13 9.68775e-05
11 *100:19 *101:15 0.00175929
12 *100:19 *104:15 0.0258091
13 *100:19 *140:13 0.000423126
14 *100:27 *102:19 0.0757724
15 *100:27 *102:25 1.53584e-05
16 *100:27 *103:35 0.00308895
17 *100:27 *111:15 0.000373202
18 *100:27 *114:23 0.000658393
19 *100:27 *142:27 0.00170879
20 *100:31 *101:27 0.00627178
21 *100:31 *107:39 0.0147278
22 *100:31 *108:19 0.0294185
23 *100:31 *140:25 0.00461945
24 *81:15 *100:19 0.00612612
25 *90:27 *100:27 0.0965148
26 *90:31 *100:31 0.000140919
27 *92:21 *100:27 0.000314987
28 *93:19 *100:17 1.57978e-05
29 *93:19 *100:19 0.0160945
30 *99:23 *100:27 0.00280797
31 *99:27 *100:31 0.0536578
*RES
1 *739:io_oeb_o[4] *100:17 17.5037 
2 *100:17 *100:19 48.5479 
3 *100:19 *100:25 8.25193 
4 *100:25 *100:27 150.955 
5 *100:27 *100:29 3.41 
6 *100:29 *100:31 143.654 
7 *100:31 io_oeb[4] 6.0279 
*END

*D_NET *101 0.406864
*CONN
*P io_oeb[5] O
*I *739:io_oeb_o[5] O *D ntt_wb_bridge
*CAP
1 io_oeb[5] 0.000913754
2 *739:io_oeb_o[5] 0.000916643
3 *101:27 0.00860236
4 *101:23 0.051247
5 *101:21 0.0435583
6 *101:19 0.0440871
7 *101:17 0.0440871
8 *101:15 0.00770627
9 *101:13 0.00862291
10 *101:13 *137:21 0.000328482
11 *101:15 *104:15 0.0369559
12 *101:15 *105:15 0.0112272
13 *101:15 *140:13 0.0438968
14 *101:15 *143:15 0.00909811
15 *101:15 *357:31 0
16 *101:19 *739:mem_rdata_i[11] 0.00944161
17 *101:19 *284:17 0.0136471
18 *101:19 *360:31 0.00487512
19 *101:19 *367:27 0.00922461
20 *101:19 *369:19 0.00487512
21 *101:19 *373:17 0.00852214
22 *101:19 *649:15 0.000824768
23 *101:19 *689:27 0
24 *101:19 *737:11 0
25 *101:23 *358:25 0.00137642
26 *101:23 *362:23 0.000212929
27 *101:23 *651:15 0
28 *101:23 *664:27 0.000110042
29 *101:23 *670:13 0
30 *101:23 *676:27 0.000143439
31 *101:27 *104:27 0.00508976
32 *101:27 *107:39 0.00107995
33 *101:27 *108:19 0.00241611
34 *101:27 *140:25 0.0212039
35 *101:27 *143:27 0.00454205
36 *79:14 *101:15 0
37 *100:19 *101:15 0.00175929
38 *100:31 *101:27 0.00627178
*RES
1 *739:io_oeb_o[5] *101:13 17.405 
2 *101:13 *101:15 68.6184 
3 *101:15 *101:17 3.41 
4 *101:17 *101:19 131.829 
5 *101:19 *101:21 3.41 
6 *101:21 *101:23 128.902 
7 *101:23 *101:27 47.6683 
8 *101:27 io_oeb[5] 5.88377 
*END

*D_NET *102 0.470702
*CONN
*P io_oeb[6] O
*I *739:io_oeb_o[6] O *D ntt_wb_bridge
*CAP
1 io_oeb[6] 0.00932702
2 *739:io_oeb_o[6] 0.000595167
3 *102:27 0.0579771
4 *102:25 0.0498057
5 *102:19 0.0182409
6 *102:17 0.0176804
7 *102:17 *137:21 0.000328362
8 *102:19 *103:17 0.000407857
9 *102:19 *103:19 0.099548
10 *102:19 *103:35 0.00136056
11 *102:19 *111:15 0.000236206
12 *102:19 *113:15 0.000271721
13 *102:19 *137:21 0.000493662
14 *102:19 *142:19 0.00147883
15 *102:19 *142:27 0.0209504
16 *102:25 *103:35 0.0047451
17 *102:25 *108:15 0.000661292
18 *102:27 *113:19 0.00415041
19 *102:27 *115:203 0.00764591
20 *102:27 *659:15 0.00271271
21 *102:27 *665:21 0.00890787
22 *102:27 *669:11 0.00063521
23 *102:27 *669:17 0.00495008
24 *102:27 *680:11 0.0439343
25 *102:27 *686:21 0.0044257
26 *75:17 *102:27 0.00250811
27 *76:23 *102:27 0.00250811
28 *88:15 *102:19 0.00528341
29 *89:13 *102:19 0.00527729
30 *90:27 *102:19 0.0151583
31 *99:23 *102:19 1.1537e-05
32 *99:23 *102:25 0.00269705
33 *100:27 *102:19 0.0757724
34 *100:27 *102:25 1.53584e-05
*RES
1 *739:io_oeb_o[6] *102:17 9.99313 
2 *102:17 *102:19 162.774 
3 *102:19 *102:25 11.212 
4 *102:25 *102:27 205.763 
5 *102:27 io_oeb[6] 30.963 
*END

*D_NET *103 0.499587
*CONN
*P io_oeb[7] O
*I *739:io_oeb_o[7] O *D ntt_wb_bridge
*CAP
1 io_oeb[7] 0.00840313
2 *739:io_oeb_o[7] 0.000680398
3 *103:37 0.0591206
4 *103:35 0.0533075
5 *103:19 0.0232822
6 *103:17 0.0213727
7 *103:17 *108:15 0.000122494
8 *103:17 *111:15 0.000130279
9 *103:17 *113:15 0.000140483
10 *103:17 *137:21 0.00107827
11 *103:19 *108:15 0.0143549
12 *103:19 *111:15 0.0204627
13 *103:19 *113:15 0.0189765
14 *103:19 *137:21 0.0117178
15 *103:35 la_data_out[116] 1.38371e-05
16 *103:35 *108:15 0.00054594
17 *103:35 *111:15 0.00137727
18 *103:35 *113:15 0.00102381
19 *103:35 *114:23 0.000653564
20 *103:35 *142:27 0.000705135
21 *69:21 *103:37 0.118584
22 *77:21 *103:19 0.00169811
23 *77:31 *103:19 0.00391688
24 *80:13 *103:17 0.00011348
25 *82:13 *103:17 0.000119155
26 *87:13 *103:17 0.000130784
27 *97:23 *103:17 0.000132088
28 *99:23 *103:19 0.0263995
29 *99:23 *103:35 0.00187273
30 *100:27 *103:35 0.00308895
31 *102:19 *103:17 0.000407857
32 *102:19 *103:19 0.099548
33 *102:19 *103:35 0.00136056
34 *102:25 *103:35 0.0047451
*RES
1 *739:io_oeb_o[7] *103:17 11.212 
2 *103:17 *103:19 155.711 
3 *103:19 *103:35 25.8992 
4 *103:35 *103:37 247.417 
5 *103:37 io_oeb[7] 28.6568 
*END

*D_NET *104 0.56712
*CONN
*P io_oeb[8] O
*I *739:io_oeb_o[8] O *D ntt_wb_bridge
*CAP
1 io_oeb[8] 0.00087269
2 *739:io_oeb_o[8] 0.000818544
3 *104:27 0.0243433
4 *104:25 0.0234706
5 *104:23 0.0321971
6 *104:21 0.0331025
7 *104:15 0.00843023
8 *104:13 0.00834343
9 *104:13 *137:21 5.5235e-05
10 *104:23 *139:21 0.0131962
11 *104:27 *105:27 0.0742849
12 *104:27 *107:39 0.00390297
13 *104:27 *137:33 0.0469696
14 *104:27 *140:25 0.000111976
15 *104:27 *143:27 0.127071
16 *68:25 *104:21 0.000843208
17 *68:27 *104:23 0.0843039
18 *77:13 *104:15 0.00330255
19 *78:23 *104:23 0.000874527
20 *79:14 *104:15 0
21 *93:17 *104:15 0.000189974
22 *93:19 *104:15 0.000915701
23 *96:14 *104:15 0
24 *99:27 *104:27 0.0116651
25 *100:19 *104:15 0.0258091
26 *101:15 *104:15 0.0369559
27 *101:27 *104:27 0.00508976
*RES
1 *739:io_oeb_o[8] *104:13 17.5923 
2 *104:13 *104:15 57.6643 
3 *104:15 *104:21 9.1042 
4 *104:21 *104:23 134.632 
5 *104:23 *104:25 3.41 
6 *104:25 *104:27 1643.05 
7 *104:27 io_oeb[8] 5.77567 
*END

*D_NET *105 0.442487
*CONN
*P io_oeb[9] O
*I *739:io_oeb_o[9] O *D ntt_wb_bridge
*CAP
1 io_oeb[9] 0.000793616
2 *739:io_oeb_o[9] 0.000908677
3 *105:27 0.0364721
4 *105:25 0.0356785
5 *105:23 0.0362896
6 *105:21 0.0362896
7 *105:19 0.0145406
8 *105:17 0.0145406
9 *105:15 0.0090355
10 *105:13 0.00994418
11 *105:13 *137:21 0.000211368
12 *105:15 *143:15 0.0357917
13 *105:19 *292:19 0.0580984
14 *105:19 *354:27 0
15 *105:19 *376:19 0
16 *105:19 *675:31 0.000570903
17 *105:19 *677:27 0.0086605
18 *105:19 *733:11 0.00485749
19 *105:19 *733:37 0.000527535
20 *105:19 *734:19 0.0171248
21 *105:23 *115:195 0.00289941
22 *105:23 *378:23 0.00044468
23 *105:23 *384:21 0.00240485
24 *105:23 *386:23 0.000968368
25 *105:23 *390:15 0
26 *105:23 *394:15 0
27 *105:27 *107:39 0.00192265
28 *105:27 *140:25 0.00680594
29 *105:27 *143:27 0.00815087
30 *74:27 *105:15 0.0013702
31 *77:13 *105:15 0.00887312
32 *81:15 *105:15 0.00279864
33 *101:15 *105:15 0.0112272
34 *104:27 *105:27 0.0742849
*RES
1 *739:io_oeb_o[9] *105:13 18.1678 
2 *105:13 *105:15 361.143 
3 *105:15 *105:17 4.5 
4 *105:17 *105:19 744.786 
5 *105:19 *105:21 4.5 
6 *105:21 *105:23 722.571 
7 *105:23 *105:25 4.5 
8 *105:25 *105:27 1147.78 
9 *105:27 io_oeb[9] 5.7036 
*END

*D_NET *106 0.372047
*CONN
*P io_out[0] O
*I *739:io_out_o[0] O *D ntt_wb_bridge
*CAP
1 io_out[0] 0.0330652
2 *739:io_out_o[0] 0.000703881
3 *106:19 0.0353586
4 *106:13 0.0161092
5 *106:11 0.0145197
6 io_out[0] *730:7 0.0665673
7 *106:11 *119:51 0.000276015
8 *106:11 *136:65 0.00010582
9 *106:13 *117:13 0.093435
10 *106:13 *128:29 0.0843866
11 *106:13 *133:27 0.00555028
12 *106:19 *117:19 0.00403875
13 *76:19 *106:13 1.94276e-05
14 *89:21 *106:13 0.000799627
15 *91:15 *106:13 0.0163401
16 *92:23 *106:13 0.000771706
*RES
1 *739:io_out_o[0] *106:11 8.68277 
2 *106:11 *106:13 147.928 
3 *106:13 *106:19 15.4962 
4 *106:19 io_out[0] 134.212 
*END

*D_NET *107 0.717046
*CONN
*P io_out[10] O
*I *739:io_out_o[10] O *D ntt_wb_bridge
*CAP
1 io_out[10] 0.000908606
2 *739:io_out_o[10] 0.00310405
3 *107:39 0.0304106
4 *107:37 0.029502
5 *107:35 0.0381922
6 *107:33 0.038887
7 *107:25 0.0037989
8 *107:25 *115:21 0
9 *107:25 *124:15 0.00183155
10 *107:25 *125:15 0.001975
11 *107:25 *132:19 0.00906835
12 *107:25 *136:37 0.000379461
13 *107:25 *140:13 0.00549912
14 *107:33 *112:13 0.00329251
15 *107:33 *126:15 0.00329444
16 *107:33 *140:13 0.00067069
17 *107:35 *108:15 0
18 *107:35 *110:13 0
19 *107:35 *114:13 0.127657
20 *107:35 *128:29 0.0300178
21 *107:35 *142:27 0
22 *107:39 *108:19 0.168236
23 *107:39 *128:33 0
24 *107:39 *137:33 2.30116e-06
25 *107:39 *140:25 0.00222836
26 *107:39 *143:27 0.141597
27 *91:15 *107:35 0.0548601
28 *100:31 *107:39 0.0147278
29 *101:27 *107:39 0.00107995
30 *104:27 *107:39 0.00390297
31 *105:27 *107:39 0.00192265
*RES
1 *739:io_out_o[10] *107:25 42.5657 
2 *107:25 *107:33 44.6071 
3 *107:33 *107:35 1371.09 
4 *107:35 *107:37 4.5 
5 *107:37 *107:39 2064.87 
6 *107:39 io_out[10] 5.9198 
*END

*D_NET *108 0.676106
*CONN
*P io_out[11] O
*I *739:io_out_o[11] O *D ntt_wb_bridge
*CAP
1 io_out[11] 0.000879467
2 *739:io_out_o[11] 0.00024142
3 *108:19 0.0751243
4 *108:17 0.0742449
5 *108:15 0.0372927
6 *108:13 0.0375341
7 *108:13 *136:37 0.00011641
8 *108:15 *111:15 0.146771
9 *108:15 *120:13 0.00137224
10 *108:15 *137:21 0.0122792
11 *108:15 *142:27 0.00152724
12 *108:19 io_out[5] 0.000363521
13 *108:19 io_out[7] 6.87203e-05
14 *108:19 io_out[8] 0.000267871
15 *108:19 *140:25 0.00411876
16 *77:21 *108:15 0.00952889
17 *77:31 *108:15 0.00137189
18 *78:13 *108:15 0
19 *87:13 *108:15 0
20 *97:23 *108:15 0.0550698
21 *99:23 *108:15 0.00217836
22 *100:31 *108:19 0.0294185
23 *101:27 *108:19 0.00241611
24 *102:25 *108:15 0.000661292
25 *103:17 *108:15 0.000122494
26 *103:19 *108:15 0.0143549
27 *103:35 *108:15 0.00054594
28 *107:35 *108:15 0
29 *107:39 *108:19 0.168236
*RES
1 *739:io_out_o[11] *108:13 10.018 
2 *108:13 *108:15 1476.23 
3 *108:15 *108:17 4.5 
4 *108:17 *108:19 2298.62 
5 *108:19 io_out[11] 5.99187 
*END

*D_NET *109 0.613253
*CONN
*P io_out[12] O
*I *739:io_out_o[12] O *D ntt_wb_bridge
*CAP
1 io_out[12] 0.0010873
2 *739:io_out_o[12] 0.000838369
3 *109:21 0.00366837
4 *109:19 0.00258107
5 *109:17 0.123395
6 *109:15 0.123395
7 *109:13 0.0201217
8 *109:11 0.0209601
9 *109:11 *136:37 0.00017599
10 *109:13 *110:13 0.148967
11 *109:13 *112:13 0.000380159
12 *109:13 *116:25 0.00134311
13 *109:13 *130:15 0.00172917
14 *109:13 *136:25 0.00249621
15 *109:13 *140:13 0.000192436
16 *109:13 *141:13 0.139819
17 *68:19 *109:13 0.000472395
18 *74:25 *109:13 0.00029115
19 *76:19 *109:13 0.0194329
20 *90:25 *109:13 0.000135196
21 *91:15 *109:13 0
22 *99:21 *109:13 0.00177147
*RES
1 *739:io_out_o[12] *109:11 17.1631 
2 *109:11 *109:13 1414.21 
3 *109:13 *109:15 4.5 
4 *109:15 *109:17 2538.89 
5 *109:17 *109:19 4.5 
6 *109:19 *109:21 49 
7 *109:21 io_out[12] 14.18 
*END

*D_NET *110 0.547743
*CONN
*P io_out[13] O
*I *739:io_out_o[13] O *D ntt_wb_bridge
*CAP
1 io_out[13] 0.000955319
2 *739:io_out_o[13] 0.000918316
3 *110:27 0.00285278
4 *110:17 0.136917
5 *110:15 0.13502
6 *110:13 0.0467382
7 *110:11 0.0476565
8 *110:11 *136:37 0.000261721
9 *110:13 *116:25 0.00103045
10 *110:13 *134:15 0.00453899
11 *110:13 *136:25 0.00041523
12 *74:25 *110:13 0.000260832
13 *76:19 *110:13 0.0173498
14 *86:13 *110:11 0.000101623
15 *90:25 *110:13 0.00125028
16 *91:15 *110:13 0
17 *92:23 *110:13 0.00199164
18 *99:21 *110:13 0.000518444
19 *107:35 *110:13 0
20 *109:13 *110:13 0.148967
*RES
1 *739:io_out_o[13] *110:11 17.1039 
2 *110:11 *110:13 1414.21 
3 *110:13 *110:15 4.5 
4 *110:15 *110:17 2778.71 
5 *110:17 *110:27 49.9725 
6 *110:27 io_out[13] 2.65393 
*END

*D_NET *111 0.655973
*CONN
*P io_out[14] O
*I *739:io_out_o[14] O *D ntt_wb_bridge
*CAP
1 io_out[14] 0.00107245
2 *739:io_out_o[14] 0.000272504
3 *111:23 0.00428659
4 *111:21 0.00321414
5 *111:19 0.146092
6 *111:17 0.146092
7 *111:15 0.0180714
8 *111:13 0.0183439
9 *111:13 *136:37 0.000124566
10 *111:15 *113:15 0.135746
11 *111:15 *120:13 0.0012778
12 *111:15 *137:21 0.00721237
13 *111:15 *142:27 0.0048163
14 *111:19 la_data_out[124] 0
15 *100:27 *111:15 0.000373202
16 *102:19 *111:15 0.000236206
17 *103:17 *111:15 0.000130279
18 *103:19 *111:15 0.0204627
19 *103:35 *111:15 0.00137727
20 *108:15 *111:15 0.146771
*RES
1 *739:io_out_o[14] *111:13 10.3341 
2 *111:13 *111:15 1381.77 
3 *111:15 *111:17 4.5 
4 *111:17 *111:19 3007.3 
5 *111:19 *111:21 4.5 
6 *111:21 *111:23 61.3214 
7 *111:23 io_out[14] 13.8764 
*END

*D_NET *112 0.607447
*CONN
*P io_out[15] O
*I *739:io_out_o[15] O *D ntt_wb_bridge
*CAP
1 io_out[15] 0.000897242
2 *739:io_out_o[15] 0.000733622
3 *112:23 0.00230563
4 *112:17 0.144295
5 *112:15 0.142887
6 *112:13 0.0200453
7 *112:11 0.0207789
8 *112:11 *136:37 4.46107e-05
9 *112:13 *115:23 0.03042
10 *112:13 *126:15 0.00624771
11 *112:13 *136:25 0.00250309
12 *112:13 *140:13 0.00328392
13 *112:13 *141:13 0.0656146
14 *112:13 *143:15 0.00036161
15 *112:17 la_data_out[119] 0.0311352
16 *68:19 *112:13 0.0093172
17 *73:24 *112:17 0
18 *74:27 *112:13 7.03393e-05
19 *75:13 *112:13 0.0909369
20 *75:21 *112:23 0
21 *76:19 *112:13 0.0138878
22 *78:145 *112:17 0
23 *97:15 *112:13 0.0180083
24 *107:33 *112:13 0.00329251
25 *109:13 *112:13 0.000380159
*RES
1 *739:io_out_o[15] *112:11 17.726 
2 *112:11 *112:13 1294.29 
3 *112:13 *112:15 4.5 
4 *112:15 *112:17 3088.05 
5 *112:17 *112:23 35 
6 *112:23 io_out[15] 17.5179 
*END

*D_NET *113 0.984661
*CONN
*P io_out[16] O
*I *739:io_out_o[16] O *D ntt_wb_bridge
*CAP
1 io_out[16] 0.000740087
2 *739:io_out_o[16] 0.000334346
3 *113:23 0.0090624
4 *113:21 0.00832232
5 *113:19 0.0457745
6 *113:17 0.0457745
7 *113:15 0.0171293
8 *113:13 0.0174637
9 *113:13 *136:37 0.000105695
10 *113:15 *120:13 0.00674232
11 *113:15 *137:21 0.00576268
12 *113:15 *142:27 0.101516
13 *113:19 *669:11 0.0308816
14 *113:19 *669:17 0.00117113
15 *113:19 *686:21 0.00177922
16 *113:19 *721:11 0.218384
17 *73:24 *113:19 0
18 *74:35 *113:23 0.00919394
19 *75:17 *113:19 0.251611
20 *75:21 *113:23 0.0330191
21 *76:23 *113:19 1.08359e-05
22 *76:27 *113:23 0.00434894
23 *88:15 *113:15 0.0152241
24 *102:19 *113:15 0.000271721
25 *102:27 *113:19 0.00415041
26 *103:17 *113:15 0.000140483
27 *103:19 *113:15 0.0189765
28 *103:35 *113:15 0.00102381
29 *111:15 *113:15 0.135746
*RES
1 *739:io_out_o[16] *113:13 10.622 
2 *113:13 *113:15 1277.86 
3 *113:15 *113:17 4.5 
4 *113:17 *113:19 3084.41 
5 *113:19 *113:21 4.5 
6 *113:21 *113:23 310.625 
7 *113:23 io_out[16] 18.9821 
*END

*D_NET *114 0.901053
*CONN
*P io_out[17] O
*I *739:io_out_o[17] O *D ntt_wb_bridge
*CAP
1 io_out[17] 0.000631798
2 *739:io_out_o[17] 0.00072154
3 *114:49 0.0220709
4 *114:47 0.0214391
5 *114:45 0.0979918
6 *114:43 0.0980854
7 *114:37 0.008601
8 *114:35 0.00942263
9 *114:25 0.0302752
10 *114:23 0.0295435
11 *114:13 0.029828
12 *114:11 0.0303661
13 *114:11 *136:37 0.000219493
14 *114:13 *115:31 0.0266008
15 *114:13 *118:15 0.00306877
16 *114:13 *123:15 0.00889321
17 *114:13 *128:29 0.0288797
18 *114:13 *142:27 0
19 *114:23 la_data_out[117] 0
20 *114:23 *142:27 0.000143819
21 *114:25 *646:41 0.00666889
22 *114:25 *652:11 0.0197431
23 *114:25 *672:6 0.0146715
24 *114:25 *700:11 0.00371051
25 *114:25 *730:11 0
26 *114:35 *646:41 0.000859088
27 *114:35 *672:6 0.000120566
28 *114:37 *646:23 0
29 *114:37 *654:11 0.00191366
30 *114:37 *658:19 5.41797e-06
31 *114:37 *682:23 0.00586926
32 *114:37 *685:49 0.00554221
33 *114:37 *714:19 0
34 *114:37 *714:27 0
35 *114:37 *715:11 3.13234e-05
36 *114:37 *724:23 0.00146795
37 *114:45 *740:mem_addr[3] 0.00571519
38 *114:45 *654:11 0.0554271
39 *114:45 *658:35 0.0303761
40 *114:45 *667:15 0.0139955
41 *114:45 *673:15 0.0139955
42 *114:45 *679:15 0.0194636
43 *114:45 *685:41 0.00101398
44 *114:45 *714:27 0.0266622
45 *76:27 *114:49 0.065847
46 *77:141 *114:35 0.000593901
47 *77:145 *114:45 0.0210606
48 *89:13 *114:13 0.0100432
49 *91:15 *114:13 0.000504051
50 *100:27 *114:23 0.000658393
51 *103:35 *114:23 0.000653564
52 *107:35 *114:13 0.127657
*RES
1 *739:io_out_o[17] *114:11 13.6612 
2 *114:11 *114:13 1238.84 
3 *114:13 *114:23 13.831 
4 *114:23 *114:25 134.705 
5 *114:25 *114:35 9.96117 
6 *114:35 *114:37 252.696 
7 *114:37 *114:43 7.04717 
8 *114:43 *114:45 360.875 
9 *114:45 *114:47 3.41 
10 *114:47 *114:49 102.562 
11 *114:49 io_out[17] 16.2225 
*END

*D_NET *115 0.772377
*CONN
*P io_out[18] O
*I *739:io_out_o[18] O *D ntt_wb_bridge
*CAP
1 io_out[18] 0.00647205
2 *739:io_out_o[18] 0.00317874
3 *115:249 0.00754169
4 *115:245 0.00263187
5 *115:237 0.00372123
6 *115:233 0.00303497
7 *115:223 0.0428265
8 *115:221 0.0419505
9 *115:219 0.0368808
10 *115:217 0.0373522
11 *115:211 0.00647245
12 *115:209 0.00635363
13 *115:203 0.00570674
14 *115:201 0.00706217
15 *115:195 0.00339837
16 *115:189 0.00303363
17 *115:185 0.00201816
18 *115:179 0.00326516
19 *115:177 0.00324142
20 *115:171 0.00627748
21 *115:169 0.00562629
22 *115:167 0.00326308
23 *115:165 0.00326308
24 *115:163 0.00232754
25 *115:161 0.00424992
26 *115:153 0.00388045
27 *115:149 0.00254308
28 *115:143 0.00255618
29 *115:133 0.00358016
30 *115:127 0.00412491
31 *115:125 0.00433662
32 *115:121 0.00394782
33 *115:117 0.0035043
34 *115:113 0.00282082
35 *115:107 0.00363396
36 *115:105 0.00301226
37 *115:101 0.00243144
38 *115:91 0.00390299
39 *115:89 0.00229349
40 *115:87 0.00297117
41 *115:85 0.00297117
42 *115:83 0.00231198
43 *115:81 0.00365652
44 *115:71 0.00549661
45 *115:69 0.00552846
46 *115:65 0.00244114
47 *115:57 0.00284536
48 *115:47 0.00326215
49 *115:39 0.00428544
50 *115:37 0.00280389
51 *115:35 0.00199157
52 *115:33 0.00199157
53 *115:31 0.00532276
54 *115:29 0.00567099
55 *115:23 0.00467898
56 *115:21 0.00750949
57 *115:21 *124:15 0.00208148
58 *115:21 *125:15 0.00219416
59 *115:21 *127:15 0.00250678
60 *115:21 *132:19 0.00656666
61 *115:21 *133:25 6.58294e-06
62 *115:21 *136:37 0.000291777
63 *115:21 *140:13 0.0125953
64 *115:21 *143:15 0.00249635
65 *115:23 *140:13 0.00687656
66 *115:23 *143:15 0.0168661
67 *115:31 *142:27 0.00119829
68 *115:35 *356:31 0
69 *115:35 *359:41 0.00494077
70 *115:35 *729:9 0.000118344
71 *115:35 *731:9 0.000118344
72 *115:39 *732:7 0.000222167
73 *115:47 *143:23 0
74 *115:47 *362:27 0.00226431
75 *115:65 *285:17 0.00149876
76 *115:69 *530:19 0
77 *115:81 *653:7 0.000548676
78 *115:91 la_data_out[95] 0
79 *115:101 la_data_out[96] 0
80 *115:107 la_data_out[97] 0.00293421
81 *115:113 *705:7 0.000334922
82 *115:127 *715:7 0.000518404
83 *115:143 *279:19 0
84 *115:143 *671:21 0.000426772
85 *115:167 *663:27 0
86 *115:171 la_data_out[114] 0
87 *115:189 *296:19 0.00234251
88 *115:203 *665:11 0.0351779
89 *115:211 *141:17 0.00763022
90 *115:211 *648:11 0.0331926
91 *115:211 *659:15 0.00706213
92 *115:211 *671:17 0.000283237
93 *115:219 *685:25 0
94 *115:219 *690:11 0.0074486
95 *115:219 *708:27 0.012037
96 *115:219 *715:19 0.0053267
97 *115:219 *738:19 0.0148552
98 *115:233 *646:11 0.000207312
99 *115:233 *685:21 0
100 *115:233 *714:31 0.000563446
101 *73:24 *115:203 0.0351779
102 *74:25 *115:29 6.30931e-05
103 *75:11 *115:29 0
104 *77:71 *115:83 0.00251802
105 *77:89 *115:117 0
106 *77:115 *115:163 0.0015545
107 *77:159 *115:223 0.00130544
108 *78:111 *115:153 0.00141647
109 *78:117 *115:163 0
110 *78:153 *115:211 0.0106108
111 *78:161 *115:219 0.0824574
112 *79:20 *115:35 0.000773531
113 *89:13 *115:31 0.00570663
114 *90:27 *115:31 0.00548134
115 *92:21 *115:31 0.000555446
116 *102:27 *115:203 0.00764591
117 *105:23 *115:195 0.00289941
118 *107:25 *115:21 0
119 *112:13 *115:23 0.03042
120 *114:13 *115:31 0.0266008
*RES
1 *739:io_out_o[18] *115:21 46.3797 
2 *115:21 *115:23 285.982 
3 *115:23 *115:29 14.2857 
4 *115:29 *115:31 250.25 
5 *115:31 *115:33 4.5 
6 *115:33 *115:35 61.1429 
7 *115:35 *115:37 4.5 
8 *115:37 *115:39 46.9464 
9 *115:39 *115:47 48.7857 
10 *115:47 *115:57 48.1786 
11 *115:57 *115:65 36.5 
12 *115:65 *115:69 32.25 
13 *115:69 *115:71 80.2143 
14 *115:71 *115:81 38.9643 
15 *115:81 *115:83 58.1071 
16 *115:83 *115:85 4.5 
17 *115:85 *115:87 55.5714 
18 *115:87 *115:89 4.5 
19 *115:89 *115:91 46.5714 
20 *115:91 *115:101 44.5357 
21 *115:101 *115:105 19.8214 
22 *115:105 *115:107 64.7857 
23 *115:107 *115:113 37.0536 
24 *115:113 *115:117 32.25 
25 *115:117 *115:121 44.4643 
26 *115:121 *115:125 41.6607 
27 *115:125 *115:127 49.4107 
28 *115:127 *115:133 41.6071 
29 *115:133 *115:143 46.9107 
30 *115:143 *115:149 20.6607 
31 *115:149 *115:153 41.5893 
32 *115:153 *115:161 45.8929 
33 *115:161 *115:163 54.4643 
34 *115:163 *115:165 4.5 
35 *115:165 *115:167 61.7321 
36 *115:167 *115:169 4.5 
37 *115:169 *115:171 113.964 
38 *115:171 *115:177 21.4464 
39 *115:177 *115:179 52.6429 
40 *115:179 *115:185 21.8571 
41 *115:185 *115:189 41.6607 
42 *115:189 *115:195 47.3393 
43 *115:195 *115:201 36.6429 
44 *115:201 *115:203 431.196 
45 *115:203 *115:209 14.0536 
46 *115:209 *115:211 406.607 
47 *115:211 *115:217 16.1071 
48 *115:217 *115:219 1311.55 
49 *115:219 *115:221 4.5 
50 *115:221 *115:223 834.696 
51 *115:223 *115:233 32.9107 
52 *115:233 *115:237 48.3393 
53 *115:237 *115:245 39.625 
54 *115:245 *115:249 24.75 
55 *115:249 io_out[18] 128.625 
*END

*D_NET *116 0.689324
*CONN
*P io_out[19] O
*I *739:io_out_o[19] O *D ntt_wb_bridge
*CAP
1 io_out[19] 0.000734589
2 *739:io_out_o[19] 0.00301328
3 *116:179 0.00356162
4 *116:177 0.00343034
5 *116:171 0.00351596
6 *116:169 0.0036662
7 *116:165 0.00279195
8 *116:157 0.0039876
9 *116:153 0.00262418
10 *116:149 0.00247304
11 *116:145 0.00274903
12 *116:141 0.00228319
13 *116:131 0.00409509
14 *116:129 0.00276286
15 *116:127 0.00440304
16 *116:125 0.00440304
17 *116:123 0.0361845
18 *116:121 0.0361845
19 *116:119 0.0403567
20 *116:117 0.0405788
21 *116:111 0.0180043
22 *116:109 0.0206658
23 *116:95 0.00750747
24 *116:93 0.00462389
25 *116:91 0.00323386
26 *116:89 0.00323386
27 *116:87 0.00397212
28 *116:85 0.00556059
29 *116:79 0.00534792
30 *116:77 0.00589917
31 *116:73 0.00367796
32 *116:67 0.00398852
33 *116:65 0.00245027
34 *116:63 0.00432911
35 *116:61 0.00432911
36 *116:59 0.00321831
37 *116:57 0.00321831
38 *116:55 0.00228041
39 *116:53 0.002921
40 *116:47 0.00905587
41 *116:45 0.00841528
42 *116:43 0.0032647
43 *116:41 0.0032647
44 *116:39 0.00601899
45 *116:37 0.00666273
46 *116:31 0.00289121
47 *116:27 0.0254775
48 *116:25 0.0262433
49 *116:25 *128:27 7.13706e-06
50 *116:25 *130:15 0.00990907
51 *116:25 *134:15 0.00918478
52 *116:25 *136:37 0.000354999
53 *116:25 *141:13 0.00168501
54 *116:27 *118:15 0
55 *116:27 *124:15 0
56 *116:27 *124:23 0.00313816
57 *116:27 *125:15 0
58 *116:27 *126:15 0
59 *116:27 *128:27 0.000549841
60 *116:27 *134:15 0.00281527
61 *116:27 *141:13 0.00112538
62 *116:31 la_data_out[5] 0
63 *116:43 *544:9 0.00123048
64 *116:53 *603:9 0.000349248
65 *116:55 *578:13 0.002852
66 *116:59 *582:9 0.00146469
67 *116:63 *596:5 0
68 *116:77 *619:7 0.00175902
69 *116:79 wbs_dat_o[22] 0
70 *116:85 *612:7 0.000643196
71 *116:87 wbs_dat_o[20] 0
72 *116:109 *662:23 0.00314312
73 *116:109 *677:15 0.0031383
74 *116:109 *702:18 0.000720118
75 *116:111 *118:27 0.10656
76 *116:111 *677:11 0.012353
77 *116:111 *683:13 0.00322695
78 *116:111 *691:11 0.0100137
79 *116:111 *702:22 0.0994813
80 *116:119 *118:27 0
81 *116:119 *704:35 0
82 *78:241 *116:179 0.00245025
83 *92:23 *116:27 0.00523939
84 *109:13 *116:25 0.00134311
85 *110:13 *116:25 0.00103045
*RES
1 *739:io_out_o[19] *116:25 43.4407 
2 *116:25 *116:27 440.821 
3 *116:27 *116:31 47.7321 
4 *116:31 *116:37 21.4464 
5 *116:37 *116:39 120.339 
6 *116:39 *116:41 4.5 
7 *116:41 *116:43 61.7321 
8 *116:43 *116:45 4.5 
9 *116:45 *116:47 163.446 
10 *116:47 *116:53 21.0357 
11 *116:53 *116:55 58.4107 
12 *116:55 *116:57 4.5 
13 *116:57 *116:59 62.1429 
14 *116:59 *116:61 4.5 
15 *116:61 *116:63 86.3393 
16 *116:63 *116:65 4.5 
17 *116:65 *116:67 46.125 
18 *116:67 *116:73 40.0893 
19 *116:73 *116:77 44.875 
20 *116:77 *116:79 74.1964 
21 *116:79 *116:85 39.9286 
22 *116:85 *116:87 79.9643 
23 *116:87 *116:89 4.5 
24 *116:89 *116:91 61.7321 
25 *116:91 *116:93 4.5 
26 *116:93 *116:95 93.1696 
27 *116:95 *116:109 25.7253 
28 *116:109 *116:111 1305.94 
29 *116:111 *116:117 12.8214 
30 *116:117 *116:119 831 
31 *116:119 *116:121 4.5 
32 *116:121 *116:123 720.929 
33 *116:123 *116:125 4.5 
34 *116:125 *116:127 90.2857 
35 *116:127 *116:129 4.5 
36 *116:129 *116:131 52.6964 
37 *116:131 *116:141 39.2679 
38 *116:141 *116:145 23.75 
39 *116:145 *116:149 38.7143 
40 *116:149 *116:153 18.2857 
41 *116:153 *116:157 41.5893 
42 *116:157 *116:165 49.1786 
43 *116:165 *116:169 19.8036 
44 *116:169 *116:171 55.5714 
45 *116:171 *116:177 21.2679 
46 *116:177 *116:179 53.9286 
47 *116:179 io_out[19] 19.2857 
*END

*D_NET *117 0.342367
*CONN
*P io_out[1] O
*I *739:io_out_o[1] O *D ntt_wb_bridge
*CAP
1 io_out[1] 0.0459176
2 *739:io_out_o[1] 0.000816205
3 *117:19 0.0539475
4 *117:13 0.0220707
5 *117:11 0.014857
6 io_out[1] *707:9 0
7 io_out[1] *718:9 0
8 *117:11 *119:51 0.000323357
9 *117:11 *136:65 0.000140284
10 *117:19 *359:41 0.00310105
11 *76:19 *117:13 0.0033295
12 *77:71 io_out[1] 0
13 *79:20 *117:19 0.0189599
14 *82:13 *117:11 0.000130095
15 *87:13 *117:11 0.000130095
16 *92:23 *117:13 0.0811701
17 *106:13 *117:13 0.093435
18 *106:19 *117:19 0.00403875
*RES
1 *739:io_out_o[1] *117:11 9.0337 
2 *117:11 *117:13 145.622 
3 *117:13 *117:19 46.817 
4 *117:19 io_out[1] 134.356 
*END

*D_NET *118 0.785645
*CONN
*P io_out[20] O
*I *739:io_out_o[20] O *D ntt_wb_bridge
*CAP
1 io_out[20] 0.000720918
2 *739:io_out_o[20] 0.000463039
3 *118:31 0.0279615
4 *118:29 0.0272405
5 *118:27 0.123252
6 *118:25 0.123252
7 *118:23 0.0140984
8 *118:21 0.01423
9 *118:15 0.00213537
10 *118:13 0.00246686
11 *118:13 *136:37 0.000102143
12 *118:15 *123:15 0.00581017
13 *118:15 *128:29 0.00265748
14 *118:15 *133:27 0.000149121
15 *118:23 *121:13 0.00192056
16 *118:23 *133:27 0.00557582
17 *118:27 *548:9 0.0146744
18 *118:27 *656:27 0.000757317
19 *118:27 *656:35 0.00114781
20 *118:27 *677:11 0.0146374
21 *118:27 *683:13 0.00351832
22 *118:27 *688:21 0
23 *118:27 *691:11 0.0305039
24 *118:27 *702:22 8.10981e-05
25 *118:27 *706:27 0
26 *118:27 *717:19 0
27 *118:27 *726:27 0
28 *118:27 *729:27 0
29 *80:33 *118:31 0.0707963
30 *88:15 *118:23 0.00193186
31 *88:23 *118:23 0.0807715
32 *89:13 *118:23 0.00178107
33 *91:15 *118:15 0.0128557
34 *91:23 *118:23 0.090524
35 *114:13 *118:15 0.00306877
36 *116:27 *118:15 0
37 *116:111 *118:27 0.10656
38 *116:119 *118:27 0
*RES
1 *739:io_out_o[20] *118:13 13.0318 
2 *118:13 *118:15 127.446 
3 *118:15 *118:21 9.70464 
4 *118:21 *118:23 141.658 
5 *118:23 *118:25 3.41 
6 *118:25 *118:27 3085.02 
7 *118:27 *118:29 3.41 
8 *118:29 *118:31 122.993 
9 *118:31 io_out[20] 18.0439 
*END

*D_NET *119 0.867856
*CONN
*P io_out[21] O
*I *739:io_out_o[21] O *D ntt_wb_bridge
*CAP
1 io_out[21] 0.000661505
2 *739:io_out_o[21] 0.000182636
3 *119:61 0.00855747
4 *119:59 0.00789597
5 *119:57 0.0671188
6 *119:55 0.0671188
7 *119:53 0.013174
8 *119:51 0.0151346
9 *119:31 0.00334557
10 *119:27 0.00183909
11 *119:13 0.00327293
12 *119:11 0.00300141
13 *119:11 *136:37 0.000136256
14 *119:13 *136:37 0.000882059
15 *119:13 *139:21 0.00715045
16 *119:27 *140:11 6.77047e-05
17 *119:31 *139:13 0.000221
18 *119:51 *128:27 0.000116217
19 *119:51 *136:53 2.09826e-05
20 *119:51 *136:65 0.000663845
21 *119:51 *136:67 0.000270305
22 *119:53 *136:67 0.000955958
23 *119:57 wbs_dat_o[14] 0
24 *119:57 *540:13 0.229967
25 *119:57 *710:35 0.173543
26 *80:25 *119:51 0.00388838
27 *80:33 *119:61 0.0454554
28 *81:19 *119:57 0
29 *81:23 *119:61 0.0372486
30 *82:13 *119:51 0.000493636
31 *82:13 *119:53 0.000526672
32 *82:23 *119:57 7.81859e-05
33 *86:13 *119:13 0.0161761
34 *86:13 *119:31 0.00466027
35 *87:13 *119:51 0.000453866
36 *87:21 *119:53 0.0744013
37 *91:23 *119:27 0.000453319
38 *97:41 *119:27 0.000775243
39 *97:41 *119:31 0.000114806
40 *97:41 *119:51 8.22793e-06
41 *97:51 *119:51 0.00177967
42 *97:57 *119:51 0.000101764
43 *97:59 *119:53 0.0753437
44 *106:11 *119:51 0.000276015
45 *117:11 *119:51 0.000323357
*RES
1 *739:io_out_o[21] *119:11 8.72885 
2 *119:11 *119:13 152.911 
3 *119:13 *119:27 22.4308 
4 *119:27 *119:31 48.5714 
5 *119:31 *119:51 22.9285 
6 *119:51 *119:53 120.398 
7 *119:53 *119:55 3.41 
8 *119:55 *119:57 3081.98 
9 *119:57 *119:59 3.41 
10 *119:59 *119:61 70.8165 
11 *119:61 io_out[21] 16.8296 
*END

*D_NET *120 0.690598
*CONN
*P io_out[22] O
*I *739:io_out_o[22] O *D ntt_wb_bridge
*CAP
1 io_out[22] 0.00423987
2 *739:io_out_o[22] 0.000342412
3 *120:29 0.0980309
4 *120:27 0.0943354
5 *120:21 0.0138858
6 *120:19 0.0134369
7 *120:13 0.00786124
8 *120:11 0.00810819
9 *120:11 *136:37 0.000108535
10 *120:13 *121:13 0.00246111
11 *120:13 *133:27 0.00150659
12 *120:13 *136:65 0
13 *120:13 *139:13 0
14 *120:13 *142:17 0.000346958
15 *120:13 *142:19 0.00235282
16 *120:19 *326:19 0.000222964
17 *120:19 *338:51 0.00022131
18 *120:29 wbs_dat_o[13] 0.0242933
19 *120:29 *123:21 0.000181266
20 *120:29 *718:19 0
21 *120:29 *729:27 0
22 *120:29 *736:26 0
23 io_oeb[22] io_out[22] 0.00626614
24 *80:13 *120:13 0
25 *80:29 *120:29 0.247346
26 *80:33 io_out[22] 0.000525027
27 *81:23 io_out[22] 0.0129712
28 *87:13 *120:13 0
29 *88:15 *120:13 0.0249593
30 *89:21 *120:21 0.0725517
31 *89:21 *120:27 0.00112945
32 *92:23 *120:21 0.0408698
33 *92:23 *120:27 0.00209418
34 *97:23 *120:13 0.000557399
35 *97:51 *120:13 0
36 *108:15 *120:13 0.00137224
37 *111:15 *120:13 0.0012778
38 *113:15 *120:13 0.00674232
*RES
1 *739:io_out_o[22] *120:11 11.5202 
2 *120:11 *120:13 296.25 
3 *120:13 *120:19 10.9189 
4 *120:19 *120:21 113.516 
5 *120:21 *120:27 6.88957 
6 *120:27 *120:29 3090.48 
7 *120:29 io_out[22] 41.413 
*END

*D_NET *121 0.546169
*CONN
*P io_out[23] O
*I *739:io_out_o[23] O *D ntt_wb_bridge
*CAP
1 io_out[23] 0.00330204
2 *739:io_out_o[23] 0.000338956
3 *121:25 0.150853
4 *121:23 0.149699
5 *121:13 0.0290262
6 *121:11 0.0272172
7 *121:11 *136:37 4.81615e-05
8 *121:13 *122:13 0.103747
9 *121:13 *133:27 0.0153957
10 *121:13 *142:19 0.00305656
11 *121:23 *123:25 0.00498305
12 *121:23 *133:27 0.00188843
13 *121:25 *573:9 0.0117345
14 *83:35 io_out[23] 0.00829657
15 *84:29 *121:23 4.43299e-05
16 *88:15 *121:13 0.000386371
17 *88:23 *121:23 0.00584464
18 *89:13 *121:13 0.0256583
19 *91:23 *121:23 0.000268159
20 *118:23 *121:13 0.00192056
21 *120:13 *121:13 0.00246111
*RES
1 *739:io_out_o[23] *121:11 12.2711 
2 *121:11 *121:13 980.911 
3 *121:13 *121:23 26.5048 
4 *121:23 *121:25 3085.62 
5 *121:25 io_out[23] 33.7217 
*END

*D_NET *122 0.626726
*CONN
*P io_out[24] O
*I *739:io_out_o[24] O *D ntt_wb_bridge
*CAP
1 io_out[24] 0.00872442
2 *739:io_out_o[24] 0.000489318
3 *122:25 0.171932
4 *122:23 0.166716
5 *122:13 0.0165229
6 *122:11 0.0135033
7 *122:11 *136:37 0.000332236
8 *122:13 *123:15 0.103976
9 *122:13 *133:27 0.0222572
10 *122:23 *124:23 0.00337568
11 *122:23 *133:27 0.00462644
12 *122:25 *571:5 0.00472176
13 *80:13 *122:11 0.000117087
14 *82:13 *122:11 0.000108583
15 *87:13 *122:11 0.000108583
16 *89:13 *122:13 0.000314648
17 *89:21 *122:23 0.0048551
18 *92:23 *122:23 0.000298641
19 *121:13 *122:13 0.103747
*RES
1 *739:io_out_o[24] *122:11 13.3267 
2 *122:11 *122:13 982.964 
3 *122:13 *122:23 33.7367 
4 *122:23 *122:25 518.971 
5 *122:25 io_out[24] 29.6658 
*END

*D_NET *123 0.695751
*CONN
*P io_out[25] O
*I *739:io_out_o[25] O *D ntt_wb_bridge
*CAP
1 io_out[25] 0.000783853
2 *739:io_out_o[25] 0.000379609
3 *123:35 0.108589
4 *123:33 0.108237
5 *123:27 0.00711127
6 *123:25 0.0141152
7 *123:21 0.00750338
8 *123:15 0.0298483
9 *123:13 0.0301595
10 *123:13 *136:37 0.000104182
11 *123:15 *133:27 0.0380895
12 *123:21 wbs_dat_o[13] 0.000179748
13 *123:25 *133:27 0.00492312
14 *123:25 *136:67 0.015687
15 *123:27 *124:27 0.00400276
16 *123:27 *542:11 0
17 *123:35 *124:35 0.196144
18 io_oeb[36] *123:27 0.00432356
19 io_oeb[36] *123:33 0
20 *80:25 *123:25 0.000109422
21 *89:13 *123:15 0.000641641
22 *91:23 *123:25 0.000975694
23 *114:13 *123:15 0.00889321
24 *118:15 *123:15 0.00581017
25 *120:29 *123:21 0.000181266
26 *121:23 *123:25 0.00498305
27 *122:13 *123:15 0.103976
*RES
1 *739:io_out_o[25] *123:13 12.4277 
2 *123:13 *123:15 994.875 
3 *123:15 *123:21 10.3118 
4 *123:21 *123:25 47.8501 
5 *123:25 *123:27 154.946 
6 *123:27 *123:33 7.8399 
7 *123:33 *123:35 450.363 
8 *123:35 io_out[25] 5.45137 
*END

*D_NET *124 0.653572
*CONN
*P io_out[26] O
*I *739:io_out_o[26] O *D ntt_wb_bridge
*CAP
1 io_out[26] 0.000819976
2 *739:io_out_o[26] 0.000863271
3 *124:35 0.0601161
4 *124:33 0.0595904
5 *124:27 0.00214946
6 *124:25 0.00185517
7 *124:23 0.02219
8 *124:21 0.0223169
9 *124:15 0.00995236
10 *124:13 0.0106888
11 *124:13 *136:37 0.000132731
12 *124:15 *125:15 0.0374928
13 *124:15 *129:15 0.0237847
14 *124:15 *129:23 0.00237486
15 *124:15 *132:19 0.00411233
16 *124:21 la_data_out[14] 0.000232719
17 *124:23 *125:23 0.00446397
18 *124:23 *130:15 0.0415237
19 *124:23 *133:27 0
20 *124:27 *542:11 0
21 *124:33 *541:9 8.2011e-05
22 *124:35 *125:27 0
23 *124:35 *126:35 0.0596533
24 *124:35 *132:31 0.00240287
25 *124:35 *133:31 0.0262613
26 io_oeb[36] *124:27 0.00153121
27 *81:15 *124:15 0.0151572
28 *92:23 *124:23 0.0332506
29 *107:25 *124:15 0.00183155
30 *115:21 *124:15 0.00208148
31 *116:27 *124:15 0
32 *116:27 *124:23 0.00313816
33 *122:23 *124:23 0.00337568
34 *123:27 *124:27 0.00400276
35 *123:35 *124:35 0.196144
*RES
1 *739:io_out_o[26] *124:13 19.1502 
2 *124:13 *124:15 487.643 
3 *124:15 *124:21 10.9189 
4 *124:21 *124:23 135.388 
5 *124:23 *124:25 3.41 
6 *124:25 *124:27 55.375 
7 *124:27 *124:33 7.6237 
8 *124:33 *124:35 427.991 
9 *124:35 io_out[26] 5.5955 
*END

*D_NET *125 0.573934
*CONN
*P io_out[27] O
*I *739:io_out_o[27] O *D ntt_wb_bridge
*CAP
1 io_out[27] 0.00129414
2 *739:io_out_o[27] 0.000788203
3 *125:27 0.126071
4 *125:25 0.124777
5 *125:23 0.0193519
6 *125:21 0.0193762
7 *125:15 0.00659679
8 *125:13 0.00736068
9 *125:13 *137:21 3.49192e-05
10 *125:15 *126:15 0.000749872
11 *125:15 *127:15 0.0277211
12 *125:15 *129:15 0.000708523
13 *125:15 *129:23 0.000624761
14 *125:15 *132:19 0.00255416
15 *125:21 *343:37 6.58704e-05
16 *125:21 *348:47 6.75178e-05
17 *125:23 *127:23 0.0819228
18 *125:23 *130:15 0.0888564
19 *125:23 *131:15 0.00194984
20 *125:27 *126:35 0
21 *125:27 *132:31 0
22 *125:27 *133:31 0
23 *125:27 *542:11 0.016323
24 *125:27 *575:13 0.000612518
25 io_oeb[36] *125:27 0
26 *107:25 *125:15 0.001975
27 *115:21 *125:15 0.00219416
28 *116:27 *125:15 0
29 *124:15 *125:15 0.0374928
30 *124:23 *125:23 0.00446397
31 *124:35 *125:27 0
*RES
1 *739:io_out_o[27] *125:13 18.1956 
2 *125:13 *125:15 364.839 
3 *125:15 *125:21 8.79393 
4 *125:21 *125:23 158.486 
5 *125:23 *125:25 3.41 
6 *125:25 *125:27 397.203 
7 *125:27 io_out[27] 6.8927 
*END

*D_NET *126 0.480064
*CONN
*P io_out[28] O
*I *739:io_out_o[28] O *D ntt_wb_bridge
*CAP
1 io_out[28] 0.000931181
2 *739:io_out_o[28] 0.00104053
3 *126:35 0.0499016
4 *126:33 0.0489704
5 *126:31 0.0497704
6 *126:29 0.0497704
7 *126:27 0.05958
8 *126:25 0.0620519
9 *126:15 0.00821769
10 *126:13 0.00678633
11 *126:13 *137:21 0.000587511
12 *126:15 *127:15 0.00380688
13 *126:15 *130:15 0.00119911
14 *126:15 *140:13 0.00524916
15 *126:15 *141:13 0.00274003
16 *126:15 *143:15 0.0214912
17 *126:25 *130:15 0.00552247
18 *126:25 *134:15 0.00867706
19 *126:27 *135:20 0
20 *126:27 *345:39 0.0010783
21 *126:27 *346:31 0.000539149
22 *126:27 *347:39 0.000539149
23 *126:27 *348:47 0.000539149
24 *126:31 *333:31 0
25 *126:31 *377:31 0.0074438
26 *126:35 *132:31 0.0128762
27 *80:13 *126:13 0.000109876
28 *92:23 *126:25 0.000699445
29 *107:33 *126:15 0.00329444
30 *112:13 *126:15 0.00624771
31 *116:27 *126:15 0
32 *124:35 *126:35 0.0596533
33 *125:15 *126:15 0.000749872
34 *125:27 *126:35 0
*RES
1 *739:io_out_o[28] *126:13 18.1716 
2 *126:13 *126:15 283.929 
3 *126:15 *126:25 28.9803 
4 *126:25 *126:27 124.904 
5 *126:27 *126:29 3.41 
6 *126:29 *126:31 158.882 
7 *126:31 *126:33 3.41 
8 *126:33 *126:35 231.118 
9 *126:35 io_out[28] 5.88377 
*END

*D_NET *127 0.521819
*CONN
*P io_out[29] O
*I *739:io_out_o[29] O *D ntt_wb_bridge
*CAP
1 io_out[29] 0.0119995
2 *739:io_out_o[29] 0.00102359
3 *127:27 0.111702
4 *127:25 0.0997025
5 *127:23 0.0157816
6 *127:21 0.0157971
7 *127:15 0.00362139
8 *127:13 0.00462951
9 *127:13 *137:21 0.000449633
10 *127:15 *129:15 0.000749182
11 *127:15 *129:23 0.000563167
12 *127:15 *130:15 0.000115479
13 *127:15 *140:13 0.00311139
14 *127:15 *143:15 0.0227985
15 *127:21 *137:19 2.06178e-05
16 *127:23 *129:23 0.0859529
17 *127:23 *130:15 0.00644429
18 *127:23 *131:15 0.00240812
19 *127:27 wbs_dat_o[8] 0.0189912
20 *115:21 *127:15 0.00250678
21 *125:15 *127:15 0.0277211
22 *125:23 *127:23 0.0819228
23 *126:15 *127:15 0.00380688
*RES
1 *739:io_out_o[29] *127:13 18.5344 
2 *127:13 *127:15 278.179 
3 *127:15 *127:21 8.18679 
4 *127:21 *127:23 146.595 
5 *127:23 *127:25 3.41 
6 *127:25 *127:27 315.599 
7 *127:27 io_out[29] 37.1607 
*END

*D_NET *128 0.456871
*CONN
*P io_out[2] O
*I *739:io_out_o[2] O *D ntt_wb_bridge
*CAP
1 io_out[2] 0.000740177
2 *739:io_out_o[2] 0.00217006
3 *128:33 0.0146631
4 *128:31 0.0139229
5 *128:29 0.0423833
6 *128:27 0.0445533
7 *128:27 *130:15 0.00698688
8 *128:27 *134:15 0.00641932
9 *128:29 *133:27 0.0240927
10 *128:29 *142:19 0.0118818
11 *128:33 user_irq[0] 0.00105662
12 *128:33 *137:33 0.0126977
13 io_oeb[0] *128:33 0.00206102
14 *68:27 *128:29 0
15 *76:19 *128:29 0
16 *90:27 *128:29 0.123554
17 *90:31 *128:33 0.0030732
18 *106:13 *128:29 0.0843866
19 *107:35 *128:29 0.0300178
20 *107:39 *128:33 0
21 *114:13 *128:29 0.0288797
22 *116:25 *128:27 7.13706e-06
23 *116:27 *128:27 0.000549841
24 *118:15 *128:29 0.00265748
25 *119:51 *128:27 0.000116217
*RES
1 *739:io_out_o[2] *128:27 36.495 
2 *128:27 *128:29 263.775 
3 *128:29 *128:31 3.41 
4 *128:31 *128:33 404.482 
5 *128:33 io_out[2] 5.4874 
*END

*D_NET *129 0.564359
*CONN
*P io_out[30] O
*I *739:io_out_o[30] O *D ntt_wb_bridge
*CAP
1 io_out[30] 0.01548
2 *739:io_out_o[30] 0.00093932
3 *129:27 0.0648861
4 *129:25 0.0494061
5 *129:23 0.0179423
6 *129:21 0.0179651
7 *129:15 0.00345632
8 *129:13 0.00437286
9 *129:13 *137:21 0.000293824
10 *129:15 *132:19 0.00654139
11 *129:15 *143:15 0.000379467
12 *129:23 *130:15 0.00109102
13 *129:23 *131:15 0.0304825
14 *129:23 *132:19 0.0290755
15 *129:27 *547:5 0.00627916
16 *129:27 *661:11 0
17 *81:15 *129:15 0.028089
18 *81:15 *129:23 0.0116955
19 *86:33 *129:27 0.0247292
20 *87:33 *129:27 0.0103901
21 *91:27 *129:27 0.125812
22 *92:27 *129:27 0.000175725
23 *93:23 *129:27 0.000118681
24 *124:15 *129:15 0.0237847
25 *124:15 *129:23 0.00237486
26 *125:15 *129:15 0.000708523
27 *125:15 *129:23 0.000624761
28 *127:15 *129:15 0.000749182
29 *127:15 *129:23 0.000563167
30 *127:23 *129:23 0.0859529
*RES
1 *739:io_out_o[30] *129:13 19.2007 
2 *129:13 *129:15 265.446 
3 *129:15 *129:21 8.18679 
4 *129:21 *129:23 139.028 
5 *129:23 *129:25 3.41 
6 *129:25 *129:27 274.903 
7 *129:27 io_out[30] 49.1238 
*END

*D_NET *130 0.427827
*CONN
*P io_out[31] O
*I *739:io_out_o[31] O *D ntt_wb_bridge
*CAP
1 io_out[31] 0.00829113
2 *739:io_out_o[31] 0.000751634
3 *130:19 0.0831574
4 *130:17 0.0748663
5 *130:15 0.024939
6 *130:13 0.0256906
7 *130:13 *137:21 0.00018167
8 *130:15 *132:19 0.00015111
9 *130:15 *134:15 0.00414289
10 *130:15 *136:25 0.00485738
11 *130:15 *140:13 0.0307111
12 *130:15 *141:13 0.00198916
13 *130:19 *570:5 0.0006986
14 *92:23 *130:15 0.00402155
15 *109:13 *130:15 0.00172917
16 *116:25 *130:15 0.00990907
17 *124:23 *130:15 0.0415237
18 *125:23 *130:15 0.0888564
19 *126:15 *130:15 0.00119911
20 *126:25 *130:15 0.00552247
21 *127:15 *130:15 0.000115479
22 *127:23 *130:15 0.00644429
23 *128:27 *130:15 0.00698688
24 *129:23 *130:15 0.00109102
*RES
1 *739:io_out_o[31] *130:13 15.9651 
2 *130:13 *130:15 210.446 
3 *130:15 *130:17 3.41 
4 *130:17 *130:19 233.675 
5 *130:19 io_out[31] 26.3507 
*END

*D_NET *131 0.419828
*CONN
*P io_out[32] O
*I *739:io_out_o[32] O *D ntt_wb_bridge
*CAP
1 io_out[32] 0.00679272
2 *739:io_out_o[32] 0.000919457
3 *131:19 0.0679209
4 *131:17 0.0611282
5 *131:15 0.0312109
6 *131:13 0.0321304
7 *131:13 *137:21 3.07418e-05
8 *131:15 *132:19 0.061173
9 *131:19 *643:5 0.00321388
10 *81:15 *131:15 0.0004136
11 *85:21 *131:15 0.00119192
12 *93:19 *131:15 0.118862
13 *125:23 *131:15 0.00194984
14 *127:23 *131:15 0.00240812
15 *129:23 *131:15 0.0304825
*RES
1 *739:io_out_o[32] *131:13 18.7721 
2 *131:13 *131:15 215.779 
3 *131:15 *131:17 3.41 
4 *131:17 *131:19 193.405 
5 *131:19 io_out[32] 23.1798 
*END

*D_NET *132 0.494539
*CONN
*P io_out[33] O
*I *739:io_out_o[33] O *D ntt_wb_bridge
*CAP
1 io_out[33] 0.00103546
2 *739:io_out_o[33] 0.00126934
3 *132:31 0.0293914
4 *132:29 0.028356
5 *132:27 0.0215829
6 *132:25 0.0226952
7 *132:19 0.0130736
8 *132:17 0.0132306
9 *132:17 *133:25 0.000597459
10 *132:17 *137:21 0.000567071
11 *132:19 *133:25 0.00351303
12 *132:19 *140:13 0.0018253
13 *132:27 *136:67 1.94276e-05
14 *132:31 *133:31 0.0523397
15 io_oeb[36] *132:31 0.0131331
16 *80:13 *132:17 0.00010102
17 *81:15 *132:17 0.000121064
18 *81:15 *132:19 0.0144782
19 *86:21 *132:27 0.0577148
20 *93:19 *132:17 0.000179959
21 *93:19 *132:19 5.39976e-05
22 *97:59 *132:27 0.0847394
23 *107:25 *132:19 0.00906835
24 *115:21 *132:19 0.00656666
25 *124:15 *132:19 0.00411233
26 *124:35 *132:31 0.00240287
27 *125:15 *132:19 0.00255416
28 *125:27 *132:31 0
29 *126:35 *132:31 0.0128762
30 *129:15 *132:19 0.00654139
31 *129:23 *132:19 0.0290755
32 *130:15 *132:19 0.00015111
33 *131:15 *132:19 0.061173
*RES
1 *739:io_out_o[33] *132:17 19.4801 
2 *132:17 *132:19 97.4811 
3 *132:19 *132:25 9.31727 
4 *132:25 *132:27 135.676 
5 *132:27 *132:29 3.41 
6 *132:29 *132:31 149.939 
7 *132:31 io_out[33] 6.0279 
*END

*D_NET *133 0.506177
*CONN
*P io_out[34] O
*I *739:io_out_o[34] O *D ntt_wb_bridge
*CAP
1 io_out[34] 0.000931181
2 *739:io_out_o[34] 0.00295826
3 *133:31 0.0138127
4 *133:29 0.0128815
5 *133:27 0.028591
6 *133:25 0.0315492
7 *133:25 *137:21 0.000390878
8 *133:25 *140:13 0.0055419
9 *133:27 *136:67 0
10 *133:27 *142:17 0.000578467
11 *133:27 *142:19 0.0220011
12 *133:31 io_out[37] 0.00353263
13 io_oeb[36] *133:31 2.26355e-05
14 *81:15 *133:25 0.000380414
15 *88:23 *133:27 0.0879451
16 *89:13 *133:27 0.000370196
17 *89:21 *133:27 0.0873265
18 *91:23 *133:27 0.000285704
19 *93:19 *133:25 0.000305057
20 *106:13 *133:27 0.00555028
21 *115:21 *133:25 6.58294e-06
22 *118:15 *133:27 0.000149121
23 *118:23 *133:27 0.00557582
24 *120:13 *133:27 0.00150659
25 *121:13 *133:27 0.0153957
26 *121:23 *133:27 0.00188843
27 *122:13 *133:27 0.0222572
28 *122:23 *133:27 0.00462644
29 *123:15 *133:27 0.0380895
30 *123:25 *133:27 0.00492312
31 *124:23 *133:27 0
32 *124:35 *133:31 0.0262613
33 *125:27 *133:31 0
34 *128:29 *133:27 0.0240927
35 *132:17 *133:25 0.000597459
36 *132:19 *133:25 0.00351303
37 *132:31 *133:31 0.0523397
*RES
1 *739:io_out_o[34] *133:25 36.0831 
2 *133:25 *133:27 226.048 
3 *133:27 *133:29 3.41 
4 *133:29 *133:31 110.309 
5 *133:31 io_out[34] 5.88377 
*END

*D_NET *134 0.359266
*CONN
*P io_out[35] O
*I *739:io_out_o[35] O *D ntt_wb_bridge
*CAP
1 io_out[35] 0.0459388
2 *739:io_out_o[35] 0.000699632
3 *134:21 0.0459388
4 *134:19 0.0379527
5 *134:17 0.0379527
6 *134:15 0.00800881
7 *134:13 0.00870844
8 io_out[35] *584:9 0.0663452
9 io_out[35] *585:17 0
10 *134:13 *137:21 0.000270466
11 *134:15 *136:25 0.00543241
12 *134:19 la_data_out[23] 0.000707551
13 *134:19 *294:21 0.00694659
14 *134:19 *309:25 0
15 *134:19 *314:29 0.000707551
16 *134:19 *326:19 0.000432845
17 *134:19 *332:25 0.000432845
18 *134:19 *340:31 0.000432845
19 *134:19 *344:19 0.00642128
20 *134:19 *351:35 0.000432845
21 *92:23 *134:15 0.0497255
22 *110:13 *134:15 0.00453899
23 *116:25 *134:15 0.00918478
24 *116:27 *134:15 0.00281527
25 *126:25 *134:15 0.00867706
26 *128:27 *134:15 0.00641932
27 *130:15 *134:15 0.00414289
*RES
1 *739:io_out_o[35] *134:13 8.69843 
2 *134:13 *134:15 77.4466 
3 *134:15 *134:17 3.41 
4 *134:17 *134:19 69.9329 
5 *134:19 *134:21 3.41 
6 *134:21 io_out[35] 163.471 
*END

*D_NET *135 0.243241
*CONN
*P io_out[36] O
*I *739:io_out_o[36] O *D ntt_wb_bridge
*CAP
1 io_out[36] 0.0465593
2 *739:io_out_o[36] 0.00130342
3 *135:20 0.0628489
4 *135:14 0.0260966
5 *135:12 0.0111103
6 io_out[36] *555:9 0.00890054
7 io_out[36] *556:9 0.0116377
8 *135:14 *339:31 0.039679
9 *135:14 *340:35 0.00101908
10 *135:14 *343:39 0.00205748
11 *135:14 *349:39 0.000491729
12 *135:14 *350:35 0.000490919
13 *135:14 *351:39 0.00100791
14 *135:20 *343:27 0.000432845
15 *96:14 *135:14 0
16 *98:14 *135:14 0.0296052
17 *126:27 *135:20 0
*RES
1 *739:io_out_o[36] *135:12 10.3826 
2 *135:12 *135:14 80.9058 
3 *135:14 *135:20 48.2019 
4 *135:20 io_out[36] 162.318 
*END

*D_NET *136 0.311115
*CONN
*P io_out[37] O
*I *739:io_out_o[37] O *D ntt_wb_bridge
*CAP
1 io_out[37] 0.00247142
2 *739:io_out_o[37] 0.00408799
3 *136:67 0.0255804
4 *136:65 0.0237984
5 *136:53 0.00172765
6 *136:37 0.00950345
7 *136:25 0.0125532
8 io_out[37] *540:9 0
9 io_out[37] *541:9 0.000176017
10 *136:25 *137:21 0.000605241
11 *136:25 *140:13 0.00392663
12 *136:25 *141:13 0.00231491
13 *136:37 *137:21 0.0208466
14 *136:37 *139:13 0.000390984
15 *136:37 *140:11 6.14836e-06
16 *136:37 *141:11 0.000122728
17 *136:37 *142:17 0.000817289
18 *136:37 *143:13 0.000126606
19 *80:13 *136:25 0.000119135
20 *80:13 *136:37 0.00397758
21 *80:23 *136:53 0.00252614
22 *80:25 *136:65 9.52798e-05
23 *80:25 *136:67 0.0794522
24 *82:13 *136:37 0.00234819
25 *82:13 *136:53 0.000195841
26 *86:13 *136:37 0.000686842
27 *86:13 *136:53 0.000170243
28 *87:13 *136:25 0.000103563
29 *87:13 *136:37 0.00340474
30 *87:13 *136:53 0.000214955
31 *87:13 *136:65 0.00384288
32 *87:13 *136:67 0.000584916
33 *87:21 *136:67 0.0431233
34 *91:23 *136:53 0.000825564
35 *92:23 *136:25 0.000813546
36 *97:41 *136:37 0.00419904
37 *97:41 *136:53 0.00489863
38 *97:51 *136:65 0.0021185
39 *97:59 *136:67 0.00733643
40 *106:11 *136:65 0.00010582
41 *107:25 *136:37 0.000379461
42 *108:13 *136:37 0.00011641
43 *109:11 *136:37 0.00017599
44 *109:13 *136:25 0.00249621
45 *110:11 *136:37 0.000261721
46 *110:13 *136:25 0.00041523
47 *111:13 *136:37 0.000124566
48 *112:11 *136:37 4.46107e-05
49 *112:13 *136:25 0.00250309
50 *113:13 *136:37 0.000105695
51 *114:11 *136:37 0.000219493
52 *115:21 *136:37 0.000291777
53 *116:25 *136:37 0.000354999
54 *117:11 *136:65 0.000140284
55 *118:13 *136:37 0.000102143
56 *119:11 *136:37 0.000136256
57 *119:13 *136:37 0.000882059
58 *119:51 *136:53 2.09826e-05
59 *119:51 *136:65 0.000663845
60 *119:51 *136:67 0.000270305
61 *119:53 *136:67 0.000955958
62 *120:11 *136:37 0.000108535
63 *120:13 *136:65 0
64 *121:11 *136:37 4.81615e-05
65 *122:11 *136:37 0.000332236
66 *123:13 *136:37 0.000104182
67 *123:25 *136:67 0.015687
68 *124:13 *136:37 0.000132731
69 *130:15 *136:25 0.00485738
70 *132:27 *136:67 1.94276e-05
71 *133:27 *136:67 0
72 *133:31 io_out[37] 0.00353263
73 *134:15 *136:25 0.00543241
*RES
1 *739:io_out_o[37] *136:25 41.9304 
2 *136:25 *136:37 47.2525 
3 *136:37 *136:53 22.8918 
4 *136:53 *136:65 44.9074 
5 *136:65 *136:67 169.404 
6 *136:67 io_out[37] 16.654 
*END

*D_NET *137 0.45751
*CONN
*P io_out[3] O
*I *739:io_out_o[3] O *D ntt_wb_bridge
*CAP
1 io_out[3] 0.000814244
2 *739:io_out_o[3] 0.00353056
3 *137:33 0.0128626
4 *137:31 0.0120484
5 *137:29 0.0287578
6 *137:27 0.0289448
7 *137:21 0.0177387
8 *137:19 0.0210823
9 *137:21 *142:17 0.000631995
10 *137:21 *142:19 0.0114952
11 *137:29 *139:21 0.0835851
12 *137:33 *140:25 0.00128194
13 *68:17 *137:21 0.000140433
14 *68:27 *137:29 0.0335573
15 *78:13 *137:29 0.0163891
16 *80:13 *137:21 0.00205746
17 *82:13 *137:21 0.00109794
18 *85:11 *137:27 0
19 *86:11 *137:29 0.000118855
20 *86:13 *137:21 0.0033468
21 *87:13 *137:21 0.00112709
22 *90:25 *137:21 0.000554829
23 *90:31 *137:33 0.00828684
24 *93:19 *137:19 0.00841465
25 *95:11 *137:29 0.000117228
26 *96:14 *137:19 0.00450096
27 *97:23 *137:21 0.0115158
28 *97:41 *137:19 0.000134564
29 *99:21 *137:21 5.72741e-05
30 *99:23 *137:21 0.0187418
31 *99:23 *137:29 0.00103903
32 *100:17 *137:21 0.000122527
33 *101:13 *137:21 0.000328482
34 *102:17 *137:21 0.000328362
35 *102:19 *137:21 0.000493662
36 *103:17 *137:21 0.00107827
37 *103:19 *137:21 0.0117178
38 *104:13 *137:21 5.5235e-05
39 *104:27 *137:33 0.0469696
40 *105:13 *137:21 0.000211368
41 *107:39 *137:33 2.30116e-06
42 *108:15 *137:21 0.0122792
43 *111:15 *137:21 0.00721237
44 *113:15 *137:21 0.00576268
45 *125:13 *137:21 3.49192e-05
46 *126:13 *137:21 0.000587511
47 *127:13 *137:21 0.000449633
48 *127:21 *137:19 2.06178e-05
49 *128:33 *137:33 0.0126977
50 *129:13 *137:21 0.000293824
51 *130:13 *137:21 0.00018167
52 *131:13 *137:21 3.07418e-05
53 *132:17 *137:21 0.000567071
54 *133:25 *137:21 0.000390878
55 *134:13 *137:21 0.000270466
56 *136:25 *137:21 0.000605241
57 *136:37 *137:21 0.0208466
*RES
1 *739:io_out_o[3] *137:19 43.5448 
2 *137:19 *137:21 101.481 
3 *137:21 *137:27 10.9189 
4 *137:27 *137:29 910.679 
5 *137:29 *137:31 4.5 
6 *137:31 *137:33 575.848 
7 *137:33 io_out[3] 5.7036 
*END

*D_NET *138 0.393002
*CONN
*P io_out[4] O
*I *739:io_out_o[4] O *D ntt_wb_bridge
*CAP
1 io_out[4] 0.00176951
2 *739:io_out_o[4] 0.00170232
3 *138:17 0.0508927
4 *138:15 0.0491232
5 *138:13 0.0488862
6 *138:11 0.0505885
7 *138:13 la_data_out[84] 0
8 *69:17 *138:13 0.0198392
9 *94:17 *138:13 0.0825954
10 *97:41 *138:11 4.63962e-05
11 *98:14 *138:13 0.0875588
*RES
1 *739:io_out_o[4] *138:11 10.7382 
2 *138:11 *138:13 270.297 
3 *138:13 *138:15 3.41 
4 *138:15 *138:17 136.197 
5 *138:17 io_out[4] 8.1899 
*END

*D_NET *139 0.33151
*CONN
*P io_out[5] O
*I *739:io_out_o[5] O *D ntt_wb_bridge
*CAP
1 io_out[5] 0.00119619
2 *739:io_out_o[5] 0.00171342
3 *139:29 0.00737208
4 *139:27 0.00617589
5 *139:25 0.0450881
6 *139:23 0.0450881
7 *139:21 0.0463889
8 *139:19 0.0465408
9 *139:13 0.00186534
10 *139:13 *140:11 0
11 *78:13 *139:21 0.00356837
12 *80:13 *139:13 0.00438464
13 *82:13 *139:13 0.000217146
14 *86:13 *139:13 0.00024257
15 *86:13 *139:21 0.0157398
16 *87:13 *139:13 0.000217146
17 *97:23 *139:13 2.51343e-06
18 *97:41 *139:13 0.000802209
19 *104:23 *139:21 0.0131962
20 *108:19 io_out[5] 0.000363521
21 *119:13 *139:21 0.00715045
22 *119:31 *139:13 0.000221
23 *120:13 *139:13 0
24 *136:37 *139:13 0.000390984
25 *137:29 *139:21 0.0835851
*RES
1 *739:io_out_o[5] *139:13 49.657 
2 *139:13 *139:19 11.25 
3 *139:19 *139:21 1376.84 
4 *139:21 *139:23 4.5 
5 *139:23 *139:25 926.929 
6 *139:25 *139:27 4.5 
7 *139:27 *139:29 116.768 
8 *139:29 io_out[5] 15.0907 
*END

*D_NET *140 0.495825
*CONN
*P io_out[6] O
*I *739:io_out_o[6] O *D ntt_wb_bridge
*CAP
1 io_out[6] 0.000868939
2 *739:io_out_o[6] 0.00074363
3 *140:25 0.0253304
4 *140:23 0.0244615
5 *140:21 0.0418722
6 *140:19 0.0418722
7 *140:17 0.022189
8 *140:15 0.022189
9 *140:13 0.0181875
10 *140:11 0.0189311
11 *140:13 *141:13 0.00104509
12 *140:13 *143:15 0.00591842
13 *140:13 *357:31 0
14 *140:17 *658:11 0.0260486
15 *140:17 *682:39 0.00400567
16 *140:25 *143:27 0.0020892
17 *68:17 *140:13 2.16497e-05
18 *68:19 *140:13 0.0465035
19 *74:27 *140:13 0.00600912
20 *75:13 *140:13 0.0063512
21 *76:19 *140:13 0.00391767
22 *77:111 *140:21 0
23 *78:127 *140:21 0
24 *92:23 *140:13 0.000364443
25 *93:19 *140:13 0.00149688
26 *97:41 *140:11 5.08737e-05
27 *99:27 *140:25 0.0110132
28 *100:17 *140:13 9.68775e-05
29 *100:19 *140:13 0.000423126
30 *100:31 *140:25 0.00461945
31 *101:15 *140:13 0.0438968
32 *101:27 *140:25 0.0212039
33 *104:27 *140:25 0.000111976
34 *105:27 *140:25 0.00680594
35 *107:25 *140:13 0.00549912
36 *107:33 *140:13 0.00067069
37 *107:39 *140:25 0.00222836
38 *108:19 *140:25 0.00411876
39 *109:13 *140:13 0.000192436
40 *112:13 *140:13 0.00328392
41 *115:21 *140:13 0.0125953
42 *115:23 *140:13 0.00687656
43 *119:27 *140:11 6.77047e-05
44 *126:15 *140:13 0.00524916
45 *127:15 *140:13 0.00311139
46 *130:15 *140:13 0.0307111
47 *132:19 *140:13 0.0018253
48 *133:25 *140:13 0.0055419
49 *136:25 *140:13 0.00392663
50 *136:37 *140:11 6.14836e-06
51 *137:33 *140:25 0.00128194
52 *139:13 *140:11 0
*RES
1 *739:io_out_o[6] *140:11 17.4294 
2 *140:11 *140:13 145.514 
3 *140:13 *140:15 3.41 
4 *140:15 *140:17 90.6003 
5 *140:17 *140:19 3.41 
6 *140:19 *140:21 123.425 
7 *140:21 *140:23 3.41 
8 *140:23 *140:25 106.154 
9 *140:25 io_out[6] 5.73963 
*END

*D_NET *141 0.53362
*CONN
*P io_out[7] O
*I *739:io_out_o[7] O *D ntt_wb_bridge
*CAP
1 io_out[7] 0.000992006
2 *739:io_out_o[7] 0.000752322
3 *141:21 0.0088915
4 *141:19 0.00789949
5 *141:17 0.0293003
6 *141:15 0.0293003
7 *141:13 0.0218128
8 *141:11 0.0225652
9 *141:17 *648:11 0.0231972
10 *141:17 *659:15 0.00494572
11 *141:17 *671:17 0.0731297
12 *141:17 *674:13 0.00240991
13 *141:17 *681:11 0.0103096
14 *141:17 *694:11 0
15 *141:17 *720:11 0.00066984
16 *141:17 *732:11 0
17 *68:19 *141:13 0.000651507
18 *74:25 *141:13 0.000270003
19 *74:31 *141:17 0
20 *76:19 *141:13 0.0179272
21 *76:23 *141:17 0
22 *78:137 *141:17 0.0346381
23 *90:25 *141:13 0.000155726
24 *97:15 *141:13 0.0180047
25 *99:21 *141:13 0.0016428
26 *108:19 io_out[7] 6.87203e-05
27 *109:13 *141:13 0.139819
28 *112:13 *141:13 0.0656146
29 *115:211 *141:17 0.00763022
30 *116:25 *141:13 0.00168501
31 *116:27 *141:13 0.00112538
32 *126:15 *141:13 0.00274003
33 *130:15 *141:13 0.00198916
34 *136:25 *141:13 0.00231491
35 *136:37 *141:11 0.000122728
36 *140:13 *141:13 0.00104509
*RES
1 *739:io_out_o[7] *141:11 17.3256 
2 *141:11 *141:13 1371.09 
3 *141:13 *141:15 4.5 
4 *141:15 *141:17 1356.18 
5 *141:17 *141:19 4.5 
6 *141:19 *141:21 147.571 
7 *141:21 io_out[7] 11.4479 
*END

*D_NET *142 0.473736
*CONN
*P io_out[8] O
*I *739:io_out_o[8] O *D ntt_wb_bridge
*CAP
1 io_out[8] 0.00235018
2 *739:io_out_o[8] 0.00119517
3 *142:31 0.0793893
4 *142:29 0.0770391
5 *142:27 0.0304467
6 *142:25 0.0305344
7 *142:19 0.00948879
8 *142:17 0.0105962
9 *142:31 la_data_out[126] 0
10 *88:15 *142:17 0.000249486
11 *88:15 *142:19 0.00807664
12 *88:15 *142:27 0.0237227
13 *89:13 *142:19 0.0091764
14 *89:13 *142:27 0.00072385
15 *90:27 *142:19 6.58294e-06
16 *91:23 *142:17 0.000778117
17 *92:21 *142:27 0.000795552
18 *97:23 *142:17 0.000213386
19 *97:41 *142:17 0.00147815
20 *100:27 *142:27 0.00170879
21 *102:19 *142:19 0.00147883
22 *102:19 *142:27 0.0209504
23 *103:35 *142:27 0.000705135
24 *107:35 *142:27 0
25 *108:15 *142:27 0.00152724
26 *108:19 io_out[8] 0.000267871
27 *111:15 *142:27 0.0048163
28 *113:15 *142:27 0.101516
29 *114:13 *142:27 0
30 *114:23 *142:27 0.000143819
31 *115:31 *142:27 0.00119829
32 *120:13 *142:17 0.000346958
33 *120:13 *142:19 0.00235282
34 *121:13 *142:19 0.00305656
35 *128:29 *142:19 0.0118818
36 *133:27 *142:17 0.000578467
37 *133:27 *142:19 0.0220011
38 *136:37 *142:17 0.000817289
39 *137:21 *142:17 0.000631995
40 *137:21 *142:19 0.0114952
*RES
1 *739:io_out_o[8] *142:17 14.2733 
2 *142:17 *142:19 67.105 
3 *142:19 *142:25 9.0975 
4 *142:25 *142:27 1074.96 
5 *142:27 *142:29 4.5 
6 *142:29 *142:31 1584.77 
7 *142:31 io_out[8] 42.7336 
*END

*D_NET *143 0.598163
*CONN
*P io_out[9] O
*I *739:io_out_o[9] O *D ntt_wb_bridge
*CAP
1 io_out[9] 0.00084749
2 *739:io_out_o[9] 0.00079634
3 *143:27 0.0227969
4 *143:25 0.0219494
5 *143:23 0.0384558
6 *143:21 0.0384558
7 *143:19 0.00515517
8 *143:17 0.00515517
9 *143:15 0.0129026
10 *143:13 0.0136989
11 *143:19 *363:11 0
12 *143:19 *729:11 0
13 *143:19 *731:11 0
14 *74:27 *143:15 0.0272207
15 *77:35 *143:19 0
16 *81:15 *143:15 0.00198875
17 *91:21 *143:13 0
18 *99:27 *143:27 0.00996112
19 *101:15 *143:15 0.00909811
20 *101:27 *143:27 0.00454205
21 *104:27 *143:27 0.127071
22 *105:15 *143:15 0.0357917
23 *105:27 *143:27 0.00815087
24 *107:39 *143:27 0.141597
25 *112:13 *143:15 0.00036161
26 *115:21 *143:15 0.00249635
27 *115:23 *143:15 0.0168661
28 *115:47 *143:23 0
29 *126:15 *143:15 0.0214912
30 *127:15 *143:15 0.0227985
31 *129:15 *143:15 0.000379467
32 *136:37 *143:13 0.000126606
33 *140:13 *143:15 0.00591842
34 *140:25 *143:27 0.0020892
*RES
1 *739:io_out_o[9] *143:13 18.2301 
2 *143:13 *143:15 752.554 
3 *143:15 *143:17 4.5 
4 *143:17 *143:19 97.5714 
5 *143:19 *143:21 4.5 
6 *143:21 *143:23 746.393 
7 *143:23 *143:25 4.5 
8 *143:25 *143:27 1735.19 
9 *143:27 io_out[9] 5.84773 
*END

*D_NET *272 0.219944
*CONN
*P la_data_out[0] O
*I *739:la_data_out_o[0] O *D ntt_wb_bridge
*CAP
1 la_data_out[0] 0.000744594
2 *739:la_data_out_o[0] 0.000520998
3 *272:45 0.0163223
4 *272:43 0.0156749
5 *272:37 0.00337325
6 *272:35 0.00354213
7 *272:25 0.0266839
8 *272:23 0.0269388
9 la_data_out[0] *578:13 0
10 *272:23 *311:23 0.00134302
11 *272:23 *322:21 4.59303e-05
12 *272:23 *329:19 0.00138478
13 *272:23 *332:23 0.000162414
14 *272:23 *337:37 0.000100235
15 *272:23 *337:41 0.000347819
16 *272:23 *388:25 2.11419e-05
17 *272:25 *283:25 0.00133746
18 *272:25 *309:25 0
19 *272:25 *311:25 0.0609861
20 *272:25 *313:17 0.0126818
21 *272:25 *323:23 0.00862673
22 *272:25 *327:29 0
23 *272:25 *330:17 0.00140343
24 *272:35 *317:19 0.000173675
25 *272:35 *318:19 9.22222e-06
26 *272:35 *334:43 0.000274641
27 *272:35 *337:61 0.000271488
28 *272:37 la_data_out[15] 0.000225341
29 *272:37 la_data_out[25] 5.49995e-05
30 *272:37 *294:27 0.0018088
31 *272:37 *303:27 0.00132713
32 *272:37 *311:37 0.00424438
33 *272:37 *318:29 9.84729e-05
34 *272:37 *319:31 2.55889e-05
35 *272:45 la_data_out[13] 0.00919739
36 *272:45 *283:31 0.000257561
37 *272:45 *294:27 0.000553956
38 *272:45 *303:27 0.000921529
39 *272:45 *311:45 0
40 *272:45 *344:23 0
41 *95:27 *272:25 0.00185831
42 *95:29 *272:25 0.0163999
*RES
1 *739:la_data_out_o[0] *272:23 33.7737 
2 *272:23 *272:25 129.911 
3 *272:25 *272:35 14.4687 
4 *272:35 *272:37 86.7857 
5 *272:37 *272:43 9.40107 
6 *272:43 *272:45 50.7819 
7 *272:45 la_data_out[0] 18.6511 
*END

*D_NET *273 0.206813
*CONN
*P la_data_out[100] O
*I *739:la_data_out_o[100] O *D ntt_wb_bridge
*CAP
1 la_data_out[100] 0.0381161
2 *739:la_data_out_o[100] 0.00102627
3 *273:17 0.0381161
4 *273:15 0.0075234
5 *273:13 0.00854967
6 *273:13 *380:11 0.000319033
7 *273:15 *274:15 0.000401497
8 *273:15 *275:15 0.0533458
9 *273:15 *280:15 0.0497011
10 *273:15 *387:15 0.00664416
11 *273:15 *391:15 0.000755107
12 *273:15 *398:15 0.000731248
13 *273:15 *726:15 0.00143639
14 *273:15 *737:23 0.000146799
*RES
1 *739:la_data_out_o[100] *273:13 21.2693 
2 *273:13 *273:15 518.446 
3 *273:15 *273:17 4.5 
4 *273:17 la_data_out[100] 770.375 
*END

*D_NET *274 0.200412
*CONN
*P la_data_out[101] O
*I *739:la_data_out_o[101] O *D ntt_wb_bridge
*CAP
1 la_data_out[101] 0.000816235
2 *739:la_data_out_o[101] 0.000992144
3 *274:23 0.00342745
4 *274:21 0.00261122
5 *274:19 0.0374227
6 *274:17 0.0374227
7 *274:15 0.00768816
8 *274:13 0.0086803
9 *274:13 *380:11 0.000176387
10 *274:15 *275:15 0.0464399
11 *274:15 *276:15 0.0379794
12 *274:15 *385:15 0.00592445
13 *274:15 *387:15 0.000473445
14 *274:15 *391:15 0.000491982
15 *274:15 *398:15 0.000153807
16 *274:15 *737:23 0.000753993
17 *274:19 la_data_out[96] 0
18 *274:23 *276:23 0.00855583
19 *273:15 *274:15 0.000401497
*RES
1 *739:la_data_out_o[101] *274:13 21.6414 
2 *274:13 *274:15 447.804 
3 *274:15 *274:17 4.5 
4 *274:17 *274:19 755.714 
5 *274:19 *274:21 4.5 
6 *274:21 *274:23 81.0357 
7 *274:23 la_data_out[101] 19.8929 
*END

*D_NET *275 0.206769
*CONN
*P la_data_out[102] O
*I *739:la_data_out_o[102] O *D ntt_wb_bridge
*CAP
1 la_data_out[102] 0.00143339
2 *739:la_data_out_o[102] 0.00098301
3 *275:19 0.0389146
4 *275:17 0.0374812
5 *275:15 0.00851111
6 *275:13 0.00949412
7 la_data_out[102] *302:21 0.0024405
8 *275:13 *358:21 0
9 *275:13 *380:11 0.000211053
10 *275:15 *280:15 0.000496897
11 *275:15 *385:15 0.00549415
12 *275:15 *387:15 0.000313184
13 *275:15 *391:15 0.000497853
14 *275:15 *398:15 0.000712333
15 *273:15 *275:15 0.0533458
16 *274:15 *275:15 0.0464399
*RES
1 *739:la_data_out_o[102] *275:13 21.3911 
2 *275:13 *275:15 514.75 
3 *275:15 *275:17 4.5 
4 *275:17 *275:19 757.232 
5 *275:19 la_data_out[102] 45.6964 
*END

*D_NET *276 0.197268
*CONN
*P la_data_out[103] O
*I *739:la_data_out_o[103] O *D ntt_wb_bridge
*CAP
1 la_data_out[103] 0.000787863
2 *739:la_data_out_o[103] 0.00107046
3 *276:23 0.00521643
4 *276:21 0.00442856
5 *276:19 0.0374766
6 *276:17 0.0374766
7 *276:15 0.00815162
8 *276:13 0.00922209
9 *276:13 *358:21 0
10 *276:13 *380:11 0.000140123
11 *276:15 *360:27 0.00016595
12 *276:15 *374:15 0.00418422
13 *276:15 *385:15 0.00128691
14 *276:15 *387:15 0.000366889
15 *276:15 *391:15 0.000135163
16 *276:15 *725:15 6.47486e-05
17 *276:15 *737:23 0.0208475
18 *276:19 la_data_out[91] 0
19 *276:23 *285:21 0.019711
20 *274:15 *276:15 0.0379794
21 *274:23 *276:23 0.00855583
*RES
1 *739:la_data_out_o[103] *276:13 21.9074 
2 *276:13 *276:15 360.732 
3 *276:15 *276:17 4.5 
4 *276:17 *276:19 756.321 
5 *276:19 *276:21 4.5 
6 *276:21 *276:23 186.589 
7 *276:23 la_data_out[103] 19.5893 
*END

*D_NET *277 0.2009
*CONN
*P la_data_out[104] O
*I *739:la_data_out_o[104] O *D ntt_wb_bridge
*CAP
1 la_data_out[104] 0.0389203
2 *739:la_data_out_o[104] 0.000428105
3 *277:17 0.0389203
4 *277:15 0.0207716
5 *277:13 0.0211997
6 *277:13 *278:13 0
7 *277:13 *380:11 4.04331e-05
8 *277:13 *381:21 0
9 *277:15 *279:15 0
10 *277:15 *298:17 0.000944962
11 *277:15 *365:15 0.00536694
12 *277:15 *369:15 0.00407298
13 *277:15 *370:15 0.00367515
14 *277:15 *382:13 0.0112538
15 *277:15 *397:15 0.0515727
16 *277:15 *531:17 0.00373286
*RES
1 *739:la_data_out_o[104] *277:13 12.6819 
2 *277:13 *277:15 97.7694 
3 *277:15 *277:17 3.41 
4 *277:17 la_data_out[104] 763.241 
*END

*D_NET *278 0.187757
*CONN
*P la_data_out[105] O
*I *739:la_data_out_o[105] O *D ntt_wb_bridge
*CAP
1 la_data_out[105] 0.037833
2 *739:la_data_out_o[105] 0.000629754
3 *278:17 0.037833
4 *278:15 0.0128657
5 *278:13 0.0134955
6 *278:13 *380:11 0.00012133
7 *278:13 *381:21 0
8 *278:15 *279:15 0.00323534
9 *278:15 *282:17 0.000146255
10 *278:15 *292:15 0.0120686
11 *278:15 *299:15 0.0463082
12 *278:15 *389:15 0.00765807
13 *278:15 *395:15 0.0054805
14 *278:15 *396:15 0.0029115
15 *278:15 *397:15 0.000144485
16 *278:15 *529:15 0.00702582
17 *277:13 *278:13 0
*RES
1 *739:la_data_out_o[105] *278:13 16.3961 
2 *278:13 *278:15 567.321 
3 *278:15 *278:17 4.5 
4 *278:17 la_data_out[105] 765.821 
*END

*D_NET *279 0.189658
*CONN
*P la_data_out[106] O
*I *739:la_data_out_o[106] O *D ntt_wb_bridge
*CAP
1 la_data_out[106] 0.00106867
2 *739:la_data_out_o[106] 0.000887448
3 *279:19 0.0383165
4 *279:17 0.0372478
5 *279:15 0.0192609
6 *279:13 0.0201484
7 la_data_out[106] *284:21 0.000150667
8 la_data_out[106] *285:21 0.00013727
9 la_data_out[106] *297:21 0.000131918
10 la_data_out[106] *302:21 0.000279407
11 *279:13 *280:13 0
12 *279:13 *380:11 0.00067802
13 *279:15 *281:15 0.0190585
14 *279:15 *282:17 0.0184393
15 *279:15 *299:15 0.00204679
16 *279:15 *356:19 0.000721645
17 *279:15 *359:15 0.00021796
18 *279:15 *360:19 0.00153444
19 *279:15 *368:15 0.00267639
20 *279:15 *389:15 0.000112662
21 *279:15 *396:15 0.00518784
22 *279:15 *397:15 0
23 *279:15 *398:15 0.01812
24 *115:143 *279:19 0
25 *277:15 *279:15 0
26 *278:15 *279:15 0.00323534
*RES
1 *739:la_data_out_o[106] *279:13 17.8312 
2 *279:13 *279:15 98.9945 
3 *279:15 *279:17 3.41 
4 *279:17 *279:19 753.589 
5 *279:19 la_data_out[106] 21.9748 
*END

*D_NET *280 0.215415
*CONN
*P la_data_out[107] O
*I *739:la_data_out_o[107] O *D ntt_wb_bridge
*CAP
1 la_data_out[107] 0.038753
2 *739:la_data_out_o[107] 0.000979068
3 *280:17 0.038753
4 *280:15 0.0103003
5 *280:13 0.0112793
6 *280:13 *380:11 0.000337481
7 *280:15 *296:15 0.0513574
8 *280:15 *387:15 0.00551296
9 *280:15 *391:15 0.000600162
10 *280:15 *398:15 0.000953173
11 *280:15 *726:15 0.00395012
12 *77:105 la_data_out[107] 0.00244148
13 *273:15 *280:15 0.0497011
14 *275:15 *280:15 0.000496897
15 *279:13 *280:13 0
*RES
1 *739:la_data_out_o[107] *280:13 20.9782 
2 *280:13 *280:15 582.107 
3 *280:15 *280:17 4.5 
4 *280:17 la_data_out[107] 770.071 
*END

*D_NET *281 0.213949
*CONN
*P la_data_out[108] O
*I *739:la_data_out_o[108] O *D ntt_wb_bridge
*CAP
1 la_data_out[108] 0.00900303
2 *739:la_data_out_o[108] 0.00410403
3 *281:25 0.00900303
4 *281:23 0.026338
5 *281:21 0.026338
6 *281:19 0.0128385
7 *281:17 0.0128385
8 *281:15 0.00410403
9 *281:15 *354:21 1.14483e-05
10 *281:15 *356:25 7.16043e-05
11 *281:15 *361:15 0.00226434
12 *281:15 *362:15 0.00210604
13 *281:15 *380:11 0.000544796
14 *281:15 *398:15 0.0190547
15 *281:19 *282:19 0.0159543
16 *281:19 *284:17 8.34842e-05
17 *281:19 *302:17 0.0473904
18 *281:19 *365:19 0
19 *281:19 *647:15 0.00263684
20 *281:19 *649:15 0
21 *77:55 *281:23 0.00020499
22 *279:15 *281:15 0.0190585
*RES
1 *739:la_data_out_o[108] *281:15 48.2112 
2 *281:15 *281:17 3.41 
3 *281:17 *281:19 594.518 
4 *281:19 *281:21 3.41 
5 *281:21 *281:23 73.555 
6 *281:23 *281:25 3.41 
7 *281:25 la_data_out[108] 173.705 
*END

*D_NET *282 0.182265
*CONN
*P la_data_out[109] O
*I *739:la_data_out_o[109] O *D ntt_wb_bridge
*CAP
1 la_data_out[109] 0.0195997
2 *739:la_data_out_o[109] 0.00512742
3 *282:25 0.0195997
4 *282:23 0.0240291
5 *282:21 0.0240291
6 *282:19 0.0133413
7 *282:17 0.0184687
8 *282:17 *288:21 0.00435019
9 *282:17 *295:23 0.00256361
10 *282:17 *299:15 0.000168246
11 *282:17 *359:15 0.00098909
12 *282:17 *380:11 0.000500613
13 *282:17 *389:15 0.0020105
14 *282:17 *396:15 0.00105336
15 *282:19 *365:19 0
16 *282:19 *647:15 0.00254409
17 *282:19 *683:27 0
18 *282:23 *705:7 0.00935012
19 *278:15 *282:17 0.000146255
20 *279:15 *282:17 0.0184393
21 *281:19 *282:19 0.0159543
*RES
1 *739:la_data_out_o[109] *282:17 49.3792 
2 *282:17 *282:19 383.839 
3 *282:19 *282:21 3.41 
4 *282:21 *282:23 76.1494 
5 *282:23 *282:25 3.41 
6 *282:25 la_data_out[109] 383.17 
*END

*D_NET *283 0.241718
*CONN
*P la_data_out[10] O
*I *739:la_data_out_o[10] O *D ntt_wb_bridge
*CAP
1 la_data_out[10] 0.000609382
2 *739:la_data_out_o[10] 0.000454235
3 *283:31 0.00563494
4 *283:25 0.0308669
5 *283:23 0.0267123
6 *283:13 0.00244294
7 *283:11 0.00202619
8 *283:11 *310:21 0.000183013
9 *283:13 *294:13 0.00889955
10 *283:13 *294:19 0.000227838
11 *283:13 *309:23 0.00104658
12 *283:13 *310:21 0.000602845
13 *283:13 *330:13 0.00852692
14 *283:23 *331:35 0.000873662
15 *283:23 *331:37 0
16 *283:23 *335:25 0.000336051
17 *283:23 *338:35 0.000253957
18 *283:23 *338:37 0.000800036
19 *283:23 *355:23 3.8312e-05
20 *283:23 *399:21 0.000110498
21 *283:23 *399:25 1.04953e-06
22 *283:25 *309:25 0.0602014
23 *283:25 *318:19 0.00112718
24 *283:25 *325:19 0.000653059
25 *283:31 la_data_out[15] 0.0150796
26 *283:31 la_data_out[18] 0.00182031
27 *283:31 la_data_out[21] 0.004093
28 *283:31 *294:27 0.00369461
29 *283:31 *311:45 0.0157668
30 *283:31 *332:37 0.000505268
31 *95:27 *283:25 0.00184526
32 *95:29 *283:25 0.0446889
33 *272:25 *283:25 0.00133746
34 *272:45 *283:31 0.000257561
*RES
1 *739:la_data_out_o[10] *283:11 10.8507 
2 *283:11 *283:13 88.8393 
3 *283:13 *283:23 34.0261 
4 *283:23 *283:25 127.354 
5 *283:25 *283:31 44.8101 
6 *283:31 la_data_out[10] 12.2054 
*END

*D_NET *284 0.26146
*CONN
*P la_data_out[110] O
*I *739:la_data_out_o[110] O *D ntt_wb_bridge
*CAP
1 la_data_out[110] 0.000744261
2 *739:la_data_out_o[110] 0.000322752
3 *284:21 0.00740793
4 *284:19 0.00666367
5 *284:17 0.0230824
6 *284:15 0.0230824
7 *284:13 0.00286137
8 *284:11 0.00318412
9 *284:11 *380:11 0.000205646
10 *284:13 *285:13 0.00434448
11 *284:13 *288:23 0.0100113
12 *284:13 *297:13 0.00809176
13 *284:13 *380:11 0.00309259
14 *284:13 *381:23 0.00365275
15 *284:17 *302:17 0.0602326
16 *284:17 *367:27 0
17 *284:17 *649:15 0.00116409
18 *284:21 la_data_out[81] 0.000121926
19 *284:21 *285:21 0.0418369
20 *284:21 *297:21 0.0353249
21 *284:21 *302:21 0.00387809
22 *284:21 *362:31 0.00294791
23 *284:21 *375:29 0.00011307
24 *284:21 *383:41 0.00521174
25 la_data_out[106] *284:21 0.000150667
26 *101:19 *284:17 0.0136471
27 *281:19 *284:17 8.34842e-05
*RES
1 *739:la_data_out_o[110] *284:11 10.3595 
2 *284:11 *284:13 157.429 
3 *284:13 *284:15 4.5 
4 *284:15 *284:17 744.482 
5 *284:17 *284:19 4.5 
6 *284:19 *284:21 451.5 
7 *284:21 la_data_out[110] 18.9821 
*END

*D_NET *285 0.205877
*CONN
*P la_data_out[111] O
*I *739:la_data_out_o[111] O *D ntt_wb_bridge
*CAP
1 la_data_out[111] 0.000759381
2 *739:la_data_out_o[111] 0.000200042
3 *285:21 0.0104402
4 *285:19 0.00968081
5 *285:17 0.036445
6 *285:15 0.036445
7 *285:13 0.00360789
8 *285:11 0.00380794
9 *285:11 *380:11 0.000191525
10 *285:13 *286:13 0.021195
11 *285:13 *295:31 0.000302964
12 *285:13 *297:13 0.0138784
13 *285:13 *380:11 0.000333105
14 *285:13 *531:17 0.000135843
15 *285:21 *297:21 0.000925088
16 la_data_out[106] *285:21 0.00013727
17 *77:47 *285:17 0
18 *115:65 *285:17 0.00149876
19 *276:23 *285:21 0.019711
20 *284:13 *285:13 0.00434448
21 *284:21 *285:21 0.0418369
*RES
1 *739:la_data_out_o[111] *285:11 9.6615 
2 *285:11 *285:13 206.714 
3 *285:13 *285:15 4.5 
4 *285:15 *285:17 743.571 
5 *285:17 *285:19 4.5 
6 *285:19 *285:21 412.071 
7 *285:21 la_data_out[111] 19.2857 
*END

*D_NET *286 0.208627
*CONN
*P la_data_out[112] O
*I *739:la_data_out_o[112] O *D ntt_wb_bridge
*CAP
1 la_data_out[112] 0.0386001
2 *739:la_data_out_o[112] 0.000111866
3 *286:15 0.0386001
4 *286:13 0.0112816
5 *286:11 0.0113935
6 *286:11 *380:11 8.72503e-05
7 *286:13 *287:13 0.0658869
8 *286:13 *288:23 0.0114108
9 *286:13 *292:13 0.000119626
10 *286:13 *295:31 0.00453509
11 *286:13 *297:13 0.00360699
12 *286:13 *380:11 0.00167883
13 *286:13 *531:17 0.000119626
14 *285:13 *286:13 0.021195
*RES
1 *739:la_data_out_o[112] *286:11 9.05086 
2 *286:11 *286:13 629.339 
3 *286:13 *286:15 4.5 
4 *286:15 la_data_out[112] 757.929 
*END

*D_NET *287 0.231674
*CONN
*P la_data_out[113] O
*I *739:la_data_out_o[113] O *D ntt_wb_bridge
*CAP
1 la_data_out[113] 0.0373685
2 *739:la_data_out_o[113] 0.000152751
3 *287:15 0.0373685
4 *287:13 0.00930553
5 *287:11 0.00945828
6 *287:11 *380:11 0.000122702
7 *287:13 *288:23 0.000191958
8 *287:13 *289:13 0.0658852
9 *287:13 *292:13 0.000127432
10 *287:13 *295:31 0.0049378
11 *287:13 *380:11 0.000741457
12 *287:13 *531:17 0.000127432
13 *286:13 *287:13 0.0658869
*RES
1 *739:la_data_out_o[113] *287:11 8.87262 
2 *287:11 *287:13 637.964 
3 *287:13 *287:15 4.5 
4 *287:15 la_data_out[113] 757.625 
*END

*D_NET *288 0.178268
*CONN
*P la_data_out[114] O
*I *739:la_data_out_o[114] O *D ntt_wb_bridge
*CAP
1 la_data_out[114] 0.0374452
2 *739:la_data_out_o[114] 0.0019474
3 *288:25 0.0374452
4 *288:23 0.0136122
5 *288:21 0.0155596
6 *288:21 *295:23 0
7 *288:21 *380:11 0.000111134
8 *288:21 *389:15 0.000867006
9 *288:21 *396:15 0.00163261
10 *288:23 *289:13 0
11 *288:23 *293:13 0.0138266
12 *288:23 *297:13 0.00670959
13 *288:23 *363:7 0.000243851
14 *288:23 *381:23 0.0124457
15 *288:23 *383:17 0.00116846
16 *288:23 *392:21 0.00928914
17 *115:171 la_data_out[114] 0
18 *282:17 *288:21 0.00435019
19 *284:13 *288:23 0.0100113
20 *286:13 *288:23 0.0114108
21 *287:13 *288:23 0.000191958
*RES
1 *739:la_data_out_o[114] *288:21 37.6639 
2 *288:21 *288:23 610.036 
3 *288:23 *288:25 4.5 
4 *288:25 la_data_out[114] 759.143 
*END

*D_NET *289 0.236899
*CONN
*P la_data_out[115] O
*I *739:la_data_out_o[115] O *D ntt_wb_bridge
*CAP
1 la_data_out[115] 0.0373493
2 *739:la_data_out_o[115] 0.000102473
3 *289:15 0.0373493
4 *289:13 0.00989564
5 *289:11 0.00999812
6 *289:11 *380:11 6.57299e-05
7 *289:13 *290:13 0.0687152
8 *289:13 *292:13 0.000137412
9 *289:13 *293:13 0
10 *289:13 *295:31 0.00702885
11 *289:13 *380:11 0.000234422
12 *289:13 *531:17 0.000137412
13 *77:127 la_data_out[115] 0
14 *78:127 la_data_out[115] 0
15 *287:13 *289:13 0.0658852
16 *288:23 *289:13 0
*RES
1 *739:la_data_out_o[115] *289:11 8.38732 
2 *289:11 *289:13 657.268 
3 *289:13 *289:15 4.5 
4 *289:15 la_data_out[115] 757.321 
*END

*D_NET *290 0.201822
*CONN
*P la_data_out[116] O
*I *739:la_data_out_o[116] O *D ntt_wb_bridge
*CAP
1 la_data_out[116] 0.0373192
2 *739:la_data_out_o[116] 9.65317e-05
3 *290:15 0.0373192
4 *290:13 0.0150371
5 *290:11 0.0151337
6 *290:11 *380:11 4.87156e-05
7 *290:13 *292:13 0.000250386
8 *290:13 *293:13 0
9 *290:13 *295:23 0.000482467
10 *290:13 *295:31 0.00936801
11 *290:13 *301:27 0.0151722
12 *290:13 *302:13 0.00189706
13 *290:13 *367:23 0.000222772
14 *290:13 *383:31 0.000745721
15 *103:35 la_data_out[116] 1.38371e-05
16 *289:13 *290:13 0.0687152
*RES
1 *739:la_data_out_o[116] *290:11 8.34032 
2 *290:11 *290:13 667.946 
3 *290:13 *290:15 4.5 
4 *290:15 la_data_out[116] 757.018 
*END

*D_NET *291 0.198471
*CONN
*P la_data_out[117] O
*I *739:la_data_out_o[117] O *D ntt_wb_bridge
*CAP
1 la_data_out[117] 0.0387006
2 *739:la_data_out_o[117] 0.000318152
3 *291:15 0.0387006
4 *291:13 0.0221462
5 *291:11 0.0224643
6 *291:11 *380:11 5.85216e-05
7 *291:13 *293:13 0.069914
8 *291:13 *298:17 0
9 *291:13 *301:23 0
10 *291:13 *363:7 0.00157379
11 *291:13 *365:15 0
12 *291:13 *372:13 0.000131918
13 *291:13 *381:23 0.000739119
14 *291:13 *383:35 0.00372353
15 *114:23 la_data_out[117] 0
*RES
1 *739:la_data_out_o[117] *291:11 11.3948 
2 *291:11 *291:13 677.393 
3 *291:13 *291:15 4.5 
4 *291:15 la_data_out[117] 760.357 
*END

*D_NET *292 0.226321
*CONN
*P la_data_out[118] O
*I *739:la_data_out_o[118] O *D ntt_wb_bridge
*CAP
1 la_data_out[118] 0.00276656
2 *739:la_data_out_o[118] 0.000783751
3 *292:25 0.00276656
4 *292:23 0.0220209
5 *292:21 0.0220209
6 *292:19 0.0217504
7 *292:17 0.0217504
8 *292:15 0.00199492
9 *292:13 0.00277867
10 *292:13 *380:11 0.000671903
11 *292:15 *295:23 0.00148184
12 *292:15 *395:15 0.00768937
13 *292:15 *396:15 0.000146255
14 *292:15 *529:15 0.00229509
15 *292:19 *354:27 0
16 *292:19 *531:21 0.00278985
17 *292:23 *529:23 0.0418113
18 *105:19 *292:19 0.0580984
19 *278:15 *292:15 0.0120686
20 *286:13 *292:13 0.000119626
21 *287:13 *292:13 0.000127432
22 *289:13 *292:13 0.000137412
23 *290:13 *292:13 0.000250386
*RES
1 *739:la_data_out_o[118] *292:13 16.9385 
2 *292:13 *292:15 114.714 
3 *292:15 *292:17 4.5 
4 *292:17 *292:19 714.732 
5 *292:19 *292:21 4.5 
6 *292:21 *292:23 565.268 
7 *292:23 *292:25 4.5 
8 *292:25 la_data_out[118] 50.9107 
*END

*D_NET *293 0.226172
*CONN
*P la_data_out[119] O
*I *739:la_data_out_o[119] O *D ntt_wb_bridge
*CAP
1 la_data_out[119] 0.0274367
2 *739:la_data_out_o[119] 0.000526549
3 *293:15 0.0274367
4 *293:13 0.0135156
5 *293:11 0.0140421
6 *293:11 *380:11 0.00021387
7 *293:13 *363:7 0.00150382
8 *293:13 *381:23 0.0035285
9 *293:13 *392:21 0.0230926
10 *73:24 la_data_out[119] 0
11 *112:17 la_data_out[119] 0.0311352
12 *288:23 *293:13 0.0138266
13 *289:13 *293:13 0
14 *290:13 *293:13 0
15 *291:13 *293:13 0.069914
*RES
1 *739:la_data_out_o[119] *293:11 11.5487 
2 *293:11 *293:13 691.357 
3 *293:13 *293:15 4.5 
4 *293:15 la_data_out[119] 760.054 
*END

*D_NET *294 0.19186
*CONN
*P la_data_out[11] O
*I *739:la_data_out_o[11] O *D ntt_wb_bridge
*CAP
1 la_data_out[11] 0.000676063
2 *739:la_data_out_o[11] 0.000225802
3 *294:27 0.00505136
4 *294:21 0.0284331
5 *294:19 0.024407
6 *294:13 0.00174912
7 *294:11 0.0016257
8 *294:11 *310:21 4.68172e-05
9 *294:13 *303:13 0.00995401
10 *294:13 *303:19 1.38323e-05
11 *294:13 *309:23 0.00119673
12 *294:13 *310:21 0.000457238
13 *294:13 *330:13 0.000606258
14 *294:19 *303:19 0.000854562
15 *294:21 la_data_out[23] 0
16 *294:21 *314:29 0.000234473
17 *294:21 *332:25 0
18 *294:21 *344:19 0.0598048
19 *294:27 la_data_out[15] 0.0141563
20 *294:27 la_data_out[22] 0.000339933
21 *294:27 *303:27 0.0187692
22 *294:27 *311:37 0.00112674
23 *134:19 *294:21 0.00694659
24 *272:37 *294:27 0.0018088
25 *272:45 *294:27 0.000553956
26 *283:13 *294:13 0.00889955
27 *283:13 *294:19 0.000227838
28 *283:31 *294:27 0.00369461
*RES
1 *739:la_data_out_o[11] *294:11 10.1461 
2 *294:11 *294:13 94.5893 
3 *294:13 *294:19 13.2679 
4 *294:19 *294:21 745.545 
5 *294:21 *294:27 40.5221 
6 *294:27 la_data_out[11] 13.4196 
*END

*D_NET *295 0.219568
*CONN
*P la_data_out[120] O
*I *739:la_data_out_o[120] O *D ntt_wb_bridge
*CAP
1 la_data_out[120] 0.0368975
2 *739:la_data_out_o[120] 0.00286698
3 *295:33 0.0368975
4 *295:31 0.0431027
5 *295:29 0.0431664
6 *295:23 0.00293068
7 *295:23 *298:21 0.000454287
8 *295:23 *302:13 0.000484166
9 *295:23 *380:11 0.000319128
10 *295:23 *393:21 0.000578492
11 *295:23 *395:15 0.00136643
12 *295:23 *395:21 1.26641e-05
13 *295:23 *396:15 0.00704039
14 *295:29 *693:11 0
15 *295:31 *301:27 0.0120812
16 *295:31 *380:11 0.000569598
17 *295:31 *531:17 9.89966e-05
18 *282:17 *295:23 0.00256361
19 *285:13 *295:31 0.000302964
20 *286:13 *295:31 0.00453509
21 *287:13 *295:31 0.0049378
22 *288:21 *295:23 0
23 *289:13 *295:31 0.00702885
24 *290:13 *295:23 0.000482467
25 *290:13 *295:31 0.00936801
26 *292:15 *295:23 0.00148184
*RES
1 *739:la_data_out_o[120] *295:23 46.9504 
2 *295:23 *295:29 8.79393 
3 *295:29 *295:31 111.318 
4 *295:31 *295:33 3.41 
5 *295:33 la_data_out[120] 755.955 
*END

*D_NET *296 0.239015
*CONN
*P la_data_out[121] O
*I *739:la_data_out_o[121] O *D ntt_wb_bridge
*CAP
1 la_data_out[121] 0.000721062
2 *739:la_data_out_o[121] 0.00127302
3 *296:23 0.00358328
4 *296:21 0.00286222
5 *296:19 0.03675
6 *296:17 0.03675
7 *296:15 0.0108258
8 *296:13 0.0120988
9 *296:13 *380:11 0.000494496
10 *296:15 *300:15 0.063123
11 *296:15 *391:15 0.00469297
12 *296:15 *398:15 0.00123
13 *296:15 *726:15 0.00143847
14 *296:23 *297:21 0.00947195
15 *78:127 *296:19 0
16 *115:189 *296:19 0.00234251
17 *280:15 *296:15 0.0513574
*RES
1 *739:la_data_out_o[121] *296:13 20.9159 
2 *296:13 *296:15 619.482 
3 *296:15 *296:17 4.5 
4 *296:17 *296:19 755.411 
5 *296:19 *296:21 4.5 
6 *296:21 *296:23 89.6607 
7 *296:23 la_data_out[121] 18.9821 
*END

*D_NET *297 0.235164
*CONN
*P la_data_out[122] O
*I *739:la_data_out_o[122] O *D ntt_wb_bridge
*CAP
1 la_data_out[122] 0.000699992
2 *739:la_data_out_o[122] 0.000494492
3 *297:21 0.00919631
4 *297:19 0.00849632
5 *297:17 0.0368129
6 *297:15 0.0368129
7 *297:13 0.00370821
8 *297:11 0.00420271
9 *297:11 *380:11 0.000201586
10 *297:13 *380:11 0.000979974
11 *297:17 la_data_out[89] 0
12 *297:21 *302:21 0.0554174
13 la_data_out[106] *297:21 0.000131918
14 *284:13 *297:13 0.00809176
15 *284:21 *297:21 0.0353249
16 *285:13 *297:13 0.0138784
17 *285:21 *297:21 0.000925088
18 *286:13 *297:13 0.00360699
19 *288:23 *297:13 0.00670959
20 *296:23 *297:21 0.00947195
*RES
1 *739:la_data_out_o[122] *297:11 10.0465 
2 *297:11 *297:13 194.393 
3 *297:13 *297:15 4.5 
4 *297:15 *297:17 744.482 
5 *297:17 *297:19 4.5 
6 *297:19 *297:21 524.607 
7 *297:21 la_data_out[122] 18.6786 
*END

*D_NET *298 0.176186
*CONN
*P la_data_out[123] O
*I *739:la_data_out_o[123] O *D ntt_wb_bridge
*CAP
1 la_data_out[123] 0.0367103
2 *739:la_data_out_o[123] 0.000717888
3 *298:25 0.0367103
4 *298:23 0.0309895
5 *298:21 0.0313395
6 *298:17 0.00133664
7 *298:13 0.00170456
8 *298:13 *380:11 0.000376225
9 *298:17 *301:23 0.00256749
10 *298:17 *365:15 0.00453022
11 *298:21 *301:23 0.000500071
12 *298:21 *393:21 2.05656e-05
13 *298:21 *731:41 0.000233756
14 *298:23 *301:27 0
15 *298:23 *395:23 0.0270497
16 *72:29 la_data_out[123] 0
17 *277:15 *298:17 0.000944962
18 *291:13 *298:17 0
19 *295:23 *298:21 0.000454287
*RES
1 *739:la_data_out_o[123] *298:13 13.7521 
2 *298:13 *298:17 47.3393 
3 *298:17 *298:21 14.3393 
4 *298:21 *298:23 685.607 
5 *298:23 *298:25 4.5 
6 *298:25 la_data_out[123] 753.071 
*END

*D_NET *299 0.191572
*CONN
*P la_data_out[124] O
*I *739:la_data_out_o[124] O *D ntt_wb_bridge
*CAP
1 la_data_out[124] 0.0373428
2 *739:la_data_out_o[124] 0.000933252
3 *299:17 0.0373428
4 *299:15 0.0301354
5 *299:13 0.0310687
6 *299:13 *380:11 0.000314081
7 *299:15 *368:19 0
8 *299:15 *389:15 0.00367795
9 *299:15 *396:15 0.00223362
10 *111:19 la_data_out[124] 0
11 *278:15 *299:15 0.0463082
12 *279:15 *299:15 0.00204679
13 *282:17 *299:15 0.000168246
*RES
1 *739:la_data_out_o[124] *299:13 17.0005 
2 *299:13 *299:15 738.179 
3 *299:15 *299:17 4.5 
4 *299:17 la_data_out[124] 766.125 
*END

*D_NET *300 0.209353
*CONN
*P la_data_out[125] O
*I *739:la_data_out_o[125] O *D ntt_wb_bridge
*CAP
1 la_data_out[125] 0.0374974
2 *739:la_data_out_o[125] 0.00115001
3 *300:17 0.0374974
4 *300:15 0.0267703
5 *300:13 0.0279203
6 *300:13 *380:11 0.000257954
7 *300:15 *368:19 0.000952575
8 *300:15 *391:15 0.00654943
9 *300:15 *398:15 0.00221886
10 *300:15 *726:15 0.00541573
11 *296:15 *300:15 0.063123
*RES
1 *739:la_data_out_o[125] *300:13 20.2489 
2 *300:13 *300:15 747.625 
3 *300:15 *300:17 4.5 
4 *300:17 la_data_out[125] 769.464 
*END

*D_NET *301 0.176084
*CONN
*P la_data_out[126] O
*I *739:la_data_out_o[126] O *D ntt_wb_bridge
*CAP
1 la_data_out[126] 0.0368184
2 *739:la_data_out_o[126] 0.00173631
3 *301:29 0.0368184
4 *301:27 0.0305873
5 *301:25 0.0305873
6 *301:23 0.00173631
7 *301:23 *365:15 1.98839e-05
8 *301:23 *367:21 0.000161092
9 *301:23 *380:11 0.000151917
10 *301:23 *382:13 0.000508049
11 *301:27 *302:13 0.000106992
12 *301:27 *367:23 0.00271047
13 *301:27 *389:27 0.00382066
14 *301:27 *389:29 0
15 *301:27 *393:23 0
16 *301:27 *395:23 0
17 *142:31 la_data_out[126] 0
18 *290:13 *301:27 0.0151722
19 *291:13 *301:23 0
20 *295:31 *301:27 0.0120812
21 *298:17 *301:23 0.00256749
22 *298:21 *301:23 0.000500071
23 *298:23 *301:27 0
*RES
1 *739:la_data_out_o[126] *301:23 49.836 
2 *301:23 *301:25 4.5 
3 *301:25 *301:27 732.839 
4 *301:27 *301:29 4.5 
5 *301:29 la_data_out[126] 755.804 
*END

*D_NET *302 0.261451
*CONN
*P la_data_out[127] O
*I *739:la_data_out_o[127] O *D ntt_wb_bridge
*CAP
1 la_data_out[127] 0.000678922
2 *739:la_data_out_o[127] 0.000160232
3 *302:21 0.0249356
4 *302:19 0.0242567
5 *302:17 0.0129329
6 *302:15 0.0129329
7 *302:13 0.00107572
8 *302:11 0.00123596
9 *302:11 *380:11 3.12446e-05
10 *302:13 *367:23 0.00465187
11 *302:13 *383:31 0.000749067
12 *302:17 *365:19 0
13 *302:21 *354:31 0.0004674
14 *302:21 *383:41 0.00521603
15 la_data_out[102] *302:21 0.0024405
16 la_data_out[106] *302:21 0.000279407
17 *281:19 *302:17 0.0473904
18 *284:17 *302:17 0.0602326
19 *284:21 *302:21 0.00387809
20 *290:13 *302:13 0.00189706
21 *295:23 *302:13 0.000484166
22 *297:21 *302:21 0.0554174
23 *301:27 *302:13 0.000106992
*RES
1 *739:la_data_out_o[127] *302:11 8.37792 
2 *302:11 *302:13 46.9464 
3 *302:13 *302:15 4.5 
4 *302:15 *302:17 742.661 
5 *302:17 *302:19 4.5 
6 *302:19 *302:21 720.107 
7 *302:21 la_data_out[127] 18.375 
*END

*D_NET *303 0.152252
*CONN
*P la_data_out[12] O
*I *739:la_data_out_o[12] O *D ntt_wb_bridge
*CAP
1 la_data_out[12] 0.000713911
2 *739:la_data_out_o[12] 0.000213956
3 *303:27 0.00427156
4 *303:21 0.0310184
5 *303:19 0.0281628
6 *303:13 0.00219251
7 *303:11 0.00170442
8 *303:11 *310:21 4.65837e-05
9 *303:13 *304:13 0.000201903
10 *303:13 *306:13 0.0100962
11 *303:13 *310:21 0.00151603
12 *303:13 *322:21 0.000362971
13 *303:13 *330:13 0.000210878
14 *303:19 *304:13 0.00059044
15 *303:21 la_data_out[23] 0
16 *303:21 *337:43 0.0228265
17 *303:21 *339:27 0
18 *303:21 *343:27 0
19 *303:21 *343:37 0
20 *303:27 la_data_out[13] 0.014974
21 *303:27 la_data_out[22] 0.00130835
22 *303:27 *344:23 0
23 *272:37 *303:27 0.00132713
24 *272:45 *303:27 0.000921529
25 *294:13 *303:13 0.00995401
26 *294:13 *303:19 1.38323e-05
27 *294:19 *303:19 0.000854562
28 *294:27 *303:27 0.0187692
*RES
1 *739:la_data_out_o[12] *303:11 9.84878 
2 *303:11 *303:13 99.5179 
3 *303:13 *303:19 19.8393 
4 *303:19 *303:21 744.634 
5 *303:21 *303:27 36.7026 
6 *303:27 la_data_out[12] 14.0268 
*END

*D_NET *304 0.142739
*CONN
*P la_data_out[13] O
*I *739:la_data_out_o[13] O *D ntt_wb_bridge
*CAP
1 la_data_out[13] 0.0044141
2 *739:la_data_out_o[13] 0.000200119
3 *304:25 0.0416753
4 *304:23 0.0383161
5 *304:13 0.00284065
6 *304:11 0.00198589
7 la_data_out[13] la_data_out[19] 0.000436046
8 la_data_out[13] *344:23 0
9 *304:11 *310:21 7.98021e-05
10 *304:13 *305:13 0.0114461
11 *304:13 *306:13 0.0107504
12 *304:13 *310:21 0.000618248
13 *304:13 *322:21 0.000319583
14 *304:13 *332:23 0.000213364
15 *304:13 *366:21 0.000121285
16 *304:13 *377:23 0.000103611
17 *304:13 *388:25 0.000116425
18 *304:13 *399:21 0.000129238
19 *304:23 *310:21 0.00157743
20 *304:23 *314:19 0.000198899
21 *304:23 *322:23 0.00111663
22 *304:23 *326:19 0.000137082
23 *304:23 *337:41 0.000843993
24 *304:23 *338:35 0.000135428
25 *272:45 la_data_out[13] 0.00919739
26 *303:13 *304:13 0.000201903
27 *303:19 *304:13 0.00059044
28 *303:27 la_data_out[13] 0.014974
*RES
1 *739:la_data_out_o[13] *304:11 9.3325 
2 *304:11 *304:13 111.429 
3 *304:13 *304:23 17.9901 
4 *304:23 *304:25 742.054 
5 *304:25 la_data_out[13] 45.2829 
*END

*D_NET *305 0.139823
*CONN
*P la_data_out[14] O
*I *739:la_data_out_o[14] O *D ntt_wb_bridge
*CAP
1 la_data_out[14] 0.0381063
2 *739:la_data_out_o[14] 0.000240724
3 *305:23 0.0426107
4 *305:13 0.00621121
5 *305:11 0.0019476
6 *305:11 *310:21 0.000105792
7 *305:13 *306:13 0.00036194
8 *305:13 *307:13 0.0120421
9 *305:13 *308:13 2.12733e-05
10 *305:13 *310:21 0.000802711
11 *305:13 *322:21 0.000344612
12 *305:13 *332:23 0.000103646
13 *305:13 *366:21 0.000104875
14 *305:13 *388:25 0.000101187
15 *305:13 *399:21 0.00011348
16 *305:23 *307:23 0.0133037
17 *305:23 *308:23 0.0115672
18 *305:23 *322:23 0
19 *305:23 *334:37 5.50241e-05
20 *124:21 la_data_out[14] 0.000232719
21 *304:13 *305:13 0.0114461
*RES
1 *739:la_data_out_o[14] *305:11 9.11979 
2 *305:11 *305:13 114.714 
3 *305:13 *305:23 39.538 
4 *305:23 la_data_out[14] 759.598 
*END

*D_NET *306 0.209217
*CONN
*P la_data_out[15] O
*I *739:la_data_out_o[15] O *D ntt_wb_bridge
*CAP
1 la_data_out[15] 0.00382708
2 *739:la_data_out_o[15] 0.000304718
3 *306:17 0.0145651
4 *306:15 0.010738
5 *306:13 0.00174714
6 *306:11 0.00205186
7 la_data_out[15] la_data_out[22] 3.06718e-05
8 la_data_out[15] *331:47 0.00079206
9 la_data_out[15] *332:37 0.000256963
10 la_data_out[15] *336:25 1.94611e-05
11 la_data_out[15] *336:27 3.46553e-05
12 la_data_out[15] *338:51 0.000167123
13 *306:11 *310:21 0.000141516
14 *306:13 *307:13 0.000241255
15 *306:13 *310:21 0.00193781
16 *306:13 *322:21 0.000319583
17 *306:13 *330:13 0.000572834
18 *306:17 la_data_out[24] 2.82127e-05
19 *306:17 *311:25 0.00117138
20 *306:17 *311:35 0.000148975
21 *306:17 *313:17 0.0600293
22 *306:17 *328:19 0.000911675
23 *306:17 *330:17 3.52953e-05
24 *306:17 *341:35 0.00066325
25 *306:17 *341:49 0.0578118
26 *272:37 la_data_out[15] 0.000225341
27 *283:31 la_data_out[15] 0.0150796
28 *294:27 la_data_out[15] 0.0141563
29 *303:13 *306:13 0.0100962
30 *304:13 *306:13 0.0107504
31 *305:13 *306:13 0.00036194
*RES
1 *739:la_data_out_o[15] *306:11 9.8178 
2 *306:11 *306:13 113.893 
3 *306:13 *306:15 4.5 
4 *306:15 *306:17 745.848 
5 *306:17 la_data_out[15] 44.4704 
*END

*D_NET *307 0.132227
*CONN
*P la_data_out[16] O
*I *739:la_data_out_o[16] O *D ntt_wb_bridge
*CAP
1 la_data_out[16] 0.0382066
2 *739:la_data_out_o[16] 0.000167195
3 *307:23 0.0422264
4 *307:13 0.00603514
5 *307:11 0.00218252
6 *307:11 *310:21 9.89546e-05
7 *307:13 *308:13 0.013398
8 *307:13 *310:21 0.000737774
9 *307:13 *322:21 0.000266065
10 *307:13 *330:13 0
11 *307:13 *332:23 0.000205673
12 *307:13 *366:21 0.00011266
13 *307:13 *388:25 0.000108972
14 *307:13 *399:21 0.000121265
15 *307:23 *308:23 0.000122309
16 *307:23 *310:21 1.4509e-05
17 *307:23 *312:13 0.00219063
18 *307:23 *324:19 0.000197006
19 *307:23 *331:31 0.000248574
20 *305:13 *307:13 0.0120421
21 *305:23 *307:23 0.0133037
22 *306:13 *307:13 0.000241255
*RES
1 *739:la_data_out_o[16] *307:11 8.78176 
2 *307:11 *307:13 127.446 
3 *307:13 *307:23 35.0438 
4 *307:23 la_data_out[16] 760.205 
*END

*D_NET *308 0.128249
*CONN
*P la_data_out[17] O
*I *739:la_data_out_o[17] O *D ntt_wb_bridge
*CAP
1 la_data_out[17] 0.0381391
2 *739:la_data_out_o[17] 0.000328626
3 *308:23 0.0414631
4 *308:13 0.00558844
5 *308:11 0.00259302
6 *308:11 *310:21 0.000180752
7 *308:13 *310:21 0.000354799
8 *308:13 *322:21 0.00023129
9 *308:13 *329:13 0.00536559
10 *308:13 *329:19 0.00414825
11 *308:13 *330:13 0
12 *308:13 *332:23 0.000221781
13 *308:13 *366:21 0.000121484
14 *308:13 *377:23 0.000104252
15 *308:13 *388:25 0.000117507
16 *308:13 *399:21 0.000130762
17 *308:23 *310:21 0.00402831
18 *308:23 *322:23 0
19 *308:23 *324:19 9.22222e-06
20 *308:23 *334:37 1.37595e-05
21 *305:13 *308:13 2.12733e-05
22 *305:23 *308:23 0.0115672
23 *307:13 *308:13 0.013398
24 *307:23 *308:23 0.000122309
*RES
1 *739:la_data_out_o[17] *308:11 8.78525 
2 *308:11 *308:13 132.786 
3 *308:13 *308:23 31.2504 
4 *308:23 la_data_out[17] 758.991 
*END

*D_NET *309 0.266022
*CONN
*P la_data_out[18] O
*I *739:la_data_out_o[18] O *D ntt_wb_bridge
*CAP
1 la_data_out[18] 0.00449153
2 *739:la_data_out_o[18] 0.00298906
3 *309:25 0.0580119
4 *309:23 0.0565094
5 la_data_out[18] la_data_out[21] 0.00409877
6 la_data_out[18] *311:45 0.00182927
7 la_data_out[18] *332:37 0.000415434
8 *309:23 *310:21 0.011605
9 *309:23 *314:19 0.0154345
10 *309:23 *331:31 0.00214447
11 *309:23 *332:11 0.00185683
12 *309:23 *334:25 4.01462e-06
13 *309:23 *334:37 3.19604e-05
14 *309:25 *317:19 0.000105594
15 *309:25 *319:27 0.00123054
16 *309:25 *320:19 0.0125211
17 *309:25 *321:21 0.000110498
18 *309:25 *321:23 0.00123054
19 *309:25 *324:19 0.0125199
20 *309:25 *329:25 0.000960982
21 *309:25 *331:37 0.000539149
22 *309:25 *334:39 0.0112233
23 *309:25 *335:29 0.000539149
24 *309:25 *366:21 0.00135396
25 *134:19 *309:25 0
26 *272:25 *309:25 0
27 *283:13 *309:23 0.00104658
28 *283:25 *309:25 0.0602014
29 *283:31 la_data_out[18] 0.00182031
30 *294:13 *309:23 0.00119673
*RES
1 *739:la_data_out_o[18] *309:23 45.2253 
2 *309:23 *309:25 131.509 
3 *309:25 la_data_out[18] 33.4605 
*END

*D_NET *310 0.133037
*CONN
*P la_data_out[19] O
*I *739:la_data_out_o[19] O *D ntt_wb_bridge
*CAP
1 la_data_out[19] 0.000911566
2 *739:la_data_out_o[19] 0.00915203
3 *310:23 0.0381696
4 *310:21 0.0464101
5 la_data_out[19] *311:43 0.000227457
6 *310:21 *314:19 0.0047592
7 *310:21 *322:21 0.00169134
8 *310:21 *322:23 0.00132764
9 *310:21 *331:31 1.80634e-05
10 *310:21 *332:23 0.00176026
11 *310:21 *333:19 0.000276904
12 *310:21 *344:17 0.000334375
13 *310:21 *355:17 0.000131526
14 *310:21 *366:21 0.000598493
15 *310:21 *377:23 0.000487804
16 *310:21 *388:25 0.000576062
17 *310:21 *399:21 0.000632586
18 la_data_out[13] la_data_out[19] 0.000436046
19 *283:11 *310:21 0.000183013
20 *283:13 *310:21 0.000602845
21 *294:11 *310:21 4.68172e-05
22 *294:13 *310:21 0.000457238
23 *303:11 *310:21 4.65837e-05
24 *303:13 *310:21 0.00151603
25 *304:11 *310:21 7.98021e-05
26 *304:13 *310:21 0.000618248
27 *304:23 *310:21 0.00157743
28 *305:11 *310:21 0.000105792
29 *305:13 *310:21 0.000802711
30 *306:11 *310:21 0.000141516
31 *306:13 *310:21 0.00193781
32 *307:11 *310:21 9.89546e-05
33 *307:13 *310:21 0.000737774
34 *307:23 *310:21 1.4509e-05
35 *308:11 *310:21 0.000180752
36 *308:13 *310:21 0.000354799
37 *308:23 *310:21 0.00402831
38 *309:23 *310:21 0.011605
*RES
1 *739:la_data_out_o[19] *310:21 42.4889 
2 *310:21 *310:23 742.054 
3 *310:23 la_data_out[19] 22.7567 
*END

*D_NET *311 0.238954
*CONN
*P la_data_out[1] O
*I *739:la_data_out_o[1] O *D ntt_wb_bridge
*CAP
1 la_data_out[1] 0.000571535
2 *739:la_data_out_o[1] 0.000827086
3 *311:45 0.0149193
4 *311:43 0.0144874
5 *311:37 0.00277299
6 *311:35 0.00273958
7 *311:25 0.0308866
8 *311:23 0.0316074
9 *311:23 *322:21 0.000404073
10 *311:23 *323:21 6.60677e-05
11 *311:23 *323:23 0.000150494
12 *311:23 *329:19 0.000355166
13 *311:23 *333:29 0.000804686
14 *311:23 *333:31 0.00030941
15 *311:23 *335:25 2.01313e-05
16 *311:23 *337:37 0.000857903
17 *311:23 *377:31 0
18 *311:23 *388:25 6.60787e-05
19 *311:25 la_data_out[24] 0.0121133
20 *311:25 *327:29 0
21 *311:25 *327:37 0.00231264
22 *311:25 *328:19 0.0117228
23 *311:25 *341:49 0.0124346
24 *311:35 *330:17 0.000148975
25 *311:35 *334:43 4.926e-05
26 *311:35 *337:61 4.65519e-05
27 *311:37 la_data_out[25] 0.000354078
28 *311:37 *326:23 0.000541229
29 la_data_out[18] *311:45 0.00182927
30 la_data_out[19] *311:43 0.000227457
31 *96:18 *311:25 0.0105407
32 *272:23 *311:23 0.00134302
33 *272:25 *311:25 0.0609861
34 *272:37 *311:37 0.00424438
35 *272:45 *311:45 0
36 *283:31 *311:45 0.0157668
37 *294:27 *311:37 0.00112674
38 *306:17 *311:25 0.00117138
39 *306:17 *311:35 0.000148975
*RES
1 *739:la_data_out_o[1] *311:23 45.3103 
2 *311:23 *311:25 128.846 
3 *311:25 *311:35 13.5012 
4 *311:35 *311:37 77.3393 
5 *311:37 *311:43 10.9189 
6 *311:43 *311:45 50.1333 
7 *311:45 la_data_out[1] 15.0082 
*END

*D_NET *312 0.120714
*CONN
*P la_data_out[20] O
*I *739:la_data_out_o[20] O *D ntt_wb_bridge
*CAP
1 la_data_out[20] 0.0383239
2 *739:la_data_out_o[20] 0.00643407
3 *312:15 0.0383239
4 *312:13 0.00643407
5 *312:13 *314:19 0.000104699
6 *312:13 *327:15 0.00157609
7 *312:13 *329:13 0.000205013
8 *312:13 *331:19 0.01267
9 *312:13 *331:31 2.24813e-05
10 *312:13 *332:11 3.58773e-05
11 *312:13 *333:19 0.000579229
12 *312:13 *334:37 0.00445382
13 *312:13 *337:15 0.00245721
14 *312:13 *344:17 0.000578716
15 *312:13 *377:23 0.00554871
16 *312:13 *388:25 0.000775252
17 *307:23 *312:13 0.00219063
*RES
1 *739:la_data_out_o[20] *312:13 49.0418 
2 *312:13 *312:15 3.41 
3 *312:15 la_data_out[20] 762.027 
*END

*D_NET *313 0.198118
*CONN
*P la_data_out[21] O
*I *739:la_data_out_o[21] O *D ntt_wb_bridge
*CAP
1 la_data_out[21] 0.00190779
2 *739:la_data_out_o[21] 0.000425188
3 *313:17 0.0124085
4 *313:15 0.0105007
5 *313:13 0.00479177
6 *313:11 0.00521696
7 la_data_out[21] *321:27 0.000513154
8 la_data_out[21] *324:23 1.34631e-05
9 la_data_out[21] *326:23 3.69003e-05
10 la_data_out[21] *329:43 0.000600641
11 la_data_out[21] *331:37 0
12 la_data_out[21] *332:25 5.8519e-05
13 la_data_out[21] *332:37 9.54798e-06
14 la_data_out[21] *335:29 0
15 la_data_out[21] *338:51 0.000206679
16 *313:11 *314:19 0.000140578
17 *313:11 *329:13 0.000271289
18 *313:13 *314:19 0.00330255
19 *313:13 *327:15 0
20 *313:13 *330:13 0.0160479
21 *313:13 *331:31 0.000590547
22 *313:13 *333:19 0
23 *313:17 *330:17 0.0601176
24 *313:17 *341:35 4.38783e-05
25 *313:17 *342:39 1.11775e-05
26 la_data_out[18] la_data_out[21] 0.00409877
27 *272:25 *313:17 0.0126818
28 *283:31 la_data_out[21] 0.004093
29 *306:17 *313:17 0.0600293
*RES
1 *739:la_data_out_o[21] *313:11 11.8809 
2 *313:11 *313:13 151.268 
3 *313:13 *313:15 4.5 
4 *313:15 *313:17 743.268 
5 *313:17 la_data_out[21] 48.6744 
*END

*D_NET *314 0.197628
*CONN
*P la_data_out[22] O
*I *739:la_data_out_o[22] O *D ntt_wb_bridge
*CAP
1 la_data_out[22] 0.0014947
2 *739:la_data_out_o[22] 0.0040963
3 *314:29 0.0118803
4 *314:27 0.0104856
5 *314:19 0.00419629
6 la_data_out[22] *336:25 0.00047644
7 la_data_out[22] *337:61 5.12869e-05
8 la_data_out[22] *344:23 0
9 *314:19 *321:21 0.000181737
10 *314:19 *324:19 0.000180688
11 *314:19 *330:13 0.00332982
12 *314:19 *331:31 8.76591e-06
13 *314:19 *332:11 3.58773e-05
14 *314:19 *332:23 0.00058626
15 *314:19 *334:25 0.0147417
16 *314:19 *337:41 0.000230103
17 *314:19 *340:31 0.00040061
18 *314:19 *351:33 0.000402198
19 *314:29 *332:25 0.000316981
20 *314:29 *340:31 2.02939e-05
21 *314:29 *344:19 0.0592098
22 *314:29 *351:35 0.0587405
23 la_data_out[15] la_data_out[22] 3.06718e-05
24 *134:19 *314:29 0.000707551
25 *294:21 *314:29 0.000234473
26 *294:27 la_data_out[22] 0.000339933
27 *303:27 la_data_out[22] 0.00130835
28 *304:23 *314:19 0.000198899
29 *309:23 *314:19 0.0154345
30 *310:21 *314:19 0.0047592
31 *312:13 *314:19 0.000104699
32 *313:11 *314:19 0.000140578
33 *313:13 *314:19 0.00330255
*RES
1 *739:la_data_out_o[22] *314:19 49.0378 
2 *314:19 *314:27 10.5714 
3 *314:27 *314:29 736.741 
4 *314:29 la_data_out[22] 24.7439 
*END

*D_NET *315 0.126558
*CONN
*P la_data_out[23] O
*I *739:la_data_out_o[23] O *D ntt_wb_bridge
*CAP
1 la_data_out[23] 0.0306251
2 *739:la_data_out_o[23] 0.000976902
3 *315:17 0.0365148
4 *315:13 0.0068666
5 la_data_out[23] *336:19 0.0205438
6 la_data_out[23] *344:19 0
7 la_data_out[23] *351:33 0
8 *315:13 *316:17 0
9 *315:13 *334:25 5.32034e-05
10 *315:17 *336:15 0.0203515
11 *315:17 *725:23 0.00281453
12 *315:17 *726:23 0.000165937
13 *315:17 *729:15 0.00263384
14 *315:17 *729:23 3.00158e-05
15 *315:17 *737:23 0.00402075
16 *315:17 *737:31 0.000253835
17 *134:19 la_data_out[23] 0.000707551
18 *294:21 la_data_out[23] 0
19 *303:21 la_data_out[23] 0
*RES
1 *739:la_data_out_o[23] *315:13 19.6237 
2 *315:13 *315:17 35.7429 
3 *315:17 la_data_out[23] 771.741 
*END

*D_NET *316 0.200776
*CONN
*P la_data_out[24] O
*I *739:la_data_out_o[24] O *D ntt_wb_bridge
*CAP
1 la_data_out[24] 0.0107872
2 *739:la_data_out_o[24] 0.000600277
3 *316:33 0.0120379
4 *316:19 0.00330228
5 *316:17 0.00265187
6 la_data_out[24] *323:23 0.000456373
7 la_data_out[24] *328:19 0.0596691
8 la_data_out[24] *342:41 0.0590172
9 *316:17 *334:25 7.30532e-05
10 *316:19 *317:15 0.0176719
11 *316:19 *328:15 0.017669
12 *316:19 *338:17 0.00308161
13 *316:19 *366:21 0.000721501
14 *316:33 *323:21 3.10376e-05
15 *316:33 *323:23 2.06725e-05
16 *316:33 *327:29 1.12197e-05
17 *316:33 *328:19 6.73707e-06
18 *316:33 *342:39 6.05161e-06
19 *316:33 *377:23 0.000819412
20 *306:17 la_data_out[24] 2.82127e-05
21 *311:25 la_data_out[24] 0.0121133
22 *315:13 *316:17 0
*RES
1 *739:la_data_out_o[24] *316:17 14.9789 
2 *316:17 *316:19 166.054 
3 *316:19 *316:33 36.7411 
4 *316:33 la_data_out[24] 751.705 
*END

*D_NET *317 0.16658
*CONN
*P la_data_out[25] O
*I *739:la_data_out_o[25] O *D ntt_wb_bridge
*CAP
1 la_data_out[25] 0.00105435
2 *739:la_data_out_o[25] 0.000605419
3 *317:19 0.0247888
4 *317:17 0.0237344
5 *317:15 0.00240155
6 *317:13 0.00300697
7 la_data_out[25] *318:29 0.00210661
8 la_data_out[25] *326:23 3.96138e-05
9 la_data_out[25] *328:23 0.0017014
10 la_data_out[25] *329:43 8.6229e-06
11 la_data_out[25] *337:63 0.000310978
12 *317:13 *334:25 0.000171475
13 *317:15 *318:15 0.0197075
14 *317:15 *326:15 0.000175882
15 *317:15 *328:15 0.000865932
16 *317:15 *338:17 0.000169615
17 *317:15 *342:21 0.00299779
18 *317:15 *355:17 0.000994138
19 *317:15 *366:21 0.000129601
20 *317:19 *318:19 0.0607308
21 *317:19 *325:19 0
22 *317:19 *355:21 0.00240892
23 *83:23 *317:19 3.03595e-05
24 *84:23 *317:19 6.92285e-05
25 *85:19 *317:19 9.65999e-06
26 *272:35 *317:19 0.000173675
27 *272:37 la_data_out[25] 5.49995e-05
28 *309:25 *317:19 0.000105594
29 *311:37 la_data_out[25] 0.000354078
30 *316:19 *317:15 0.0176719
*RES
1 *739:la_data_out_o[25] *317:13 14.6722 
2 *317:13 *317:15 185.357 
3 *317:15 *317:17 4.5 
4 *317:17 *317:19 751.464 
5 *317:19 la_data_out[25] 43.8393 
*END

*D_NET *318 0.206144
*CONN
*P la_data_out[26] O
*I *739:la_data_out_o[26] O *D ntt_wb_bridge
*CAP
1 la_data_out[26] 0.000739489
2 *739:la_data_out_o[26] 0.000740658
3 *318:29 0.00128132
4 *318:19 0.0113135
5 *318:17 0.0107717
6 *318:15 0.00247962
7 *318:13 0.00322028
8 *318:13 *334:25 0.000212909
9 *318:15 *319:15 0.0202354
10 *318:15 *320:15 8.40933e-05
11 *318:15 *326:15 8.25843e-06
12 *318:15 *328:15 0.000253238
13 *318:15 *338:17 0.000182899
14 *318:15 *342:21 0.00291198
15 *318:15 *355:17 0.00104605
16 *318:19 *320:19 0.0607307
17 *318:29 *319:31 0.000154771
18 *318:29 *328:23 1.52217e-05
19 *318:29 *329:45 0.00166253
20 *318:29 *330:23 0.00356485
21 *318:29 *338:53 0.000754617
22 la_data_out[25] *318:29 0.00210661
23 *272:35 *318:19 9.22222e-06
24 *272:37 *318:29 9.84729e-05
25 *283:25 *318:19 0.00112718
26 *317:15 *318:15 0.0197075
27 *317:19 *318:19 0.0607308
*RES
1 *739:la_data_out_o[26] *318:13 14.4595 
2 *318:13 *318:15 191.929 
3 *318:15 *318:17 4.5 
4 *318:17 *318:19 751.768 
5 *318:19 *318:29 46.6429 
6 *318:29 la_data_out[26] 13.875 
*END

*D_NET *319 0.208257
*CONN
*P la_data_out[27] O
*I *739:la_data_out_o[27] O *D ntt_wb_bridge
*CAP
1 la_data_out[27] 0.000657981
2 *739:la_data_out_o[27] 0.000600693
3 *319:31 0.00158671
4 *319:29 0.000928734
5 *319:27 0.0103493
6 *319:25 0.0111477
7 *319:15 0.00331652
8 *319:13 0.00311881
9 *319:13 *334:25 0.000289746
10 *319:15 *320:15 0.0208875
11 *319:15 *328:15 0.000184512
12 *319:15 *337:15 0.00386991
13 *319:15 *355:17 0.000680161
14 *319:25 *325:19 0.000826867
15 *319:25 *342:39 2.67817e-05
16 *319:25 *355:21 0.000871419
17 *319:27 *320:19 0.0591355
18 *319:27 *321:23 0.058894
19 *319:27 *324:19 2.03997e-05
20 *319:27 *331:37 0
21 *319:31 *320:23 0.00560716
22 *319:31 *330:23 0.00197972
23 *319:31 *330:25 0.000586089
24 *319:31 *331:47 0.00104459
25 *272:37 *319:31 2.55889e-05
26 *309:25 *319:27 0.00123054
27 *318:15 *319:15 0.0202354
28 *318:29 *319:31 0.000154771
*RES
1 *739:la_data_out_o[27] *319:13 14.2468 
2 *319:13 *319:15 196.446 
3 *319:15 *319:25 37.4643 
4 *319:25 *319:27 730.821 
5 *319:27 *319:29 4.5 
6 *319:29 *319:31 53.5179 
7 *319:31 la_data_out[27] 17.4643 
*END

*D_NET *320 0.22448
*CONN
*P la_data_out[28] O
*I *739:la_data_out_o[28] O *D ntt_wb_bridge
*CAP
1 la_data_out[28] 0.000632991
2 *739:la_data_out_o[28] 0.00059833
3 *320:23 0.00296311
4 *320:21 0.00233012
5 *320:19 0.0107939
6 *320:17 0.0107939
7 *320:15 0.00275774
8 *320:13 0.00335607
9 *320:13 *334:25 0.000348881
10 *320:15 *321:15 0.000305692
11 *320:15 *323:15 0.0211534
12 *320:15 *328:15 7.58513e-05
13 *320:15 *337:15 0.00372076
14 *320:15 *355:17 0.000733431
15 *320:19 *321:21 0.00157904
16 *320:19 *321:23 9.54017e-06
17 *320:23 *330:25 0.000449017
18 *320:23 *331:47 0.000615851
19 *320:23 *332:41 0.00229655
20 *309:25 *320:19 0.0125211
21 *318:15 *320:15 8.40933e-05
22 *318:19 *320:19 0.0607307
23 *319:15 *320:15 0.0208875
24 *319:27 *320:19 0.0591355
25 *319:31 *320:23 0.00560716
*RES
1 *739:la_data_out_o[28] *320:13 14.0341 
2 *320:13 *320:15 204.661 
3 *320:15 *320:17 4.5 
4 *320:17 *320:19 752.071 
5 *320:19 *320:21 4.5 
6 *320:21 *320:23 69.125 
7 *320:23 la_data_out[28] 17.1607 
*END

*D_NET *321 0.218173
*CONN
*P la_data_out[29] O
*I *739:la_data_out_o[29] O *D ntt_wb_bridge
*CAP
1 la_data_out[29] 0.00090581
2 *739:la_data_out_o[29] 0.000591694
3 *321:27 0.0033888
4 *321:25 0.00248299
5 *321:23 0.0101839
6 *321:21 0.0106819
7 *321:15 0.00329071
8 *321:13 0.00338448
9 *321:13 *334:25 0.000405537
10 *321:15 *323:15 0.0218044
11 *321:15 *324:15 0.000168187
12 *321:15 *325:15 0.0220964
13 *321:15 *337:15 0.00399889
14 *321:15 *344:17 0.000808802
15 *321:21 *324:19 0.000721595
16 *321:23 *324:19 0.0589226
17 *321:27 *323:27 0.00825812
18 *321:27 *324:23 0.000385597
19 *321:27 *329:43 0.000988853
20 *321:27 *334:43 0.00187998
21 la_data_out[21] *321:27 0.000513154
22 *309:25 *321:21 0.000110498
23 *309:25 *321:23 0.00123054
24 *314:19 *321:21 0.000181737
25 *319:27 *321:23 0.058894
26 *320:15 *321:15 0.000305692
27 *320:19 *321:21 0.00157904
28 *320:19 *321:23 9.54017e-06
*RES
1 *739:la_data_out_o[29] *321:13 13.5178 
2 *321:13 *321:15 211.232 
3 *321:15 *321:21 25.1696 
4 *321:21 *321:23 727.812 
5 *321:23 *321:25 4.5 
6 *321:25 *321:27 85.5536 
7 *321:27 la_data_out[29] 20.8036 
*END

*D_NET *322 0.146065
*CONN
*P la_data_out[2] O
*I *739:la_data_out_o[2] O *D ntt_wb_bridge
*CAP
1 la_data_out[2] 0.0378545
2 *739:la_data_out_o[2] 0.00126726
3 *322:25 0.0378545
4 *322:23 0.0152302
5 *322:21 0.0164975
6 *322:21 *332:23 5.23541e-05
7 *322:21 *333:29 0.000659585
8 *322:21 *337:37 0.00017612
9 *322:23 *333:31 0
10 *322:23 *337:41 0.0021761
11 *322:23 *388:29 0.0278671
12 *272:23 *322:21 4.59303e-05
13 *303:13 *322:21 0.000362971
14 *304:13 *322:21 0.000319583
15 *304:23 *322:23 0.00111663
16 *305:13 *322:21 0.000344612
17 *305:23 *322:23 0
18 *306:13 *322:21 0.000319583
19 *307:13 *322:21 0.000266065
20 *308:13 *322:21 0.00023129
21 *308:23 *322:23 0
22 *310:21 *322:21 0.00169134
23 *310:21 *322:23 0.00132764
24 *311:23 *322:21 0.000404073
*RES
1 *739:la_data_out_o[2] *322:21 33.952 
2 *322:21 *322:23 61.4478 
3 *322:23 *322:25 3.41 
4 *322:25 la_data_out[2] 755.348 
*END

*D_NET *323 0.199217
*CONN
*P la_data_out[30] O
*I *739:la_data_out_o[30] O *D ntt_wb_bridge
*CAP
1 la_data_out[30] 0.000883616
2 *739:la_data_out_o[30] 0.000617671
3 *323:27 0.00240425
4 *323:25 0.00152064
5 *323:23 0.0163052
6 *323:21 0.0168168
7 *323:15 0.00343671
8 *323:13 0.00354281
9 *323:13 *334:25 0.000467153
10 *323:15 *325:15 0.00036194
11 *323:15 *328:15 0
12 *323:15 *337:15 0.00370845
13 *323:15 *342:21 0.000132821
14 *323:15 *344:17 0.000872146
15 *323:21 *328:19 0.00091697
16 *323:21 *335:25 0
17 *323:21 *388:25 0.000193916
18 *323:23 *327:39 0.0145125
19 *323:23 *328:19 9.70666e-06
20 *323:23 *335:25 0
21 *323:23 *337:61 1.66787e-05
22 *323:23 *341:47 0.000748436
23 *323:23 *342:41 0.0590157
24 *323:27 *324:23 0.00995245
25 *323:27 *334:43 0.00210154
26 la_data_out[24] *323:23 0.000456373
27 *86:19 *323:23 8.18599e-05
28 *87:19 *323:23 9.59532e-06
29 *95:27 *323:23 2.06112e-05
30 *272:25 *323:23 0.00862673
31 *311:23 *323:21 6.60677e-05
32 *311:23 *323:23 0.000150494
33 *316:33 *323:21 3.10376e-05
34 *316:33 *323:23 2.06725e-05
35 *320:15 *323:15 0.0211534
36 *321:15 *323:15 0.0218044
37 *321:27 *323:27 0.00825812
*RES
1 *739:la_data_out_o[30] *323:13 13.9122 
2 *323:13 *323:15 211.232 
3 *323:15 *323:21 17.5625 
4 *323:21 *323:23 736.438 
5 *323:23 *323:25 4.5 
6 *323:25 *323:27 94.1786 
7 *323:27 la_data_out[30] 20.5 
*END

*D_NET *324 0.243691
*CONN
*P la_data_out[31] O
*I *739:la_data_out_o[31] O *D ntt_wb_bridge
*CAP
1 la_data_out[31] 0.000858626
2 *739:la_data_out_o[31] 0.000644669
3 *324:23 0.00282659
4 *324:21 0.00196796
5 *324:19 0.0107196
6 *324:17 0.0107196
7 *324:15 0.00330701
8 *324:13 0.00395168
9 *324:13 *325:13 0
10 *324:13 *334:25 0.000269334
11 *324:15 *325:15 0.0236172
12 *324:15 *326:15 0
13 *324:15 *327:15 0.0225396
14 *324:15 *337:15 0.00301245
15 *324:15 *388:25 0.00143565
16 *324:19 *329:23 0.00102016
17 *324:19 *329:25 0.000204314
18 *324:19 *331:37 4.45982e-06
19 *324:19 *334:39 0.0586083
20 *324:19 *338:35 0
21 *324:23 *325:23 0.0120216
22 *324:23 *326:23 0.000218497
23 *324:23 *335:33 0.00265227
24 la_data_out[21] *324:23 1.34631e-05
25 *307:23 *324:19 0.000197006
26 *308:23 *324:19 9.22222e-06
27 *309:25 *324:19 0.0125199
28 *314:19 *324:19 0.000180688
29 *319:27 *324:19 2.03997e-05
30 *321:15 *324:15 0.000168187
31 *321:21 *324:19 0.000721595
32 *321:23 *324:19 0.0589226
33 *321:27 *324:23 0.000385597
34 *323:27 *324:23 0.00995245
*RES
1 *739:la_data_out_o[31] *324:13 12.732 
2 *324:13 *324:15 226.429 
3 *324:15 *324:17 4.5 
4 *324:17 *324:19 747.821 
5 *324:19 *324:21 4.5 
6 *324:21 *324:23 118 
7 *324:23 la_data_out[31] 20.1964 
*END

*D_NET *325 0.180772
*CONN
*P la_data_out[32] O
*I *739:la_data_out_o[32] O *D ntt_wb_bridge
*CAP
1 la_data_out[32] 0.000833636
2 *739:la_data_out_o[32] 0.000572824
3 *325:23 0.00283607
4 *325:21 0.00200243
5 *325:19 0.0258726
6 *325:17 0.0258726
7 *325:15 0.00318853
8 *325:13 0.00376135
9 *325:13 *330:13 0.000101187
10 *325:13 *334:25 0.000585424
11 *325:15 *327:15 0.000234409
12 *325:15 *328:15 0
13 *325:15 *337:15 0.00346163
14 *325:15 *388:25 0.00144119
15 *325:19 *330:17 0.0329123
16 *325:19 *342:39 0.000966594
17 *325:19 *355:21 0
18 *325:23 *326:23 0.0136725
19 *325:23 *335:33 0.00280831
20 *83:23 *325:19 1.30914e-05
21 *85:19 *325:19 5.84602e-05
22 *283:25 *325:19 0.000653059
23 *317:19 *325:19 0
24 *319:25 *325:19 0.000826867
25 *321:15 *325:15 0.0220964
26 *323:15 *325:15 0.00036194
27 *324:13 *325:13 0
28 *324:15 *325:15 0.0236172
29 *324:23 *325:23 0.0120216
*RES
1 *739:la_data_out_o[32] *325:13 13.4868 
2 *325:13 *325:15 226.429 
3 *325:15 *325:17 4.5 
4 *325:17 *325:19 748.429 
5 *325:19 *325:21 4.5 
6 *325:21 *325:23 129.5 
7 *325:23 la_data_out[32] 19.8929 
*END

*D_NET *326 0.234269
*CONN
*P la_data_out[33] O
*I *739:la_data_out_o[33] O *D ntt_wb_bridge
*CAP
1 la_data_out[33] 0.000808646
2 *739:la_data_out_o[33] 0.000837719
3 *326:23 0.00334262
4 *326:21 0.00253397
5 *326:19 0.0106345
6 *326:17 0.0106345
7 *326:15 0.00709254
8 *326:13 0.00793026
9 *326:13 *330:13 0.00011348
10 *326:13 *334:25 0.000640997
11 *326:15 *328:15 0.0244898
12 *326:15 *340:21 0.00407117
13 *326:15 *345:27 0
14 *326:15 *346:19 0.00499508
15 *326:15 *351:23 0
16 *326:15 *399:21 0.00129742
17 *326:15 *726:15 0
18 *326:19 *332:25 0.0601215
19 *326:19 *338:35 0.000638375
20 *326:19 *338:37 0.0579526
21 *326:19 *338:51 0.00176518
22 *326:19 *340:31 0.000361326
23 *326:19 *399:21 0.000114258
24 *326:23 *327:43 0.01486
25 *326:23 *328:23 0.000132603
26 *326:23 *336:27 0.0034144
27 la_data_out[21] *326:23 3.69003e-05
28 la_data_out[25] *326:23 3.96138e-05
29 *120:19 *326:19 0.000222964
30 *134:19 *326:19 0.000432845
31 *304:23 *326:19 0.000137082
32 *311:37 *326:23 0.000541229
33 *317:15 *326:15 0.000175882
34 *318:15 *326:15 8.25843e-06
35 *324:15 *326:15 0
36 *324:23 *326:23 0.000218497
37 *325:23 *326:23 0.0136725
*RES
1 *739:la_data_out_o[33] *326:13 16.3098 
2 *326:13 *326:15 241.214 
3 *326:15 *326:17 4.5 
4 *326:17 *326:19 751.464 
5 *326:19 *326:21 4.5 
6 *326:21 *326:23 154.143 
7 *326:23 la_data_out[33] 19.5893 
*END

*D_NET *327 0.175141
*CONN
*P la_data_out[34] O
*I *739:la_data_out_o[34] O *D ntt_wb_bridge
*CAP
1 la_data_out[34] 0.000783656
2 *739:la_data_out_o[34] 0.000656848
3 *327:43 0.00307429
4 *327:41 0.00229064
5 *327:39 0.0165326
6 *327:37 0.0290686
7 *327:29 0.0155309
8 *327:15 0.010367
9 *327:13 0.00802891
10 *327:13 *330:13 0.000125772
11 *327:13 *334:25 0.000675632
12 *327:15 *328:15 0
13 *327:15 *331:19 0.000485751
14 *327:15 *333:19 0.00145833
15 *327:15 *337:15 0.00123962
16 *327:15 *377:23 0.00114651
17 *327:15 *388:25 0.000133557
18 *327:29 *333:19 0.000472537
19 *327:29 *337:37 0.000458616
20 *327:29 *377:23 1.12728e-05
21 *327:39 *337:61 0.000125719
22 *327:43 *328:23 0.0165109
23 *327:43 *336:27 0.00351508
24 *86:19 *327:39 0.000161255
25 *87:19 *327:39 1.90936e-05
26 *95:27 *327:39 7.69776e-06
27 *96:18 *327:39 0.00621335
28 *272:25 *327:29 0
29 *311:25 *327:29 0
30 *311:25 *327:37 0.00231264
31 *312:13 *327:15 0.00157609
32 *313:13 *327:15 0
33 *316:33 *327:29 1.12197e-05
34 *323:23 *327:39 0.0145125
35 *324:15 *327:15 0.0225396
36 *325:15 *327:15 0.000234409
37 *326:23 *327:43 0.01486
*RES
1 *739:la_data_out_o[34] *327:13 13.0614 
2 *327:13 *327:15 228.482 
3 *327:15 *327:29 26.1162 
4 *327:29 *327:37 49.2124 
5 *327:37 *327:39 463.83 
6 *327:39 *327:41 4.5 
7 *327:41 *327:43 156.196 
8 *327:43 la_data_out[34] 19.2857 
*END

*D_NET *328 0.260702
*CONN
*P la_data_out[35] O
*I *739:la_data_out_o[35] O *D ntt_wb_bridge
*CAP
1 la_data_out[35] 0.000758666
2 *739:la_data_out_o[35] 0.00055435
3 *328:23 0.00332293
4 *328:21 0.00256426
5 *328:19 0.0108864
6 *328:17 0.0108864
7 *328:15 0.00435343
8 *328:13 0.00490778
9 *328:13 *334:25 5.93209e-05
10 *328:15 *338:17 0.00543005
11 *328:15 *346:19 0.00108722
12 *328:15 *366:21 0.000810461
13 *328:19 *335:25 0
14 *328:19 *341:35 0.00122716
15 *328:19 *341:49 0.0578084
16 *328:23 *329:45 0.0167265
17 *328:23 *337:63 0.00418316
18 la_data_out[24] *328:19 0.0596691
19 la_data_out[25] *328:23 0.0017014
20 *306:17 *328:19 0.000911675
21 *311:25 *328:19 0.0117228
22 *316:19 *328:15 0.017669
23 *316:33 *328:19 6.73707e-06
24 *317:15 *328:15 0.000865932
25 *318:15 *328:15 0.000253238
26 *318:29 *328:23 1.52217e-05
27 *319:15 *328:15 0.000184512
28 *320:15 *328:15 7.58513e-05
29 *323:15 *328:15 0
30 *323:21 *328:19 0.00091697
31 *323:23 *328:19 9.70666e-06
32 *325:15 *328:15 0
33 *326:15 *328:15 0.0244898
34 *326:23 *328:23 0.000132603
35 *327:15 *328:15 0
36 *327:43 *328:23 0.0165109
*RES
1 *739:la_data_out_o[35] *328:13 15.107 
2 *328:13 *328:15 248.607 
3 *328:15 *328:17 4.5 
4 *328:17 *328:19 751.768 
5 *328:19 *328:21 4.5 
6 *328:21 *328:23 174.679 
7 *328:23 la_data_out[35] 18.9821 
*END

*D_NET *329 0.225035
*CONN
*P la_data_out[36] O
*I *739:la_data_out_o[36] O *D ntt_wb_bridge
*CAP
1 la_data_out[36] 0.000733676
2 *739:la_data_out_o[36] 0.000106887
3 *329:45 0.00326133
4 *329:43 0.0037848
5 *329:25 0.0114837
6 *329:23 0.0106791
7 *329:19 0.00140652
8 *329:13 0.0106186
9 *329:11 0.00977157
10 *329:13 *330:13 0
11 *329:13 *337:37 4.04485e-05
12 *329:13 *366:21 0.000205412
13 *329:13 *399:21 0.00021801
14 *329:19 *337:37 0.000584805
15 *329:23 *334:37 0
16 *329:23 *366:21 0.000123605
17 *329:25 *331:37 0.0584683
18 *329:25 *334:37 0.000144203
19 *329:25 *334:39 0.0585262
20 *329:25 *366:21 0.000110498
21 *329:43 *334:43 0.000265583
22 *329:45 *330:23 2.71468e-05
23 *329:45 *330:25 0.0166606
24 *329:45 *337:63 0.00391088
25 la_data_out[21] *329:43 0.000600641
26 la_data_out[25] *329:43 8.6229e-06
27 *272:23 *329:19 0.00138478
28 *308:13 *329:13 0.00536559
29 *308:13 *329:19 0.00414825
30 *309:25 *329:25 0.000960982
31 *311:23 *329:19 0.000355166
32 *312:13 *329:13 0.000205013
33 *313:11 *329:13 0.000271289
34 *318:29 *329:45 0.00166253
35 *321:27 *329:43 0.000988853
36 *324:19 *329:23 0.00102016
37 *324:19 *329:25 0.000204314
38 *328:23 *329:45 0.0167265
*RES
1 *739:la_data_out_o[36] *329:11 8.34972 
2 *329:11 *329:13 222.116 
3 *329:13 *329:19 44.6875 
4 *329:19 *329:23 13.2589 
5 *329:23 *329:25 727.634 
6 *329:25 *329:43 42.0179 
7 *329:43 *329:45 173.857 
8 *329:45 la_data_out[36] 18.6786 
*END

*D_NET *330 0.214222
*CONN
*P la_data_out[37] O
*I *739:la_data_out_o[37] O *D ntt_wb_bridge
*CAP
1 la_data_out[37] 0.000708686
2 *739:la_data_out_o[37] 0.000212724
3 *330:25 0.00611862
4 *330:23 0.00600388
5 *330:17 0.0132554
6 *330:15 0.0126614
7 *330:13 0.00869482
8 *330:11 0.00890755
9 *330:11 *334:25 2.42891e-05
10 *330:13 *334:25 0.00110621
11 *330:17 *342:39 0.000658197
12 *330:23 *338:53 0.000703087
13 *330:25 *338:53 0.00764674
14 *272:25 *330:17 0.00140343
15 *283:13 *330:13 0.00852692
16 *294:13 *330:13 0.000606258
17 *303:13 *330:13 0.000210878
18 *306:13 *330:13 0.000572834
19 *306:17 *330:17 3.52953e-05
20 *307:13 *330:13 0
21 *308:13 *330:13 0
22 *311:35 *330:17 0.000148975
23 *313:13 *330:13 0.0160479
24 *313:17 *330:17 0.0601176
25 *314:19 *330:13 0.00332982
26 *318:29 *330:23 0.00356485
27 *319:31 *330:23 0.00197972
28 *319:31 *330:25 0.000586089
29 *320:23 *330:25 0.000449017
30 *325:13 *330:13 0.000101187
31 *325:19 *330:17 0.0329123
32 *326:13 *330:13 0.00011348
33 *327:13 *330:13 0.000125772
34 *329:13 *330:13 0
35 *329:45 *330:23 2.71468e-05
36 *329:45 *330:25 0.0166606
*RES
1 *739:la_data_out_o[37] *330:11 10.8692 
2 *330:11 *330:13 262.571 
3 *330:13 *330:15 4.5 
4 *330:15 *330:17 746.304 
5 *330:17 *330:23 39.3482 
6 *330:23 *330:25 173.652 
7 *330:25 la_data_out[37] 18.375 
*END

*D_NET *331 0.268721
*CONN
*P la_data_out[38] O
*I *739:la_data_out_o[38] O *D ntt_wb_bridge
*CAP
1 la_data_out[38] 0.000654605
2 *739:la_data_out_o[38] 0.000346168
3 *331:47 0.00518415
4 *331:37 0.014836
5 *331:35 0.0108845
6 *331:31 0.00157739
7 *331:19 0.0062459
8 *331:11 0.00559272
9 *331:19 *332:11 0.0264382
10 *331:19 *333:19 4.65158e-06
11 *331:19 *334:17 0.000212435
12 *331:19 *334:25 8.23597e-06
13 *331:19 *337:15 0.00514091
14 *331:31 *332:11 0.000414865
15 *331:31 *332:23 9.54798e-06
16 *331:31 *333:19 0.000589027
17 *331:31 *334:37 0.00244058
18 *331:35 *334:37 0.00168343
19 *331:35 *338:35 0
20 *331:35 *399:21 0.000114258
21 *331:37 *334:39 4.00019e-05
22 *331:37 *335:29 0.0584528
23 *331:37 *366:21 0.000110498
24 *331:47 *332:37 0.000865359
25 *331:47 *332:41 0.0229649
26 *331:47 *338:51 0.000909221
27 *331:47 *338:53 0.0244737
28 la_data_out[15] *331:47 0.00079206
29 la_data_out[21] *331:37 0
30 *283:23 *331:35 0.000873662
31 *283:23 *331:37 0
32 *307:23 *331:31 0.000248574
33 *309:23 *331:31 0.00214447
34 *309:25 *331:37 0.000539149
35 *310:21 *331:31 1.80634e-05
36 *312:13 *331:19 0.01267
37 *312:13 *331:31 2.24813e-05
38 *313:13 *331:31 0.000590547
39 *314:19 *331:31 8.76591e-06
40 *319:27 *331:37 0
41 *319:31 *331:47 0.00104459
42 *320:23 *331:47 0.000615851
43 *324:19 *331:37 4.45982e-06
44 *327:15 *331:19 0.000485751
45 *329:25 *331:37 0.0584683
*RES
1 *739:la_data_out_o[38] *331:11 11.5397 
2 *331:11 *331:19 49.528 
3 *331:19 *331:31 34.4461 
4 *331:31 *331:35 23.3393 
5 *331:35 *331:37 725.661 
6 *331:37 *331:47 47.3528 
7 *331:47 la_data_out[38] 12.8125 
*END

*D_NET *332 0.265567
*CONN
*P la_data_out[39] O
*I *739:la_data_out_o[39] O *D ntt_wb_bridge
*CAP
1 la_data_out[39] 0.000616758
2 *739:la_data_out_o[39] 0.00485913
3 *332:41 0.00964997
4 *332:37 0.0101313
5 *332:25 0.0117769
6 *332:23 0.0120889
7 *332:11 0.00626919
8 *332:11 *334:17 0.000507105
9 *332:11 *334:25 0.0263416
10 *332:11 *334:37 0.00195063
11 *332:23 *337:37 0.000514414
12 *332:23 *337:41 0.000164631
13 *332:25 *338:51 3.84675e-05
14 *332:25 *340:31 0.0592868
15 *332:25 *399:21 0.000105594
16 *332:41 *338:53 0.000924437
17 la_data_out[15] *332:37 0.000256963
18 la_data_out[18] *332:37 0.000415434
19 la_data_out[21] *332:25 5.8519e-05
20 la_data_out[21] *332:37 9.54798e-06
21 *134:19 *332:25 0.000432845
22 *272:23 *332:23 0.000162414
23 *283:31 *332:37 0.000505268
24 *294:21 *332:25 0
25 *304:13 *332:23 0.000213364
26 *305:13 *332:23 0.000103646
27 *307:13 *332:23 0.000205673
28 *308:13 *332:23 0.000221781
29 *309:23 *332:11 0.00185683
30 *310:21 *332:23 0.00176026
31 *312:13 *332:11 3.58773e-05
32 *314:19 *332:11 3.58773e-05
33 *314:19 *332:23 0.00058626
34 *314:29 *332:25 0.000316981
35 *320:23 *332:41 0.00229655
36 *322:21 *332:23 5.23541e-05
37 *326:19 *332:25 0.0601215
38 *331:19 *332:11 0.0264382
39 *331:31 *332:11 0.000414865
40 *331:31 *332:23 9.54798e-06
41 *331:47 *332:37 0.000865359
42 *331:47 *332:41 0.0229649
*RES
1 *739:la_data_out_o[39] *332:11 46.6898 
2 *332:11 *332:23 18.3695 
3 *332:23 *332:25 746.911 
4 *332:25 *332:37 10.7901 
5 *332:37 *332:41 42.6973 
6 *332:41 la_data_out[39] 12.2054 
*END

*D_NET *333 0.124663
*CONN
*P la_data_out[3] O
*I *739:la_data_out_o[3] O *D ntt_wb_bridge
*CAP
1 la_data_out[3] 0.0376517
2 *739:la_data_out_o[3] 0.00139044
3 *333:33 0.0376517
4 *333:31 0.019895
5 *333:29 0.0200996
6 *333:19 0.00159504
7 *333:19 *337:37 0.00034881
8 *333:19 *377:23 0.000471748
9 *333:29 *335:25 0.000404311
10 *333:31 *337:41 0
11 *333:31 *388:29 0
12 *126:31 *333:31 0
13 *310:21 *333:19 0.000276904
14 *311:23 *333:29 0.000804686
15 *311:23 *333:31 0.00030941
16 *312:13 *333:19 0.000579229
17 *313:13 *333:19 0
18 *322:21 *333:29 0.000659585
19 *322:23 *333:31 0
20 *327:15 *333:19 0.00145833
21 *327:29 *333:19 0.000472537
22 *331:19 *333:19 4.65158e-06
23 *331:31 *333:19 0.000589027
*RES
1 *739:la_data_out_o[3] *333:19 49.0691 
2 *333:19 *333:29 23.4189 
3 *333:29 *333:31 58.7813 
4 *333:31 *333:33 3.41 
5 *333:33 la_data_out[3] 751.098 
*END

*D_NET *334 0.280775
*CONN
*P la_data_out[40] O
*I *739:la_data_out_o[40] O *D ntt_wb_bridge
*CAP
1 la_data_out[40] 0.000809458
2 *739:la_data_out_o[40] 0.000854643
3 *334:43 0.0110086
4 *334:39 0.0203479
5 *334:37 0.0116554
6 *334:25 0.00717044
7 *334:17 0.00651845
8 *334:17 *337:15 0.00187128
9 *334:37 *338:35 0
10 *334:37 *399:21 0.000105594
11 *334:39 *366:21 0.000132513
12 *334:43 *335:33 0.0287897
13 *334:43 *337:61 0.000571174
14 *94:17 *334:43 0
15 *272:35 *334:43 0.000274641
16 *305:23 *334:37 5.50241e-05
17 *308:23 *334:37 1.37595e-05
18 *309:23 *334:25 4.01462e-06
19 *309:23 *334:37 3.19604e-05
20 *309:25 *334:39 0.0112233
21 *311:35 *334:43 4.926e-05
22 *312:13 *334:37 0.00445382
23 *314:19 *334:25 0.0147417
24 *315:13 *334:25 5.32034e-05
25 *316:17 *334:25 7.30532e-05
26 *317:13 *334:25 0.000171475
27 *318:13 *334:25 0.000212909
28 *319:13 *334:25 0.000289746
29 *320:13 *334:25 0.000348881
30 *321:13 *334:25 0.000405537
31 *321:27 *334:43 0.00187998
32 *323:13 *334:25 0.000467153
33 *323:27 *334:43 0.00210154
34 *324:13 *334:25 0.000269334
35 *324:19 *334:39 0.0586083
36 *325:13 *334:25 0.000585424
37 *326:13 *334:25 0.000640997
38 *327:13 *334:25 0.000675632
39 *328:13 *334:25 5.93209e-05
40 *329:23 *334:37 0
41 *329:25 *334:37 0.000144203
42 *329:25 *334:39 0.0585262
43 *329:43 *334:43 0.000265583
44 *330:11 *334:25 2.42891e-05
45 *330:13 *334:25 0.00110621
46 *331:19 *334:17 0.000212435
47 *331:19 *334:25 8.23597e-06
48 *331:31 *334:37 0.00244058
49 *331:35 *334:37 0.00168343
50 *331:37 *334:39 4.00019e-05
51 *332:11 *334:17 0.000507105
52 *332:11 *334:25 0.0263416
53 *332:11 *334:37 0.00195063
*RES
1 *739:la_data_out_o[40] *334:17 12.7364 
2 *334:17 *334:25 49.3564 
3 *334:25 *334:37 42.9736 
4 *334:37 *334:39 723.991 
5 *334:39 *334:43 49.1473 
6 *334:43 la_data_out[40] 19.2582 
*END

*D_NET *335 0.264033
*CONN
*P la_data_out[41] O
*I *739:la_data_out_o[41] O *D ntt_wb_bridge
*CAP
1 la_data_out[41] 0.00077161
2 *739:la_data_out_o[41] 0.00128818
3 *335:33 0.00633939
4 *335:31 0.00556778
5 *335:29 0.0232077
6 *335:27 0.0232077
7 *335:25 0.00278253
8 *335:15 0.0127375
9 *335:13 0.0112431
10 *335:13 *337:15 0.000388518
11 *335:15 *740:mem_we 8.31566e-05
12 *335:15 *343:25 0.00752268
13 *335:15 *348:43 0.0046728
14 *335:15 *349:31 0.0027498
15 *335:15 *350:27 0.004712
16 *335:15 *725:23 0.031201
17 *335:15 *728:23 0
18 *335:25 *341:35 0
19 *335:25 *341:47 0.000105691
20 *335:25 *355:23 8.14545e-05
21 *335:25 *377:29 0.000260885
22 *335:25 *388:25 0.000212652
23 *335:29 *338:37 0
24 *335:29 *338:51 0
25 *335:29 *366:21 0.000123605
26 *335:33 *336:27 0.0307016
27 *335:33 *337:61 6.9232e-05
28 la_data_out[21] *335:29 0
29 *283:23 *335:25 0.000336051
30 *309:25 *335:29 0.000539149
31 *311:23 *335:25 2.01313e-05
32 *323:21 *335:25 0
33 *323:23 *335:25 0
34 *324:23 *335:33 0.00265227
35 *325:23 *335:33 0.00280831
36 *328:19 *335:25 0
37 *331:37 *335:29 0.0584528
38 *333:29 *335:25 0.000404311
39 *334:43 *335:33 0.0287897
*RES
1 *739:la_data_out_o[41] *335:13 21.8187 
2 *335:13 *335:15 49.6289 
3 *335:15 *335:25 47.6514 
4 *335:25 *335:27 3.41 
5 *335:27 *335:29 722.018 
6 *335:29 *335:31 3.41 
7 *335:31 *335:33 48.7641 
8 *335:33 la_data_out[41] 18.6511 
*END

*D_NET *336 0.260977
*CONN
*P la_data_out[42] O
*I *739:la_data_out_o[42] O *D ntt_wb_bridge
*CAP
1 la_data_out[42] 0.000733763
2 *739:la_data_out_o[42] 0.000939343
3 *336:27 0.00674313
4 *336:25 0.00624666
5 *336:19 0.0174737
6 *336:17 0.0172364
7 *336:15 0.0109976
8 *336:13 0.0119369
9 *336:13 *337:15 0.000544681
10 *336:15 *339:21 0.00506365
11 *336:15 *339:25 0.00100247
12 *336:15 *341:35 0.0063588
13 *336:15 *345:35 0.000259222
14 *336:15 *346:27 0.0024145
15 *336:15 *725:23 0
16 *336:15 *729:15 0.0013846
17 *336:15 *737:31 3.80106e-05
18 *336:19 *337:43 0
19 *336:19 *339:27 3.41385e-05
20 *336:19 *350:31 0.0594056
21 *336:25 *337:61 0.000302689
22 *336:27 *337:61 0.000110575
23 *336:27 *337:63 0.0313749
24 *336:27 *338:51 0.00124937
25 *336:27 *338:53 6.96938e-05
26 la_data_out[15] *336:25 1.94611e-05
27 la_data_out[15] *336:27 3.46553e-05
28 la_data_out[22] *336:25 0.00047644
29 la_data_out[23] *336:19 0.0205438
30 *315:17 *336:15 0.0203515
31 *326:23 *336:27 0.0034144
32 *327:43 *336:27 0.00351508
33 *335:33 *336:27 0.0307016
*RES
1 *739:la_data_out_o[42] *336:13 17.6595 
2 *336:13 *336:15 54.1691 
3 *336:15 *336:17 3.41 
4 *336:17 *336:19 756.018 
5 *336:19 *336:25 4.51137 
6 *336:25 *336:27 52.1872 
7 *336:27 la_data_out[42] 18.0439 
*END

*D_NET *337 0.287232
*CONN
*P la_data_out[43] O
*I *739:la_data_out_o[43] O *D ntt_wb_bridge
*CAP
1 la_data_out[43] 0.000695915
2 *739:la_data_out_o[43] 0.00771128
3 *337:63 0.00642282
4 *337:61 0.00723229
5 *337:43 0.0164014
6 *337:41 0.0158839
7 *337:37 0.00283652
8 *337:15 0.00955999
9 *337:15 *338:17 0.000548379
10 *337:15 *342:17 0.00087719
11 *337:15 *342:21 0.019178
12 *337:15 *344:17 0.000681442
13 *337:15 *355:17 0.00181755
14 *337:15 *388:25 0.00151797
15 *337:43 *339:27 0.0583259
16 *337:61 *344:23 0
17 *337:63 *338:53 0.0331113
18 la_data_out[22] *337:61 5.12869e-05
19 la_data_out[25] *337:63 0.000310978
20 *94:17 *337:61 0
21 *272:23 *337:37 0.000100235
22 *272:23 *337:41 0.000347819
23 *272:35 *337:61 0.000271488
24 *303:21 *337:43 0.0228265
25 *304:23 *337:41 0.000843993
26 *311:23 *337:37 0.000857903
27 *311:35 *337:61 4.65519e-05
28 *312:13 *337:15 0.00245721
29 *314:19 *337:41 0.000230103
30 *319:15 *337:15 0.00386991
31 *320:15 *337:15 0.00372076
32 *321:15 *337:15 0.00399889
33 *322:21 *337:37 0.00017612
34 *322:23 *337:41 0.0021761
35 *323:15 *337:15 0.00370845
36 *323:23 *337:61 1.66787e-05
37 *324:15 *337:15 0.00301245
38 *325:15 *337:15 0.00346163
39 *327:15 *337:15 0.00123962
40 *327:29 *337:37 0.000458616
41 *327:39 *337:61 0.000125719
42 *328:23 *337:63 0.00418316
43 *329:13 *337:37 4.04485e-05
44 *329:19 *337:37 0.000584805
45 *329:45 *337:63 0.00391088
46 *331:19 *337:15 0.00514091
47 *332:23 *337:37 0.000514414
48 *332:23 *337:41 0.000164631
49 *333:19 *337:37 0.00034881
50 *333:31 *337:41 0
51 *334:17 *337:15 0.00187128
52 *334:43 *337:61 0.000571174
53 *335:13 *337:15 0.000388518
54 *335:33 *337:61 6.9232e-05
55 *336:13 *337:15 0.000544681
56 *336:19 *337:43 0
57 *336:25 *337:61 0.000302689
58 *336:27 *337:61 0.000110575
59 *336:27 *337:63 0.0313749
*RES
1 *739:la_data_out_o[43] *337:15 48.7233 
2 *337:15 *337:37 46.6481 
3 *337:37 *337:41 7.2405 
4 *337:41 *337:43 739.625 
5 *337:43 *337:61 16.835 
6 *337:61 *337:63 52.5115 
7 *337:63 la_data_out[43] 17.4368 
*END

*D_NET *338 0.291676
*CONN
*P la_data_out[44] O
*I *739:la_data_out_o[44] O *D ntt_wb_bridge
*CAP
1 la_data_out[44] 0.000658068
2 *739:la_data_out_o[44] 0.000538915
3 *338:53 0.00842545
4 *338:51 0.00942982
5 *338:37 0.0241192
6 *338:35 0.0239767
7 *338:17 0.00606383
8 *338:15 0.00508285
9 *338:15 *339:13 0
10 *338:15 *340:17 0.000236641
11 *338:15 *342:17 0.000181683
12 *338:15 *346:17 0
13 *338:17 *340:21 0.0287643
14 *338:17 *342:17 0.000490934
15 *338:17 *342:21 0.0262515
16 *338:17 *355:17 0.00121072
17 *338:17 *366:21 0.00130452
18 *338:17 *399:21 3.58773e-05
19 *338:35 *339:25 0.00563899
20 *338:35 *340:29 0.00564247
21 *338:35 *340:31 7.14736e-05
22 *338:35 *347:35 0.00104316
23 *338:35 *351:23 0.000951804
24 *338:35 *351:33 0
25 *338:37 *399:21 0.000123605
26 la_data_out[15] *338:51 0.000167123
27 la_data_out[21] *338:51 0.000206679
28 *120:19 *338:51 0.00022131
29 *283:23 *338:35 0.000253957
30 *283:23 *338:37 0.000800036
31 *304:23 *338:35 0.000135428
32 *316:19 *338:17 0.00308161
33 *317:15 *338:17 0.000169615
34 *318:15 *338:17 0.000182899
35 *318:29 *338:53 0.000754617
36 *324:19 *338:35 0
37 *326:19 *338:35 0.000638375
38 *326:19 *338:37 0.0579526
39 *326:19 *338:51 0.00176518
40 *328:15 *338:17 0.00543005
41 *330:23 *338:53 0.000703087
42 *330:25 *338:53 0.00764674
43 *331:35 *338:35 0
44 *331:47 *338:51 0.000909221
45 *331:47 *338:53 0.0244737
46 *332:25 *338:51 3.84675e-05
47 *332:41 *338:53 0.000924437
48 *334:37 *338:35 0
49 *335:29 *338:37 0
50 *335:29 *338:51 0
51 *336:27 *338:51 0.00124937
52 *336:27 *338:53 6.96938e-05
53 *337:15 *338:17 0.000548379
54 *337:63 *338:53 0.0331113
*RES
1 *739:la_data_out_o[44] *338:15 10.4898 
2 *338:15 *338:17 47.0345 
3 *338:17 *338:35 37.3714 
4 *338:35 *338:37 714.732 
5 *338:37 *338:51 34.2352 
6 *338:51 *338:53 55.5744 
7 *338:53 la_data_out[44] 16.8296 
*END

*D_NET *339 0.323225
*CONN
*P la_data_out[45] O
*I *739:la_data_out_o[45] O *D ntt_wb_bridge
*CAP
1 la_data_out[45] 0.00124987
2 *739:la_data_out_o[45] 0.000754762
3 *339:31 0.00641683
4 *339:29 0.00516696
5 *339:27 0.0126682
6 *339:25 0.0143667
7 *339:21 0.00910348
8 *339:13 0.00815971
9 *339:13 *346:17 0.000984722
10 *339:21 *340:29 5.11566e-05
11 *339:21 *341:19 0.0284331
12 *339:21 *341:35 0.000248588
13 *339:21 *345:27 0.00578219
14 *339:21 *347:35 0.00143544
15 *339:21 *349:23 0.00259157
16 *339:21 *351:23 0.00226399
17 *339:21 *399:21 0.000405609
18 *339:21 *726:15 0.00494864
19 *339:25 *340:29 0.000805216
20 *339:25 *341:35 0.00560645
21 *339:25 *344:17 0
22 *339:25 *345:35 0.00136151
23 *339:25 *346:27 0.00133861
24 *339:25 *347:35 0.000371211
25 *339:25 *351:23 0.000284964
26 *339:25 *737:31 1.1397e-05
27 *339:27 *349:35 0.0592935
28 *339:27 *350:31 1.17396e-05
29 *339:31 *340:35 0.03901
30 *339:31 *343:39 0.000354718
31 *135:14 *339:31 0.039679
32 *303:21 *339:27 0
33 *336:15 *339:21 0.00506365
34 *336:15 *339:25 0.00100247
35 *336:19 *339:27 3.41385e-05
36 *337:43 *339:27 0.0583259
37 *338:15 *339:13 0
38 *338:35 *339:25 0.00563899
*RES
1 *739:la_data_out_o[45] *339:13 14.8964 
2 *339:13 *339:21 46.0177 
3 *339:21 *339:25 15.5282 
4 *339:25 *339:27 745.089 
5 *339:27 *339:29 3.41 
6 *339:29 *339:31 61.5919 
7 *339:31 la_data_out[45] 28.3654 
*END

*D_NET *340 0.344324
*CONN
*P la_data_out[46] O
*I *739:la_data_out_o[46] O *D ntt_wb_bridge
*CAP
1 la_data_out[46] 0.00131637
2 *739:la_data_out_o[46] 0.00080609
3 *340:35 0.0067393
4 *340:33 0.00542293
5 *340:31 0.0104911
6 *340:29 0.0120222
7 *340:21 0.00567815
8 *340:17 0.00495307
9 *340:17 *341:17 0
10 *340:17 *342:17 0.00177951
11 *340:17 *343:15 2.76632e-05
12 *340:17 *345:25 0.000454329
13 *340:17 *346:17 5.19985e-05
14 *340:17 *348:33 1.46617e-05
15 *340:21 *341:19 3.58773e-05
16 *340:21 *342:17 7.6993e-06
17 *340:21 *343:15 0.0266264
18 *340:21 *346:19 0.00422389
19 *340:21 *399:21 0.00215253
20 *340:29 *344:17 0
21 *340:29 *366:21 3.47641e-06
22 *340:29 *399:21 0.00262199
23 *340:29 *726:15 0.0011589
24 *340:31 *351:33 0.00084547
25 *340:31 *351:35 0.0587754
26 *340:35 *343:39 0.0408118
27 *340:35 *351:39 0.0171301
28 *134:19 *340:31 0.000432845
29 *135:14 *340:35 0.00101908
30 *314:19 *340:31 0.00040061
31 *314:29 *340:31 2.02939e-05
32 *326:15 *340:21 0.00407117
33 *326:19 *340:31 0.000361326
34 *332:25 *340:31 0.0592868
35 *338:15 *340:17 0.000236641
36 *338:17 *340:21 0.0287643
37 *338:35 *340:29 0.00564247
38 *338:35 *340:31 7.14736e-05
39 *339:21 *340:29 5.11566e-05
40 *339:25 *340:29 0.000805216
41 *339:31 *340:35 0.03901
*RES
1 *739:la_data_out_o[46] *340:17 12.9447 
2 *340:17 *340:21 48.3906 
3 *340:21 *340:29 20.4468 
4 *340:29 *340:31 743.268 
5 *340:31 *340:33 3.41 
6 *340:33 *340:35 63.3215 
7 *340:35 la_data_out[46] 28.9725 
*END

*D_NET *341 0.344168
*CONN
*P la_data_out[47] O
*I *739:la_data_out_o[47] O *D ntt_wb_bridge
*CAP
1 la_data_out[47] 0.00145411
2 *739:la_data_out_o[47] 0.000625865
3 *341:53 0.00957713
4 *341:51 0.00812302
5 *341:49 0.00989894
6 *341:47 0.0103632
7 *341:35 0.00257425
8 *341:19 0.00664133
9 *341:17 0.00515724
10 *341:17 *346:17 8.6123e-06
11 *341:19 *343:15 0.0290754
12 *341:19 *347:25 0.00180706
13 *341:19 *350:19 0.00269522
14 *341:19 *351:15 0.00276231
15 *341:19 *399:21 0.00140212
16 *341:35 *342:31 0.000239212
17 *341:35 *342:39 0
18 *341:35 *345:35 0.000147694
19 *341:35 *346:27 0.00015904
20 *341:35 *347:35 0.000126582
21 *341:35 *351:23 0.000104963
22 *341:47 *342:39 2.72887e-05
23 *341:47 *377:29 0.000467019
24 *341:53 *342:45 0.0402959
25 *341:53 *343:39 6.51435e-05
26 *85:13 *341:53 0.00829328
27 *95:13 *341:53 0.00895122
28 *95:27 *341:53 0.000246415
29 *96:14 *341:53 0.0213524
30 *306:17 *341:35 0.00066325
31 *306:17 *341:49 0.0578118
32 *311:25 *341:49 0.0124346
33 *313:17 *341:35 4.38783e-05
34 *323:23 *341:47 0.000748436
35 *328:19 *341:35 0.00122716
36 *328:19 *341:49 0.0578084
37 *335:25 *341:35 0
38 *335:25 *341:47 0.000105691
39 *336:15 *341:35 0.0063588
40 *339:21 *341:19 0.0284331
41 *339:21 *341:35 0.000248588
42 *339:25 *341:35 0.00560645
43 *340:17 *341:17 0
44 *340:21 *341:19 3.58773e-05
*RES
1 *739:la_data_out_o[47] *341:17 15.5585 
2 *341:17 *341:19 47.611 
3 *341:19 *341:35 49.5175 
4 *341:35 *341:47 27.0893 
5 *341:47 *341:49 713.67 
6 *341:49 *341:51 3.41 
7 *341:51 *341:53 64.0422 
8 *341:53 la_data_out[47] 30.7939 
*END

*D_NET *342 0.3492
*CONN
*P la_data_out[48] O
*I *739:la_data_out_o[48] O *D ntt_wb_bridge
*CAP
1 la_data_out[48] 0.00140413
2 *739:la_data_out_o[48] 0.00138693
3 *342:45 0.00829834
4 *342:43 0.00689422
5 *342:41 0.00926562
6 *342:39 0.0106536
7 *342:31 0.00331539
8 *342:21 0.00654017
9 *342:17 0.00599969
10 *342:17 *346:17 0.00300565
11 *342:17 *348:33 0.000535178
12 *342:31 *740:mem_we 0.000330324
13 *342:31 *343:25 0.00678841
14 *342:31 *656:23 0.000174849
15 *342:31 *701:23 0.00154737
16 *342:39 *726:21 0
17 *342:45 *343:39 0.0420598
18 la_data_out[24] *342:41 0.0590172
19 *83:17 *342:45 0.00865138
20 *84:17 *342:45 0.00933737
21 *85:13 *342:45 0.000359477
22 *95:13 *342:45 0.000313892
23 *96:14 *342:45 0.000577162
24 *96:18 *342:41 0.00668801
25 *313:17 *342:39 1.11775e-05
26 *316:33 *342:39 6.05161e-06
27 *317:15 *342:21 0.00299779
28 *318:15 *342:21 0.00291198
29 *319:25 *342:39 2.67817e-05
30 *323:15 *342:21 0.000132821
31 *323:23 *342:41 0.0590157
32 *325:19 *342:39 0.000966594
33 *330:17 *342:39 0.000658197
34 *337:15 *342:17 0.00087719
35 *337:15 *342:21 0.019178
36 *338:15 *342:17 0.000181683
37 *338:17 *342:17 0.000490934
38 *338:17 *342:21 0.0262515
39 *340:17 *342:17 0.00177951
40 *340:21 *342:17 7.6993e-06
41 *341:35 *342:31 0.000239212
42 *341:35 *342:39 0
43 *341:47 *342:39 2.72887e-05
44 *341:53 *342:45 0.0402959
*RES
1 *739:la_data_out_o[48] *342:17 17.2475 
2 *342:17 *342:21 44.4269 
3 *342:21 *342:31 29.5131 
4 *342:31 *342:39 37.4732 
5 *342:39 *342:41 724.598 
6 *342:41 *342:43 3.41 
7 *342:43 *342:45 66.6366 
8 *342:45 la_data_out[48] 30.1868 
*END

*D_NET *343 0.337862
*CONN
*P la_data_out[49] O
*I *739:la_data_out_o[49] O *D ntt_wb_bridge
*CAP
1 la_data_out[49] 0.00131659
2 *739:la_data_out_o[49] 0.000538611
3 *343:39 0.00933239
4 *343:37 0.00845928
5 *343:27 0.0242249
6 *343:25 0.0262997
7 *343:15 0.00694546
8 *343:13 0.00496583
9 *343:13 *345:25 0
10 *343:13 *346:17 0.000186583
11 *343:13 *350:17 0.000294637
12 *343:15 *345:25 0.00371196
13 *343:15 *346:19 0.000226181
14 *343:15 *347:25 0.00080248
15 *343:15 *347:27 0.003042
16 *343:15 *348:35 0.00309431
17 *343:25 *740:mem_we 0.000378438
18 *343:25 *345:33 7.15582e-05
19 *343:25 *348:43 0.00068012
20 *343:25 *349:31 0.00155165
21 *343:25 *350:27 0.000633553
22 *343:25 *399:21 4.6025e-06
23 *343:25 *656:23 0.000658339
24 *343:25 *725:23 0.00150221
25 *343:27 *348:47 0.0600892
26 *343:37 *348:47 0.000341643
27 *343:39 *349:39 0.00971335
28 *343:39 *350:35 0.00900005
29 *343:39 *351:39 0.00211418
30 *83:17 *343:39 0.000350219
31 *83:25 *343:39 8.92921e-06
32 *84:17 *343:39 0.000305843
33 *84:25 *343:39 0.000598855
34 *95:27 *343:39 9.13835e-05
35 *96:14 *343:39 0.000385615
36 *98:14 *343:39 5.34258e-05
37 *125:21 *343:37 6.58704e-05
38 *135:14 *343:39 0.00205748
39 *135:20 *343:27 0.000432845
40 *303:21 *343:27 0
41 *303:21 *343:37 0
42 *335:15 *343:25 0.00752268
43 *339:31 *343:39 0.000354718
44 *340:17 *343:15 2.76632e-05
45 *340:21 *343:15 0.0266264
46 *340:35 *343:39 0.0408118
47 *341:19 *343:15 0.0290754
48 *341:53 *343:39 6.51435e-05
49 *342:31 *343:25 0.00678841
50 *342:45 *343:39 0.0420598
*RES
1 *739:la_data_out_o[49] *343:13 12.9646 
2 *343:13 *343:15 47.4669 
3 *343:15 *343:25 35.9403 
4 *343:25 *343:27 742.054 
5 *343:27 *343:37 12.6243 
6 *343:37 *343:39 73.555 
7 *343:39 la_data_out[49] 29.5796 
*END

*D_NET *344 0.203878
*CONN
*P la_data_out[4] O
*I *739:la_data_out_o[4] O *D ntt_wb_bridge
*CAP
1 la_data_out[4] 0.000997653
2 *739:la_data_out_o[4] 0.00215153
3 *344:23 0.0147641
4 *344:21 0.0137664
5 *344:19 0.0105631
6 *344:17 0.0127146
7 *344:17 *355:17 0.00243466
8 *344:17 *366:21 9.30977e-05
9 *344:17 *388:25 0.00423197
10 *344:17 *399:21 5.03754e-05
11 *344:19 *351:33 0.000805852
12 *344:19 *351:35 1.39961e-05
13 la_data_out[13] *344:23 0
14 la_data_out[22] *344:23 0
15 la_data_out[23] *344:19 0
16 *94:17 *344:23 0.0125789
17 *134:19 *344:19 0.00642128
18 *272:45 *344:23 0
19 *294:21 *344:19 0.0598048
20 *303:27 *344:23 0
21 *310:21 *344:17 0.000334375
22 *312:13 *344:17 0.000578716
23 *314:29 *344:19 0.0592098
24 *321:15 *344:17 0.000808802
25 *323:15 *344:17 0.000872146
26 *337:15 *344:17 0.000681442
27 *337:61 *344:23 0
28 *339:25 *344:17 0
29 *340:29 *344:17 0
*RES
1 *739:la_data_out_o[4] *344:17 26.2776 
2 *344:17 *344:19 743.875 
3 *344:19 *344:21 3.41 
4 *344:21 *344:23 53.2322 
5 *344:23 la_data_out[4] 23.5082 
*END

*D_NET *345 0.268523
*CONN
*P la_data_out[50] O
*I *739:la_data_out_o[50] O *D ntt_wb_bridge
*CAP
1 la_data_out[50] 0.00151982
2 *739:la_data_out_o[50] 0.0017348
3 *345:43 0.015548
4 *345:41 0.0140281
5 *345:39 0.0237851
6 *345:37 0.0237851
7 *345:35 0.00212964
8 *345:33 0.00223281
9 *345:27 0.00607719
10 *345:25 0.00770881
11 *345:25 *346:17 7.62561e-05
12 *345:25 *347:25 0.000227677
13 *345:25 *348:33 0.00168397
14 *345:25 *351:13 0.000106079
15 *345:27 *346:19 0
16 *345:27 *347:27 0.000286691
17 *345:27 *349:23 0.0122846
18 *345:27 *726:15 0.014072
19 *345:35 *346:27 0.00988438
20 *345:35 *347:35 1.98839e-05
21 *345:35 *737:23 0.00228382
22 *345:39 *346:31 1.34741e-05
23 *345:39 *347:39 0.0599968
24 *345:39 *348:47 6.93626e-06
25 *345:43 *346:35 0.0460212
26 *345:43 *347:43 2.12733e-05
27 *81:15 *345:43 0
28 *96:14 *345:43 0.0101216
29 *126:27 *345:39 0.0010783
30 *326:15 *345:27 0
31 *336:15 *345:35 0.000259222
32 *339:21 *345:27 0.00578219
33 *339:25 *345:35 0.00136151
34 *340:17 *345:25 0.000454329
35 *341:35 *345:35 0.000147694
36 *343:13 *345:25 0
37 *343:15 *345:25 0.00371196
38 *343:25 *345:33 7.15582e-05
*RES
1 *739:la_data_out_o[50] *345:25 30.6766 
2 *345:25 *345:27 238.75 
3 *345:27 *345:33 10.9464 
4 *345:33 *345:35 94.5893 
5 *345:35 *345:37 4.5 
6 *345:37 *345:39 741.446 
7 *345:39 *345:41 4.5 
8 *345:41 *345:43 436.714 
9 *345:43 la_data_out[50] 33.5536 
*END

*D_NET *346 0.345655
*CONN
*P la_data_out[51] O
*I *739:la_data_out_o[51] O *D ntt_wb_bridge
*CAP
1 la_data_out[51] 0.00149763
2 *739:la_data_out_o[51] 0.00189515
3 *346:35 0.00775332
4 *346:33 0.00625569
5 *346:31 0.010336
6 *346:29 0.010336
7 *346:27 0.00431881
8 *346:25 0.0044979
9 *346:19 0.00307383
10 *346:17 0.0047899
11 *346:17 *348:33 3.12895e-05
12 *346:17 *349:21 0.000299451
13 *346:17 *350:17 0.00162864
14 *346:19 *347:27 0.000580225
15 *346:19 *348:35 0.0123801
16 *346:25 *347:33 0.000193939
17 *346:27 *347:35 0.0218703
18 *346:27 *737:23 0.00118731
19 *346:31 *347:39 0.0600176
20 *346:31 *348:47 0.0600384
21 *346:35 *347:43 0.0477123
22 *81:15 *346:35 0
23 *96:14 *346:35 0.00974459
24 *126:27 *346:31 0.000539149
25 *326:15 *346:19 0.00499508
26 *328:15 *346:19 0.00108722
27 *336:15 *346:27 0.0024145
28 *338:15 *346:17 0
29 *339:13 *346:17 0.000984722
30 *339:25 *346:27 0.00133861
31 *340:17 *346:17 5.19985e-05
32 *340:21 *346:19 0.00422389
33 *341:17 *346:17 8.6123e-06
34 *341:35 *346:27 0.00015904
35 *342:17 *346:17 0.00300565
36 *343:13 *346:17 0.000186583
37 *343:15 *346:19 0.000226181
38 *345:25 *346:17 7.62561e-05
39 *345:27 *346:19 0
40 *345:35 *346:27 0.00988438
41 *345:39 *346:31 1.34741e-05
42 *345:43 *346:35 0.0460212
*RES
1 *739:la_data_out_o[51] *346:17 21.317 
2 *346:17 *346:19 126.625 
3 *346:19 *346:25 12.4643 
4 *346:25 *346:27 207.125 
5 *346:27 *346:29 4.5 
6 *346:29 *346:31 741.446 
7 *346:31 *346:33 4.5 
8 *346:33 *346:35 451.911 
9 *346:35 la_data_out[51] 33.25 
*END

*D_NET *347 0.359783
*CONN
*P la_data_out[52] O
*I *739:la_data_out_o[52] O *D ntt_wb_bridge
*CAP
1 la_data_out[52] 0.00146451
2 *739:la_data_out_o[52] 0.00271767
3 *347:43 0.00795639
4 *347:41 0.00649188
5 *347:39 0.0103493
6 *347:37 0.0103493
7 *347:35 0.00296706
8 *347:33 0.00308512
9 *347:27 0.00190755
10 *347:25 0.00450716
11 *347:25 *349:23 0.000526096
12 *347:25 *350:17 0.000211273
13 *347:25 *350:19 0.000548676
14 *347:25 *351:13 0.000790652
15 *347:25 *351:15 0.000532611
16 *347:25 *726:15 0.000673275
17 *347:27 *348:35 0.0127276
18 *347:27 *349:23 0.000732437
19 *347:27 *350:19 0.0108909
20 *347:35 *351:23 0.0208446
21 *347:39 *348:47 9.22222e-06
22 *347:43 *348:51 0.049313
23 *96:14 *347:43 0.0100933
24 *126:27 *347:39 0.000539149
25 *338:35 *347:35 0.00104316
26 *339:21 *347:35 0.00143544
27 *339:25 *347:35 0.000371211
28 *341:19 *347:25 0.00180706
29 *341:35 *347:35 0.000126582
30 *343:15 *347:25 0.00080248
31 *343:15 *347:27 0.003042
32 *345:25 *347:25 0.000227677
33 *345:27 *347:27 0.000286691
34 *345:35 *347:35 1.98839e-05
35 *345:39 *347:39 0.0599968
36 *345:43 *347:43 2.12733e-05
37 *346:19 *347:27 0.000580225
38 *346:25 *347:33 0.000193939
39 *346:27 *347:35 0.0218703
40 *346:31 *347:39 0.0600176
41 *346:35 *347:43 0.0477123
*RES
1 *739:la_data_out_o[52] *347:25 30.0281 
2 *347:25 *347:27 129.5 
3 *347:27 *347:33 11.5536 
4 *347:33 *347:35 207.946 
5 *347:35 *347:37 4.5 
6 *347:37 *347:39 741.446 
7 *347:39 *347:41 4.5 
8 *347:41 *347:43 467.929 
9 *347:43 la_data_out[52] 32.9464 
*END

*D_NET *348 0.369585
*CONN
*P la_data_out[53] O
*I *739:la_data_out_o[53] O *D ntt_wb_bridge
*CAP
1 la_data_out[53] 0.00144069
2 *739:la_data_out_o[53] 0.00172287
3 *348:51 0.00849848
4 *348:49 0.00705779
5 *348:47 0.0105952
6 *348:45 0.0105952
7 *348:43 0.0029872
8 *348:41 0.00338817
9 *348:35 0.00228908
10 *348:33 0.00361098
11 *348:33 *349:21 0.00281642
12 *348:33 *350:17 0.000229716
13 *348:33 *351:13 0.00212874
14 *348:35 *350:19 0.000558966
15 *348:41 *349:29 0.000595833
16 *348:43 *349:31 0.0224428
17 *348:43 *350:27 0.0222876
18 *348:51 *349:39 0.000115519
19 *84:17 *348:51 2.56811e-05
20 *85:13 *348:51 0.000247765
21 *95:13 *348:51 0.0484554
22 *96:14 *348:51 0.0112699
23 *125:21 *348:47 6.75178e-05
24 *126:27 *348:47 0.000539149
25 *335:15 *348:43 0.0046728
26 *340:17 *348:33 1.46617e-05
27 *342:17 *348:33 0.000535178
28 *343:15 *348:35 0.00309431
29 *343:25 *348:43 0.00068012
30 *343:27 *348:47 0.0600892
31 *343:37 *348:47 0.000341643
32 *345:25 *348:33 0.00168397
33 *345:39 *348:47 6.93626e-06
34 *346:17 *348:33 3.12895e-05
35 *346:19 *348:35 0.0123801
36 *346:31 *348:47 0.0600384
37 *347:27 *348:35 0.0127276
38 *347:39 *348:47 9.22222e-06
39 *347:43 *348:51 0.049313
*RES
1 *739:la_data_out_o[53] *348:33 29.1233 
2 *348:33 *348:35 129.089 
3 *348:35 *348:41 17.9286 
4 *348:41 *348:43 216.982 
5 *348:43 *348:45 4.5 
6 *348:45 *348:47 747.821 
7 *348:47 *348:49 4.5 
8 *348:49 *348:51 483.125 
9 *348:51 la_data_out[53] 32.6429 
*END

*D_NET *349 0.360175
*CONN
*P la_data_out[54] O
*I *739:la_data_out_o[54] O *D ntt_wb_bridge
*CAP
1 la_data_out[54] 0.00133534
2 *739:la_data_out_o[54] 0.00150593
3 *349:39 0.00801609
4 *349:37 0.00668075
5 *349:35 0.0126521
6 *349:33 0.0126521
7 *349:31 0.00681967
8 *349:29 0.00715424
9 *349:23 0.00233092
10 *349:21 0.00350229
11 *349:21 *350:17 0.00379361
12 *349:21 *351:13 0.000391466
13 *349:23 *350:19 2.14757e-05
14 *349:23 *351:15 0.0132957
15 *349:23 *726:15 0.00116286
16 *349:31 *656:15 0
17 *349:31 *725:23 0.000230758
18 *349:35 *350:31 0.0597282
19 *349:39 *350:35 0.0520254
20 *83:17 *349:39 0.0506474
21 *84:17 *349:39 2.38501e-05
22 *135:14 *349:39 0.000491729
23 *335:15 *349:31 0.0027498
24 *339:21 *349:23 0.00259157
25 *339:27 *349:35 0.0592935
26 *343:25 *349:31 0.00155165
27 *343:39 *349:39 0.00971335
28 *345:27 *349:23 0.0122846
29 *346:17 *349:21 0.000299451
30 *347:25 *349:23 0.000526096
31 *347:27 *349:23 0.000732437
32 *348:33 *349:21 0.00281642
33 *348:41 *349:29 0.000595833
34 *348:43 *349:31 0.0224428
35 *348:51 *349:39 0.000115519
*RES
1 *739:la_data_out_o[54] *349:21 29.1368 
2 *349:21 *349:23 143.054 
3 *349:23 *349:29 17.0179 
4 *349:29 *349:31 210.821 
5 *349:31 *349:33 4.5 
6 *349:33 *349:35 749.643 
7 *349:35 *349:37 4.5 
8 *349:37 *349:39 492.982 
9 *349:39 la_data_out[54] 31.125 
*END

*D_NET *350 0.373912
*CONN
*P la_data_out[55] O
*I *739:la_data_out_o[55] O *D ntt_wb_bridge
*CAP
1 la_data_out[55] 0.00131427
2 *739:la_data_out_o[55] 0.00190824
3 *350:35 0.00809661
4 *350:33 0.00678234
5 *350:31 0.0125986
6 *350:29 0.0125986
7 *350:27 0.00453347
8 *350:25 0.00497599
9 *350:19 0.00246745
10 *350:17 0.00393318
11 *350:17 *351:13 0.000414913
12 *350:19 *351:15 0.0137737
13 *350:25 *351:21 0.00012294
14 *350:27 *656:15 0
15 *350:27 *701:15 0.0169031
16 *350:27 *729:15 0
17 *350:35 *351:39 0.0532122
18 *79:14 *350:35 0.000181816
19 *83:17 *350:35 0.000926199
20 *135:14 *350:35 0.000490919
21 *335:15 *350:27 0.004712
22 *336:19 *350:31 0.0594056
23 *339:27 *350:31 1.17396e-05
24 *341:19 *350:19 0.00269522
25 *343:13 *350:17 0.000294637
26 *343:25 *350:27 0.000633553
27 *343:39 *350:35 0.00900005
28 *346:17 *350:17 0.00162864
29 *347:25 *350:17 0.000211273
30 *347:25 *350:19 0.000548676
31 *347:27 *350:19 0.0108909
32 *348:33 *350:17 0.000229716
33 *348:35 *350:19 0.000558966
34 *348:43 *350:27 0.0222876
35 *349:21 *350:17 0.00379361
36 *349:23 *350:19 2.14757e-05
37 *349:35 *350:31 0.0597282
38 *349:39 *350:35 0.0520254
*RES
1 *739:la_data_out_o[55] *350:17 21.0096 
2 *350:17 *350:19 129.911 
3 *350:19 *350:25 17.0179 
4 *350:25 *350:27 228.071 
5 *350:27 *350:29 4.5 
6 *350:29 *350:31 749.339 
7 *350:31 *350:33 4.5 
8 *350:33 *350:35 508.589 
9 *350:35 la_data_out[55] 30.8214 
*END

*D_NET *351 0.348716
*CONN
*P la_data_out[56] O
*I *739:la_data_out_o[56] O *D ntt_wb_bridge
*CAP
1 la_data_out[56] 0.0012932
2 *739:la_data_out_o[56] 0.00223496
3 *351:39 0.0178868
4 *351:37 0.0165936
5 *351:35 0.0101217
6 *351:33 0.0106606
7 *351:23 0.00409987
8 *351:21 0.00364294
9 *351:15 0.00196929
10 *351:13 0.00412223
11 *351:15 *726:15 0.000337787
12 *351:23 *726:15 0.0228911
13 *351:23 *737:23 0
14 la_data_out[23] *351:33 0
15 *83:17 *351:39 0.000611631
16 *134:19 *351:35 0.000432845
17 *135:14 *351:39 0.00100791
18 *314:19 *351:33 0.000402198
19 *314:29 *351:35 0.0587405
20 *326:15 *351:23 0
21 *338:35 *351:23 0.000951804
22 *338:35 *351:33 0
23 *339:21 *351:23 0.00226399
24 *339:25 *351:23 0.000284964
25 *340:31 *351:33 0.00084547
26 *340:31 *351:35 0.0587754
27 *340:35 *351:39 0.0171301
28 *341:19 *351:15 0.00276231
29 *341:35 *351:23 0.000104963
30 *343:39 *351:39 0.00211418
31 *344:19 *351:33 0.000805852
32 *344:19 *351:35 1.39961e-05
33 *345:25 *351:13 0.000106079
34 *347:25 *351:13 0.000790652
35 *347:25 *351:15 0.000532611
36 *347:35 *351:23 0.0208446
37 *348:33 *351:13 0.00212874
38 *349:21 *351:13 0.000391466
39 *349:23 *351:15 0.0132957
40 *350:17 *351:13 0.000414913
41 *350:19 *351:15 0.0137737
42 *350:25 *351:21 0.00012294
43 *350:35 *351:39 0.0532122
*RES
1 *739:la_data_out_o[56] *351:13 19.8082 
2 *351:13 *351:15 135.661 
3 *351:15 *351:21 10.6429 
4 *351:21 *351:23 223.554 
5 *351:23 *351:33 23.5804 
6 *351:33 *351:35 725.812 
7 *351:35 *351:37 4.5 
8 *351:37 *351:39 519.268 
9 *351:39 la_data_out[56] 30.5179 
*END

*D_NET *352 0.368318
*CONN
*P la_data_out[57] O
*I *739:la_data_out_o[57] O *D ntt_wb_bridge
*CAP
1 la_data_out[57] 0.00133118
2 *739:la_data_out_o[57] 0.00917492
3 *352:23 0.00923838
4 *352:21 0.0079072
5 *352:19 0.0128871
6 *352:17 0.0187802
7 *352:13 0.00644458
8 *352:7 0.00972646
9 *352:7 *353:11 0
10 *352:7 *354:15 0.000172416
11 *352:7 *356:19 0.000450171
12 *352:7 *358:15 0.0260997
13 *352:7 *361:15 0.00507068
14 *352:7 *362:15 0.00456103
15 *352:7 *374:15 0.00148349
16 *352:7 *385:15 0.000351106
17 *352:7 *387:15 0.000765375
18 *352:7 *391:15 0.00215106
19 *352:7 *726:15 0.00547417
20 *352:13 *353:17 0.000688114
21 *352:13 *386:21 6.12512e-05
22 *352:17 *740:mem_slot[0] 0.00449076
23 *352:17 *353:19 0.000160189
24 *352:17 *359:25 0.00172537
25 *352:17 *657:15 0
26 *352:17 *676:19 0.00330942
27 *352:17 *713:15 0.0256976
28 *352:19 *356:31 0.0599321
29 *352:19 *363:11 0.0585032
30 *352:19 *656:11 0
31 *352:19 *657:11 0
32 *352:19 *728:11 9.96693e-05
33 *352:19 *729:11 0.000419006
34 *352:23 *353:27 0.0394239
35 *352:23 *357:31 0.0341696
36 *79:14 *352:23 0.00367848
37 *83:17 *352:23 0.00868899
38 *84:17 *352:23 0.00520122
39 *98:14 *352:23 0
*RES
1 *739:la_data_out_o[57] *352:7 48.8017 
2 *352:7 *352:13 17.8736 
3 *352:13 *352:17 44.3909 
4 *352:17 *352:19 752.375 
5 *352:19 *352:21 3.41 
6 *352:21 *352:23 65.4835 
7 *352:23 la_data_out[57] 30.1868 
*END

*D_NET *353 0.362251
*CONN
*P la_data_out[58] O
*I *739:la_data_out_o[58] O *D ntt_wb_bridge
*CAP
1 la_data_out[58] 0.00130115
2 *739:la_data_out_o[58] 0.00872991
3 *353:27 0.00921006
4 *353:25 0.00790891
5 *353:23 0.0117495
6 *353:21 0.0117495
7 *353:19 0.0069332
8 *353:17 0.00764599
9 *353:11 0.0094427
10 *353:11 *354:13 0.000625781
11 *353:11 *354:15 0.000882146
12 *353:11 *356:17 0.000116779
13 *353:11 *357:13 0.0024072
14 *353:11 *359:15 0.0142866
15 *353:11 *360:17 9.05749e-05
16 *353:11 *361:13 0.000104439
17 *353:11 *362:13 8.86059e-05
18 *353:11 *363:7 0
19 *353:11 *365:15 0.00435599
20 *353:11 *367:15 0.000355636
21 *353:11 *369:15 0.00325104
22 *353:11 *370:15 0.00364791
23 *353:11 *371:15 0.00325104
24 *353:11 *372:13 0
25 *353:11 *373:13 0.00117615
26 *353:11 *382:13 0.00346156
27 *353:17 *386:21 6.28248e-05
28 *353:17 *395:13 2.94126e-05
29 *353:19 *375:15 0.00485574
30 *353:19 *378:15 0.0207145
31 *353:19 *378:23 0.000120342
32 *353:19 *662:41 0
33 *353:19 *668:19 0.0055383
34 *353:19 *678:19 0.00513605
35 *353:19 *711:15 0.0256949
36 *353:19 *713:15 1.75318e-05
37 *353:23 la_data_out[83] 0.0110724
38 *353:23 *358:27 0.0609508
39 *353:23 *704:19 0.0322113
40 *353:27 *357:31 0.00201672
41 *353:27 *358:31 0.0371421
42 *69:17 *353:27 0.000763437
43 *70:20 *353:27 0.00216388
44 *98:14 *353:27 0.000716076
45 *352:7 *353:11 0
46 *352:13 *353:17 0.000688114
47 *352:17 *353:19 0.000160189
48 *352:23 *353:27 0.0394239
*RES
1 *739:la_data_out_o[58] *353:11 46.906 
2 *353:11 *353:17 20.3021 
3 *353:17 *353:19 47.611 
4 *353:19 *353:21 3.41 
5 *353:21 *353:23 751.161 
6 *353:23 *353:25 3.41 
7 *353:25 *353:27 69.3031 
8 *353:27 la_data_out[58] 29.5796 
*END

*D_NET *354 0.339929
*CONN
*P la_data_out[59] O
*I *739:la_data_out_o[59] O *D ntt_wb_bridge
*CAP
1 la_data_out[59] 0.000658068
2 *739:la_data_out_o[59] 0.000702224
3 *354:31 0.0129117
4 *354:29 0.0122537
5 *354:27 0.0247499
6 *354:25 0.0289418
7 *354:21 0.00517648
8 *354:15 0.00653728
9 *354:13 0.00625493
10 *354:15 *356:19 0.0359273
11 *354:15 *359:15 0.0338455
12 *354:21 *356:25 0.00136726
13 *354:21 *664:25 4.70331e-05
14 *354:25 *358:25 0.0209328
15 *354:25 *647:11 0.0108319
16 *354:25 *664:19 0.000118634
17 *354:25 *733:37 2.08716e-05
18 *354:27 *375:19 0.0617601
19 *354:27 *378:27 7.14148e-05
20 *354:27 *531:21 0
21 *354:27 *650:19 0.000127324
22 *354:27 *677:27 0
23 *354:27 *690:19 0.00246817
24 *354:27 *708:11 0.00384568
25 *354:27 *710:19 0
26 *354:27 *724:13 0.00066276
27 *354:31 la_data_out[75] 9.68754e-05
28 *354:31 la_data_out[76] 0.000921529
29 *354:31 la_data_out[77] 0.00845685
30 *354:31 la_data_out[81] 0.00200769
31 *354:31 *356:39 0.0357931
32 *354:31 *359:45 0.012401
33 *354:31 *360:35 0.00209235
34 *354:31 *361:31 0.00073208
35 *354:31 *363:17 6.47971e-05
36 *354:31 *364:25 0.00455833
37 *354:31 *375:29 0.000432233
38 *105:19 *354:27 0
39 *281:15 *354:21 1.14483e-05
40 *292:19 *354:27 0
41 *302:21 *354:31 0.0004674
42 *352:7 *354:15 0.000172416
43 *353:11 *354:13 0.000625781
44 *353:11 *354:15 0.000882146
*RES
1 *739:la_data_out_o[59] *354:13 12.4522 
2 *354:13 *354:15 57.1238 
3 *354:15 *354:21 26.9807 
4 *354:21 *354:25 36.1753 
5 *354:25 *354:27 772.411 
6 *354:27 *354:29 3.41 
7 *354:29 *354:31 65.2673 
8 *354:31 la_data_out[59] 16.8296 
*END

*D_NET *355 0.12994
*CONN
*P la_data_out[5] O
*I *739:la_data_out_o[5] O *D ntt_wb_bridge
*CAP
1 la_data_out[5] 0.0368583
2 *739:la_data_out_o[5] 0.00181384
3 *355:25 0.0368583
4 *355:23 0.0177424
5 *355:21 0.0185563
6 *355:17 0.00262764
7 *355:17 *366:21 0.00303434
8 *355:23 *399:25 0
9 *116:31 la_data_out[5] 0
10 *283:23 *355:23 3.8312e-05
11 *310:21 *355:17 0.000131526
12 *317:15 *355:17 0.000994138
13 *317:19 *355:21 0.00240892
14 *318:15 *355:17 0.00104605
15 *319:15 *355:17 0.000680161
16 *319:25 *355:21 0.000871419
17 *320:15 *355:17 0.000733431
18 *325:19 *355:21 0
19 *335:25 *355:23 8.14545e-05
20 *337:15 *355:17 0.00181755
21 *338:17 *355:17 0.00121072
22 *344:17 *355:17 0.00243466
*RES
1 *739:la_data_out_o[5] *355:17 27.3885 
2 *355:17 *355:21 33.8921 
3 *355:21 *355:23 52.0791 
4 *355:23 *355:25 3.41 
5 *355:25 la_data_out[5] 734.705 
*END

*D_NET *356 0.324197
*CONN
*P la_data_out[60] O
*I *739:la_data_out_o[60] O *D ntt_wb_bridge
*CAP
1 la_data_out[60] 0.000695915
2 *739:la_data_out_o[60] 0.000839151
3 *356:39 0.00947122
4 *356:37 0.00897669
5 *356:31 0.0261863
6 *356:29 0.0291514
7 *356:25 0.00398656
8 *356:19 0.00639439
9 *356:17 0.00641344
10 *356:17 *357:13 4.17269e-05
11 *356:19 *357:15 0.0308329
12 *356:19 *358:15 0.00075811
13 *356:19 *359:15 2.72228e-05
14 *356:19 *389:15 0.00261028
15 *356:19 *398:15 0.000335614
16 *356:25 *664:25 0.000184452
17 *356:25 *696:21 5.00087e-06
18 *356:29 *358:25 0.0174787
19 *356:29 *657:15 0.000127646
20 *356:29 *662:31 0.00368887
21 *356:29 *687:13 0.00967046
22 *356:31 *359:41 0
23 *356:31 *363:11 0.000438945
24 *356:31 *657:11 0
25 *356:31 *719:9 0
26 *356:31 *722:15 0
27 *356:37 *359:41 0
28 *356:37 *363:11 2.08247e-05
29 *356:39 *360:35 0.00358107
30 *356:39 *362:31 0.00034255
31 *356:39 *363:17 0.0235945
32 *356:39 *367:31 0.00396314
33 *115:35 *356:31 0
34 *279:15 *356:19 0.000721645
35 *281:15 *356:25 7.16043e-05
36 *352:7 *356:19 0.000450171
37 *352:19 *356:31 0.0599321
38 *353:11 *356:17 0.000116779
39 *354:15 *356:19 0.0359273
40 *354:21 *356:25 0.00136726
41 *354:31 *356:39 0.0357931
*RES
1 *739:la_data_out_o[60] *356:17 14.6364 
2 *356:17 *356:19 56.1149 
3 *356:19 *356:25 25.1593 
4 *356:25 *356:29 30.6982 
5 *356:29 *356:31 768.768 
6 *356:31 *356:37 5.89214 
7 *356:37 *356:39 56.9797 
8 *356:39 la_data_out[60] 17.4368 
*END

*D_NET *357 0.330317
*CONN
*P la_data_out[61] O
*I *739:la_data_out_o[61] O *D ntt_wb_bridge
*CAP
1 la_data_out[61] 0.00142444
2 *739:la_data_out_o[61] 0.00120024
3 *357:31 0.0101236
4 *357:29 0.00869913
5 *357:27 0.0246109
6 *357:25 0.0315135
7 *357:21 0.00865877
8 *357:15 0.00624163
9 *357:13 0.00568573
10 *357:13 *358:13 0.000140044
11 *357:13 *359:13 0.000236128
12 *357:13 *360:17 6.11222e-05
13 *357:15 *358:15 0.0290467
14 *357:15 *360:19 0.000241438
15 *357:15 *368:15 0.000277739
16 *357:15 *398:15 0.000650206
17 *357:25 *740:slot_b[1] 0.00805699
18 *357:25 *649:11 0
19 *357:25 *691:23 0.00647427
20 *357:25 *712:34 0.00415593
21 *357:25 *722:19 0.000731422
22 *357:25 *727:15 3.79901e-06
23 *357:25 *733:39 0.00408516
24 *357:27 *358:27 0.0614883
25 *357:27 *664:31 0
26 *357:27 *676:31 0
27 *357:27 *691:27 0
28 *357:27 *704:19 9.74924e-05
29 *70:22 *357:31 0.000185098
30 *71:21 *357:31 0.000143439
31 *72:25 *357:31 0.000110042
32 *73:20 *357:31 0.000851675
33 *78:25 *357:27 0
34 *79:14 *357:31 0.0337386
35 *85:13 *357:31 0.00379785
36 *95:13 *357:31 0.00811778
37 *101:15 *357:31 0
38 *140:13 *357:31 0
39 *352:23 *357:31 0.0341696
40 *353:11 *357:13 0.0024072
41 *353:27 *357:31 0.00201672
42 *356:17 *357:13 4.17269e-05
43 *356:19 *357:15 0.0308329
*RES
1 *739:la_data_out_o[61] *357:13 15.3662 
2 *357:13 *357:15 48.0434 
3 *357:15 *357:21 33.6593 
4 *357:21 *357:25 41.292 
5 *357:25 *357:27 766.339 
6 *357:27 *357:29 3.41 
7 *357:29 *357:31 60.7992 
8 *357:31 la_data_out[61] 30.7939 
*END

*D_NET *358 0.371801
*CONN
*P la_data_out[62] O
*I *739:la_data_out_o[62] O *D ntt_wb_bridge
*CAP
1 la_data_out[62] 0.00129589
2 *739:la_data_out_o[62] 0.000715831
3 *358:31 0.00686221
4 *358:29 0.00556632
5 *358:27 0.0103714
6 *358:25 0.0156358
7 *358:21 0.00637549
8 *358:15 0.00559671
9 *358:13 0.00520142
10 *358:15 *360:19 0.00694392
11 *358:15 *361:15 0.000321923
12 *358:15 *362:15 0.000370326
13 *358:15 *368:15 0.00724053
14 *358:15 *391:15 0.000687845
15 *358:15 *398:15 0.00137084
16 *358:21 *650:29 0.000257428
17 *358:25 *650:31 6.92474e-05
18 *358:25 *657:15 4.92595e-05
19 *358:25 *662:41 0
20 *358:25 *664:19 0.0023821
21 *358:25 *687:13 0.00157512
22 *358:27 *704:19 0.000348476
23 *69:17 *358:31 0.037145
24 *70:20 la_data_out[62] 4.6025e-06
25 *101:23 *358:25 0.00137642
26 *275:13 *358:21 0
27 *276:13 *358:21 0
28 *352:7 *358:15 0.0260997
29 *353:23 *358:27 0.0609508
30 *353:27 *358:31 0.0371421
31 *354:25 *358:25 0.0209328
32 *356:19 *358:15 0.00075811
33 *356:29 *358:25 0.0174787
34 *357:13 *358:13 0.000140044
35 *357:15 *358:15 0.0290467
36 *357:27 *358:27 0.0614883
*RES
1 *739:la_data_out_o[62] *358:13 13.7128 
2 *358:13 *358:15 47.3227 
3 *358:15 *358:21 24.5521 
4 *358:21 *358:25 44.1747 
5 *358:25 *358:27 759.661 
6 *358:27 *358:29 3.41 
7 *358:29 *358:31 58.0607 
8 *358:31 la_data_out[62] 28.9725 
*END

*D_NET *359 0.286639
*CONN
*P la_data_out[63] O
*I *739:la_data_out_o[63] O *D ntt_wb_bridge
*CAP
1 la_data_out[63] 0.00069068
2 *739:la_data_out_o[63] 0.000565343
3 *359:45 0.00970312
4 *359:43 0.00901244
5 *359:41 0.0195491
6 *359:39 0.0201478
7 *359:27 0.0123937
8 *359:25 0.0158579
9 *359:15 0.0105298
10 *359:13 0.00703227
11 *359:15 *367:15 0.00351799
12 *359:15 *369:15 0.000180861
13 *359:15 *382:13 0.000109687
14 *359:15 *393:15 0.000469189
15 *359:15 *396:15 0.0116881
16 *359:25 *740:mem_slot[0] 0.00106313
17 *359:25 *650:23 0.00256642
18 *359:25 *657:15 0.0127661
19 *359:25 *661:23 0.0011233
20 *359:25 *664:27 0.00256642
21 *359:25 *675:27 0.000976476
22 *359:25 *676:19 7.17259e-05
23 *359:25 *676:25 5.05056e-05
24 *359:25 *676:27 0.00276742
25 *359:25 *677:23 0.00276742
26 *359:27 *735:29 0.0249754
27 *359:27 *736:16 0
28 *359:39 *720:7 5.7811e-07
29 *359:39 *735:27 9.0404e-05
30 *359:39 *736:16 0.000310064
31 *359:41 *693:11 0
32 *359:41 *696:11 0
33 *359:41 *697:11 0.00300496
34 *359:41 *702:12 0.00189287
35 *359:41 *711:11 0.000604434
36 *359:41 *713:11 0.003279
37 *359:41 *719:9 0
38 *359:41 *729:9 0.000270879
39 *359:41 *731:9 0.000270879
40 *359:41 *735:9 0.000111764
41 *359:41 *736:6 0.00121636
42 *359:41 *737:9 0.000111764
43 *359:45 *360:35 0.0272709
44 *359:45 *375:31 0
45 *78:23 *359:41 0
46 *79:20 *359:41 0.00329055
47 *115:35 *359:41 0.00494077
48 *117:19 *359:41 0.00310105
49 *279:15 *359:15 0.00021796
50 *282:17 *359:15 0.00098909
51 *352:17 *359:25 0.00172537
52 *353:11 *359:15 0.0142866
53 *354:15 *359:15 0.0338455
54 *354:31 *359:45 0.012401
55 *356:19 *359:15 2.72228e-05
56 *356:31 *359:41 0
57 *356:37 *359:41 0
58 *357:13 *359:13 0.000236128
*RES
1 *739:la_data_out_o[63] *359:13 11.4816 
2 *359:13 *359:15 58.3489 
3 *359:15 *359:25 47.2564 
4 *359:25 *359:27 53.1006 
5 *359:27 *359:39 8.80183 
6 *359:39 *359:41 462.92 
7 *359:41 *359:43 4.5 
8 *359:43 *359:45 274.071 
9 *359:45 la_data_out[63] 18.375 
*END

*D_NET *360 0.305585
*CONN
*P la_data_out[64] O
*I *739:la_data_out_o[64] O *D ntt_wb_bridge
*CAP
1 la_data_out[64] 0.00071567
2 *739:la_data_out_o[64] 0.000733398
3 *360:35 0.00515841
4 *360:33 0.00444275
5 *360:31 0.0201962
6 *360:29 0.0201962
7 *360:27 0.00189791
8 *360:25 0.0022396
9 *360:19 0.00588694
10 *360:17 0.00627864
11 *360:19 *361:15 0.00036194
12 *360:19 *362:15 0.0360687
13 *360:19 *368:15 0.0321308
14 *360:19 *398:15 0.000260852
15 *360:19 *726:15 0.000178911
16 *360:27 *361:23 0
17 *360:27 *376:15 0.00226615
18 *360:27 *725:15 0.0111639
19 *360:27 *729:15 0.0105353
20 *360:31 *739:mem_rdata_i[11] 0.0036466
21 *360:31 *739:mem_rdata_i[12] 0.000166101
22 *360:31 *739:mem_rdata_i[13] 0.000118506
23 *360:31 *739:mem_rdata_i[23] 0.00014183
24 *360:31 *739:mem_rdata_i[3] 6.80962e-05
25 *360:31 *364:19 0
26 *360:31 *369:19 0.0606513
27 *360:31 *373:17 5.06562e-05
28 *360:31 *649:15 0
29 *360:31 *650:17 9.36119e-05
30 *360:31 *695:15 0.000218081
31 *360:31 *704:17 0.000118506
32 *360:31 *710:17 9.25974e-05
33 *360:31 *714:13 0.00019303
34 *360:31 *717:11 0.00923104
35 *360:31 *734:17 1.94879e-05
36 *360:35 *361:31 0.000627834
37 *360:35 *362:31 0.00365437
38 *360:35 *367:31 0.0189246
39 *360:35 *375:31 0
40 *360:35 *376:31 0
41 *101:19 *360:31 0.00487512
42 *276:15 *360:27 0.00016595
43 *279:15 *360:19 0.00153444
44 *353:11 *360:17 9.05749e-05
45 *354:31 *360:35 0.00209235
46 *356:39 *360:35 0.00358107
47 *357:13 *360:17 6.11222e-05
48 *357:15 *360:19 0.000241438
49 *358:15 *360:19 0.00694392
50 *359:45 *360:35 0.0272709
*RES
1 *739:la_data_out_o[64] *360:17 15.4586 
2 *360:17 *360:19 351.696 
3 *360:19 *360:25 13.375 
4 *360:25 *360:27 111.018 
5 *360:27 *360:29 4.5 
6 *360:29 *360:31 758.143 
7 *360:31 *360:33 4.5 
8 *360:33 *360:35 274.071 
9 *360:35 la_data_out[64] 18.6786 
*END

*D_NET *361 0.290856
*CONN
*P la_data_out[65] O
*I *739:la_data_out_o[65] O *D ntt_wb_bridge
*CAP
1 la_data_out[65] 0.000766665
2 *739:la_data_out_o[65] 0.00092353
3 *361:31 0.00563995
4 *361:29 0.00487329
5 *361:27 0.0141871
6 *361:25 0.0141871
7 *361:23 0.00307584
8 *361:21 0.00340311
9 *361:15 0.00625195
10 *361:13 0.00684821
11 *361:15 *362:15 0.0400036
12 *361:15 *398:15 0.00118733
13 *361:15 *726:15 0.0225153
14 *361:21 *362:21 0.000478401
15 *361:23 *394:15 0.000912014
16 *361:23 *701:15 0.0073472
17 *361:23 *729:15 0
18 *361:27 la_data_out[82] 0.0232413
19 *361:27 *368:23 0.0611117
20 *361:27 *374:19 0
21 *361:27 *379:19 0.000132635
22 *361:27 *382:17 0
23 *361:27 *661:27 0
24 *361:27 *733:11 0.00948471
25 *361:27 *733:37 0.00181103
26 *361:27 *734:19 0
27 *361:31 *362:31 0.0268951
28 *361:31 *363:17 0.00435947
29 *361:31 *365:23 0.0213055
30 *361:31 *368:27 0.000319005
31 *361:31 *375:29 0.000111763
32 *281:15 *361:15 0.00226434
33 *352:7 *361:15 0.00507068
34 *353:11 *361:13 0.000104439
35 *354:31 *361:31 0.00073208
36 *358:15 *361:15 0.000321923
37 *360:19 *361:15 0.00036194
38 *360:27 *361:23 0
39 *360:35 *361:31 0.000627834
*RES
1 *739:la_data_out_o[65] *361:13 15.8809 
2 *361:13 *361:15 382.5 
3 *361:15 *361:21 15.5 
4 *361:21 *361:23 86.375 
5 *361:23 *361:25 4.5 
6 *361:25 *361:27 759.964 
7 *361:27 *361:29 4.5 
8 *361:29 *361:31 270.786 
9 *361:31 la_data_out[65] 19.5893 
*END

*D_NET *362 0.299106
*CONN
*P la_data_out[66] O
*I *739:la_data_out_o[66] O *D ntt_wb_bridge
*CAP
1 la_data_out[66] 0.000752243
2 *739:la_data_out_o[66] 0.000716789
3 *362:31 0.00496156
4 *362:29 0.00420932
5 *362:27 0.0185176
6 *362:25 0.0185176
7 *362:23 0.0028249
8 *362:21 0.00376049
9 *362:15 0.00581757
10 *362:13 0.00559877
11 *362:15 *368:15 0.00221109
12 *362:15 *398:15 0.00128032
13 *362:15 *726:15 1.39726e-05
14 *362:23 *657:15 0.00137187
15 *362:23 *662:31 0.00298901
16 *362:23 *676:27 0.00220726
17 *362:23 *696:15 0.00595241
18 *362:27 la_data_out[83] 0
19 *362:27 *695:19 0.0497402
20 *362:27 *707:11 0.0236055
21 *362:31 *363:17 0.00466484
22 *362:31 *367:31 0.0190524
23 *362:31 *368:27 1.62025e-05
24 *362:31 *375:29 0.000329786
25 *362:31 *378:33 0
26 *101:23 *362:23 0.000212929
27 *115:47 *362:27 0.00226431
28 *281:15 *362:15 0.00210604
29 *284:21 *362:31 0.00294791
30 *352:7 *362:15 0.00456103
31 *353:11 *362:13 8.86059e-05
32 *356:39 *362:31 0.00034255
33 *358:15 *362:15 0.000370326
34 *360:19 *362:15 0.0360687
35 *360:35 *362:31 0.00365437
36 *361:15 *362:15 0.0400036
37 *361:21 *362:21 0.000478401
38 *361:31 *362:31 0.0268951
*RES
1 *739:la_data_out_o[66] *362:13 15.4865 
2 *362:13 *362:15 376.75 
3 *362:15 *362:21 24 
4 *362:21 *362:23 104.446 
5 *362:23 *362:25 4.5 
6 *362:25 *362:27 768.464 
7 *362:27 *362:29 4.5 
8 *362:29 *362:31 273.25 
9 *362:31 la_data_out[66] 19.2857 
*END

*D_NET *363 0.308127
*CONN
*P la_data_out[67] O
*I *739:la_data_out_o[67] O *D ntt_wb_bridge
*CAP
1 la_data_out[67] 0.000746959
2 *739:la_data_out_o[67] 0.000135304
3 *363:17 0.00833378
4 *363:11 0.0205076
5 *363:9 0.0129208
6 *363:7 0.0105354
7 *363:5 0.0106707
8 *363:7 *364:13 0.000111134
9 *363:7 *365:13 5.19985e-05
10 *363:7 *367:13 0.000696373
11 *363:7 *368:13 0.000637237
12 *363:7 *369:13 0.000578101
13 *363:7 *370:13 0.000518966
14 *363:7 *371:13 0.00045983
15 *363:7 *372:11 8.65447e-05
16 *363:7 *372:13 0.0422276
17 *363:7 *373:11 6.42375e-05
18 *363:7 *374:13 0.000282423
19 *363:7 *375:13 0.000223288
20 *363:7 *376:13 0.000151408
21 *363:7 *378:13 0.000105017
22 *363:7 *379:13 4.58811e-05
23 *363:7 *380:9 0.0030952
24 *363:7 *380:11 0.00129373
25 *363:7 *381:23 0.000131918
26 *363:7 *383:17 0.0318125
27 *363:7 *392:21 0.000131918
28 *363:11 *729:11 0.054154
29 *363:17 la_data_out[75] 0.00515306
30 *363:17 *365:23 0.00210161
31 *363:17 *368:27 0.00120721
32 *363:17 *369:23 0.000475088
33 *363:17 *370:23 0.000177031
34 *363:17 *371:23 0.000177934
35 *77:35 *363:11 0.00315757
36 *143:19 *363:11 0
37 *288:23 *363:7 0.000243851
38 *291:13 *363:7 0.00157379
39 *293:13 *363:7 0.00150382
40 *352:19 *363:11 0.0585032
41 *353:11 *363:7 0
42 *354:31 *363:17 6.47971e-05
43 *356:31 *363:11 0.000438945
44 *356:37 *363:11 2.08247e-05
45 *356:39 *363:17 0.0235945
46 *361:31 *363:17 0.00435947
47 *362:31 *363:17 0.00466484
*RES
1 *739:la_data_out_o[67] *363:5 0.449633 
2 *363:5 *363:7 76.1478 
3 *363:7 *363:9 3.41 
4 *363:9 *363:11 745.089 
5 *363:11 *363:17 44.6299 
6 *363:17 la_data_out[67] 14.6339 
*END

*D_NET *364 0.249289
*CONN
*P la_data_out[68] O
*I *739:la_data_out_o[68] O *D ntt_wb_bridge
*CAP
1 la_data_out[68] 0.000571535
2 *739:la_data_out_o[68] 0.00106283
3 *364:25 0.0102707
4 *364:19 0.0376796
5 *364:17 0.0279804
6 *364:15 0.0130098
7 *364:13 0.0140727
8 *364:15 *375:15 0.0405305
9 *364:15 *379:15 0.00368895
10 *364:15 *390:15 0.00648339
11 *364:15 *394:15 0.00530568
12 *364:15 *701:15 0.0090769
13 *364:15 *711:15 0.00171593
14 *364:15 *725:23 0.0225387
15 *364:15 *737:21 7.76075e-06
16 *364:19 *739:mem_rdata_i[10] 0.000242191
17 *364:19 *739:mem_rdata_i[11] 0.000949201
18 *364:19 *650:17 3.54658e-05
19 *364:19 *688:27 0.0106058
20 *364:19 *695:15 8.56535e-05
21 *364:19 *704:17 4.55034e-05
22 *364:19 *710:17 3.24409e-05
23 *364:19 *714:13 7.48268e-05
24 *364:19 *716:11 0.00230715
25 *364:19 *717:11 0.0249799
26 *364:19 *731:11 0
27 *364:19 *734:17 6.27272e-06
28 *364:19 *735:11 0
29 *364:25 la_data_out[76] 0.0090954
30 *364:25 *375:31 0.00149735
31 *364:25 *376:31 0.000667155
32 *354:31 *364:25 0.00455833
33 *360:31 *364:19 0
34 *363:7 *364:13 0.000111134
*RES
1 *739:la_data_out_o[68] *364:13 23.8517 
2 *364:13 *364:15 76.5818 
3 *364:15 *364:17 3.41 
4 *364:17 *364:19 763.911 
5 *364:19 *364:25 43.5489 
6 *364:25 la_data_out[68] 11.5982 
*END

*D_NET *365 0.263124
*CONN
*P la_data_out[69] O
*I *739:la_data_out_o[69] O *D ntt_wb_bridge
*CAP
1 la_data_out[69] 0.00081171
2 *739:la_data_out_o[69] 0.000342291
3 *365:23 0.00408719
4 *365:21 0.00327548
5 *365:19 0.024086
6 *365:17 0.024086
7 *365:15 0.0115292
8 *365:13 0.0118714
9 *365:15 *367:15 0.000387685
10 *365:15 *369:15 0.00036194
11 *365:15 *370:15 0.0431749
12 *365:15 *381:15 0.0147441
13 *365:15 *382:13 0.00232432
14 *365:15 *383:35 0
15 *365:19 *370:19 0.0596558
16 *365:19 *372:17 9.5277e-06
17 *365:19 *683:27 0.00445864
18 *365:23 la_data_out[75] 0.0021645
19 *365:23 *368:27 0.0179174
20 *365:23 *376:31 0.000103646
21 *277:15 *365:15 0.00536694
22 *281:19 *365:19 0
23 *282:19 *365:19 0
24 *291:13 *365:15 0
25 *298:17 *365:15 0.00453022
26 *301:23 *365:15 1.98839e-05
27 *302:17 *365:19 0
28 *353:11 *365:15 0.00435599
29 *361:31 *365:23 0.0213055
30 *363:7 *365:13 5.19985e-05
31 *363:17 *365:23 0.00210161
*RES
1 *739:la_data_out_o[69] *365:13 12.5562 
2 *365:13 *365:15 438.357 
3 *365:15 *365:17 4.5 
4 *365:17 *365:19 747.821 
5 *365:19 *365:21 4.5 
6 *365:21 *365:23 201.786 
7 *365:23 la_data_out[69] 19.8929 
*END

*D_NET *366 0.130342
*CONN
*P la_data_out[6] O
*I *739:la_data_out_o[6] O *D ntt_wb_bridge
*CAP
1 la_data_out[6] 0.036531
2 *739:la_data_out_o[6] 0.00380961
3 *366:25 0.036531
4 *366:23 0.0165285
5 *366:21 0.0203381
6 *366:21 *399:21 0.00728742
7 *304:13 *366:21 0.000121285
8 *305:13 *366:21 0.000104875
9 *307:13 *366:21 0.00011266
10 *308:13 *366:21 0.000121484
11 *309:25 *366:21 0.00135396
12 *310:21 *366:21 0.000598493
13 *316:19 *366:21 0.000721501
14 *317:15 *366:21 0.000129601
15 *328:15 *366:21 0.000810461
16 *329:13 *366:21 0.000205412
17 *329:23 *366:21 0.000123605
18 *329:25 *366:21 0.000110498
19 *331:37 *366:21 0.000110498
20 *334:39 *366:21 0.000132513
21 *335:29 *366:21 0.000123605
22 *338:17 *366:21 0.00130452
23 *340:29 *366:21 3.47641e-06
24 *344:17 *366:21 9.30977e-05
25 *355:17 *366:21 0.00303434
*RES
1 *739:la_data_out_o[6] *366:21 40.2456 
2 *366:21 *366:23 48.656 
3 *366:23 *366:25 3.41 
4 *366:25 la_data_out[6] 728.027 
*END

*D_NET *367 0.268258
*CONN
*P la_data_out[70] O
*I *739:la_data_out_o[70] O *D ntt_wb_bridge
*CAP
1 la_data_out[70] 0.000749652
2 *739:la_data_out_o[70] 0.00059584
3 *367:31 0.00315848
4 *367:29 0.00240883
5 *367:27 0.0228015
6 *367:25 0.0228015
7 *367:23 0.00139215
8 *367:21 0.00192942
9 *367:15 0.00859094
10 *367:13 0.0086495
11 *367:15 *369:15 0.000728417
12 *367:15 *371:15 0.0366985
13 *367:15 *389:15 0
14 *367:15 *393:15 0.0226068
15 *367:15 *396:15 0.000133578
16 *367:15 *397:15 0.00424572
17 *367:23 *389:27 0.00012694
18 *367:27 *739:mem_rdata_i[11] 0.00365551
19 *367:27 *373:17 0.0601991
20 *367:27 *649:15 0.00291726
21 *101:19 *367:27 0.00922461
22 *284:17 *367:27 0
23 *290:13 *367:23 0.000222772
24 *301:23 *367:21 0.000161092
25 *301:27 *367:23 0.00271047
26 *302:13 *367:23 0.00465187
27 *353:11 *367:15 0.000355636
28 *356:39 *367:31 0.00396314
29 *359:15 *367:15 0.00351799
30 *360:35 *367:31 0.0189246
31 *362:31 *367:31 0.0190524
32 *363:7 *367:13 0.000696373
33 *365:15 *367:15 0.000387685
*RES
1 *739:la_data_out_o[70] *367:13 14.7606 
2 *367:13 *367:15 370.179 
3 *367:15 *367:21 17.3214 
4 *367:21 *367:23 50.6429 
5 *367:23 *367:25 4.5 
6 *367:25 *367:27 741.75 
7 *367:27 *367:29 4.5 
8 *367:29 *367:31 180.429 
9 *367:31 la_data_out[70] 18.9821 
*END

*D_NET *368 0.284826
*CONN
*P la_data_out[71] O
*I *739:la_data_out_o[71] O *D ntt_wb_bridge
*CAP
1 la_data_out[71] 0.000838976
2 *739:la_data_out_o[71] 0.000788356
3 *368:27 0.00360246
4 *368:25 0.00276348
5 *368:23 0.0102191
6 *368:21 0.0102191
7 *368:19 0.00259957
8 *368:17 0.0026739
9 *368:15 0.00897936
10 *368:13 0.00969339
11 *368:15 *389:15 0.00728959
12 *368:15 *398:15 0.000225341
13 *368:15 *726:15 0.00021505
14 *368:19 *389:15 0
15 *368:19 *398:15 0.000857582
16 *368:19 *726:15 0.0053953
17 *368:23 *379:19 0.0611202
18 *368:23 *733:11 0.0106269
19 *368:23 *733:37 0.00184118
20 *368:27 la_data_out[75] 0.00191473
21 *368:27 *369:23 0.0156319
22 *368:27 *370:23 0.000360755
23 *368:27 *371:23 1.59373e-05
24 *368:27 *376:31 0.000120158
25 *368:27 *378:33 0.000135652
26 *279:15 *368:15 0.00267639
27 *299:15 *368:19 0
28 *300:15 *368:19 0.000952575
29 *357:15 *368:15 0.000277739
30 *358:15 *368:15 0.00724053
31 *360:19 *368:15 0.0321308
32 *361:27 *368:23 0.0611117
33 *361:31 *368:27 0.000319005
34 *362:15 *368:15 0.00221109
35 *362:31 *368:27 1.62025e-05
36 *363:7 *368:13 0.000637237
37 *363:17 *368:27 0.00120721
38 *365:23 *368:27 0.0179174
*RES
1 *739:la_data_out_o[71] *368:13 18.0091 
2 *368:13 *368:15 357.652 
3 *368:15 *368:17 1.33929 
4 *368:17 *368:19 68.5089 
5 *368:19 *368:21 4.5 
6 *368:21 *368:23 753.286 
7 *368:23 *368:25 4.5 
8 *368:25 *368:27 175.911 
9 *368:27 la_data_out[71] 20.1964 
*END

*D_NET *369 0.294703
*CONN
*P la_data_out[72] O
*I *739:la_data_out_o[72] O *D ntt_wb_bridge
*CAP
1 la_data_out[72] 0.000860047
2 *739:la_data_out_o[72] 0.00052765
3 *369:23 0.00309376
4 *369:21 0.00223371
5 *369:19 0.0102194
6 *369:17 0.0102194
7 *369:15 0.00556651
8 *369:13 0.00609416
9 *369:15 *370:15 0.0425379
10 *369:15 *371:15 0.0418866
11 *369:15 *396:15 0.000129601
12 *369:15 *397:15 0.00079317
13 *369:19 *739:mem_rdata_i[11] 0.0032599
14 *369:19 *373:17 0.0604337
15 *369:19 *649:15 6.54998e-05
16 *369:23 la_data_out[75] 0.00203395
17 *369:23 *370:23 0.0139408
18 *101:19 *369:19 0.00487512
19 *277:15 *369:15 0.00407298
20 *353:11 *369:15 0.00325104
21 *359:15 *369:15 0.000180861
22 *360:31 *369:19 0.0606513
23 *363:7 *369:13 0.000578101
24 *363:17 *369:23 0.000475088
25 *365:15 *369:15 0.00036194
26 *367:15 *369:15 0.000728417
27 *368:27 *369:23 0.0156319
*RES
1 *739:la_data_out_o[72] *369:13 13.9718 
2 *369:13 *369:15 407.554 
3 *369:15 *369:17 4.5 
4 *369:17 *369:19 747.821 
5 *369:19 *369:21 4.5 
6 *369:21 *369:23 147.982 
7 *369:23 la_data_out[72] 20.5 
*END

*D_NET *370 0.286762
*CONN
*P la_data_out[73] O
*I *739:la_data_out_o[73] O *D ntt_wb_bridge
*CAP
1 la_data_out[73] 0.000881117
2 *739:la_data_out_o[73] 0.000493728
3 *370:23 0.00305052
4 *370:21 0.00216941
5 *370:19 0.012243
6 *370:17 0.012243
7 *370:15 0.00561621
8 *370:13 0.00610994
9 *370:15 *371:15 0.000358295
10 *370:15 *396:15 0.000112662
11 *370:15 *397:15 0.000853501
12 *370:19 *371:19 0.0596568
13 *370:19 *372:17 1.0033e-05
14 *370:19 *683:27 8.44271e-06
15 *370:23 la_data_out[75] 0.00229485
16 *370:23 *371:23 0.0129718
17 *277:15 *370:15 0.00367515
18 *353:11 *370:15 0.00364791
19 *363:7 *370:13 0.000518966
20 *363:17 *370:23 0.000177031
21 *365:15 *370:15 0.0431749
22 *365:19 *370:19 0.0596558
23 *368:27 *370:23 0.000360755
24 *369:15 *370:15 0.0425379
25 *369:23 *370:23 0.0139408
*RES
1 *739:la_data_out_o[73] *370:13 13.5773 
2 *370:13 *370:15 407.964 
3 *370:15 *370:17 4.5 
4 *370:17 *370:19 747.214 
5 *370:19 *370:21 4.5 
6 *370:21 *370:23 138.536 
7 *370:23 la_data_out[73] 20.8036 
*END

*D_NET *371 0.275144
*CONN
*P la_data_out[74] O
*I *739:la_data_out_o[74] O *D ntt_wb_bridge
*CAP
1 la_data_out[74] 0.000902187
2 *739:la_data_out_o[74] 0.000526123
3 *371:23 0.00434967
4 *371:21 0.00344748
5 *371:19 0.0122686
6 *371:17 0.0122686
7 *371:15 0.00557601
8 *371:13 0.00610214
9 *371:15 *393:15 0.00100487
10 *371:15 *396:15 0.00014404
11 *371:15 *397:15 0.00448389
12 *371:15 *530:15 0.00409593
13 *371:19 *372:17 0.0594144
14 *371:19 *661:27 0.000140075
15 *371:19 *683:27 1.14483e-05
16 *371:23 la_data_out[75] 0.00199822
17 *371:23 *378:33 0.00293343
18 *353:11 *371:15 0.00325104
19 *363:7 *371:13 0.00045983
20 *363:17 *371:23 0.000177934
21 *367:15 *371:15 0.0366985
22 *368:27 *371:23 1.59373e-05
23 *369:15 *371:15 0.0418866
24 *370:15 *371:15 0.000358295
25 *370:19 *371:19 0.0596568
26 *370:23 *371:23 0.0129718
*RES
1 *739:la_data_out_o[74] *371:13 14.0936 
2 *371:13 *371:15 402.214 
3 *371:15 *371:17 4.5 
4 *371:17 *371:19 747.518 
5 *371:19 *371:21 4.5 
6 *371:21 *371:23 123.339 
7 *371:23 la_data_out[74] 21.1071 
*END

*D_NET *372 0.259099
*CONN
*P la_data_out[75] O
*I *739:la_data_out_o[75] O *D ntt_wb_bridge
*CAP
1 la_data_out[75] 0.00655277
2 *739:la_data_out_o[75] 0.000327589
3 *372:17 0.019074
4 *372:15 0.0125213
5 *372:13 0.00824899
6 *372:11 0.00857658
7 la_data_out[75] *375:29 2.03842e-05
8 la_data_out[75] *376:31 0.00158992
9 la_data_out[75] *378:33 0.000185098
10 *372:13 *373:13 0.0428453
11 *372:13 *380:11 0.000626608
12 *372:13 *382:13 0.000221145
13 *372:13 *383:35 0.00014225
14 *372:17 *374:19 0.0248062
15 *372:17 *661:27 0.0158252
16 *291:13 *372:13 0.000131918
17 *353:11 *372:13 0
18 *354:31 la_data_out[75] 9.68754e-05
19 *363:7 *372:11 8.65447e-05
20 *363:7 *372:13 0.0422276
21 *363:17 la_data_out[75] 0.00515306
22 *365:19 *372:17 9.5277e-06
23 *365:23 la_data_out[75] 0.0021645
24 *368:27 la_data_out[75] 0.00191473
25 *369:23 la_data_out[75] 0.00203395
26 *370:19 *372:17 1.0033e-05
27 *370:23 la_data_out[75] 0.00229485
28 *371:19 *372:17 0.0594144
29 *371:23 la_data_out[75] 0.00199822
*RES
1 *739:la_data_out_o[75] *372:11 10.5729 
2 *372:11 *372:13 69.5913 
3 *372:13 *372:15 3.41 
4 *372:15 *372:17 744.482 
5 *372:17 la_data_out[75] 41.5967 
*END

*D_NET *373 0.269103
*CONN
*P la_data_out[76] O
*I *739:la_data_out_o[76] O *D ntt_wb_bridge
*CAP
1 la_data_out[76] 0.00251572
2 *739:la_data_out_o[76] 0.000398955
3 *373:17 0.0128798
4 *373:15 0.0103641
5 *373:13 0.0079908
6 *373:11 0.00838975
7 la_data_out[76] la_data_out[77] 0.00760749
8 *373:13 *382:13 0.00544974
9 *373:13 *392:17 0.0267817
10 *373:17 *739:mem_rdata_i[11] 0.0032599
11 *373:17 *649:15 0.000156627
12 *101:19 *373:17 0.00852214
13 *353:11 *373:13 0.00117615
14 *354:31 la_data_out[76] 0.000921529
15 *360:31 *373:17 5.06562e-05
16 *363:7 *373:11 6.42375e-05
17 *364:25 la_data_out[76] 0.0090954
18 *367:27 *373:17 0.0601991
19 *369:19 *373:17 0.0604337
20 *372:13 *373:13 0.0428453
*RES
1 *739:la_data_out_o[76] *373:11 11.0892 
2 *373:11 *373:13 67.2852 
3 *373:13 *373:15 3.41 
4 *373:15 *373:17 748.732 
5 *373:17 la_data_out[76] 33.9902 
*END

*D_NET *374 0.257959
*CONN
*P la_data_out[77] O
*I *739:la_data_out_o[77] O *D ntt_wb_bridge
*CAP
1 la_data_out[77] 0.00244756
2 *739:la_data_out_o[77] 0.000934387
3 *374:19 0.0145505
4 *374:17 0.0121029
5 *374:15 0.00923184
6 *374:13 0.0101662
7 *374:15 *376:15 0.0409285
8 *374:15 *385:15 0.0348017
9 *374:15 *725:23 0
10 *374:15 *737:23 0.00867649
11 *374:19 *382:17 5.8984e-05
12 *374:19 *383:37 0.0605849
13 *374:19 *661:27 0.0166542
14 la_data_out[76] la_data_out[77] 0.00760749
15 *276:15 *374:15 0.00418422
16 *352:7 *374:15 0.00148349
17 *354:31 la_data_out[77] 0.00845685
18 *361:27 *374:19 0
19 *363:7 *374:13 0.000282423
20 *372:17 *374:19 0.0248062
*RES
1 *739:la_data_out_o[77] *374:13 19.8649 
2 *374:13 *374:15 67.5735 
3 *374:15 *374:17 3.41 
4 *374:17 *374:19 758.446 
5 *374:19 la_data_out[77] 33.156 
*END

*D_NET *375 0.280893
*CONN
*P la_data_out[78] O
*I *739:la_data_out_o[78] O *D ntt_wb_bridge
*CAP
1 la_data_out[78] 0.000604147
2 *739:la_data_out_o[78] 0.00119473
3 *375:31 0.00251813
4 *375:29 0.00296319
5 *375:19 0.0114707
6 *375:17 0.0104214
7 *375:15 0.00910718
8 *375:13 0.0103019
9 *375:15 *378:15 0.0333768
10 *375:15 *379:15 0
11 *375:15 *386:23 0.00568057
12 *375:15 *390:15 0.000122494
13 *375:15 *394:15 0.000132088
14 *375:15 *683:23 0.00779691
15 *375:15 *711:15 0.000496979
16 *375:15 *728:15 0.000115479
17 *375:19 *378:27 0.0615804
18 *375:19 *690:19 0.00267008
19 *375:19 *708:11 0.00384568
20 *375:19 *724:13 0.000716979
21 *375:29 la_data_out[81] 0.0020045
22 *375:29 la_data_out[84] 0.000195683
23 *375:29 *376:31 0.00242048
24 *375:29 *383:41 0.000121926
25 *375:31 *376:31 0.00116004
26 la_data_out[75] *375:29 2.03842e-05
27 *284:21 *375:29 0.00011307
28 *353:19 *375:15 0.00485574
29 *354:27 *375:19 0.0617601
30 *354:31 *375:29 0.000432233
31 *359:45 *375:31 0
32 *360:35 *375:31 0
33 *361:31 *375:29 0.000111763
34 *362:31 *375:29 0.000329786
35 *363:7 *375:13 0.000223288
36 *364:15 *375:15 0.0405305
37 *364:25 *375:31 0.00149735
*RES
1 *739:la_data_out_o[78] *375:13 24.6312 
2 *375:13 *375:15 68.2941 
3 *375:15 *375:17 3.41 
4 *375:17 *375:19 761.482 
5 *375:19 *375:29 18.6126 
6 *375:29 *375:31 45.7143 
7 *375:31 la_data_out[78] 16.5536 
*END

*D_NET *376 0.268275
*CONN
*P la_data_out[79] O
*I *739:la_data_out_o[79] O *D ntt_wb_bridge
*CAP
1 la_data_out[79] 0.000549122
2 *739:la_data_out_o[79] 0.00105331
3 *376:31 0.00263821
4 *376:19 0.0142265
5 *376:17 0.0121375
6 *376:15 0.00823163
7 *376:13 0.00928494
8 *376:15 *379:15 0.0400623
9 *376:15 *385:15 0.000275482
10 *376:15 *725:15 0.00487217
11 *376:15 *725:23 0.000201645
12 *376:15 *729:15 0.000268481
13 *376:19 *379:19 0.0613658
14 *376:19 *733:11 0.00894779
15 *376:19 *733:37 0.00119708
16 *376:19 *734:19 0.0533074
17 *376:31 la_data_out[81] 0
18 *376:31 la_data_out[84] 0.000248129
19 la_data_out[75] *376:31 0.00158992
20 *105:19 *376:19 0
21 *360:27 *376:15 0.00226615
22 *360:35 *376:31 0
23 *363:7 *376:13 0.000151408
24 *364:25 *376:31 0.000667155
25 *365:23 *376:31 0.000103646
26 *368:27 *376:31 0.000120158
27 *374:15 *376:15 0.0409285
28 *375:29 *376:31 0.00242048
29 *375:31 *376:31 0.00116004
*RES
1 *739:la_data_out_o[79] *376:13 20.2903 
2 *376:13 *376:15 66.2763 
3 *376:15 *376:17 3.41 
4 *376:17 *376:19 756.625 
5 *376:19 *376:31 49.2286 
6 *376:31 la_data_out[79] 15.6429 
*END

*D_NET *377 0.129427
*CONN
*P la_data_out[7] O
*I *739:la_data_out_o[7] O *D ntt_wb_bridge
*CAP
1 la_data_out[7] 0.0373407
2 *739:la_data_out_o[7] 0.0024307
3 *377:33 0.0373407
4 *377:31 0.0136426
5 *377:29 0.0137353
6 *377:23 0.00252335
7 *377:23 *388:25 0.00554871
8 *377:31 *399:25 0
9 *126:31 *377:31 0.0074438
10 *304:13 *377:23 0.000103611
11 *308:13 *377:23 0.000104252
12 *310:21 *377:23 0.000487804
13 *311:23 *377:31 0
14 *312:13 *377:23 0.00554871
15 *316:33 *377:23 0.000819412
16 *327:15 *377:23 0.00114651
17 *327:29 *377:23 1.12728e-05
18 *333:19 *377:23 0.000471748
19 *335:25 *377:29 0.000260885
20 *341:47 *377:29 0.000467019
*RES
1 *739:la_data_out_o[7] *377:23 48.6791 
2 *377:23 *377:29 13.6511 
3 *377:29 *377:31 47.611 
4 *377:31 *377:33 3.41 
5 *377:33 la_data_out[7] 744.42 
*END

*D_NET *378 0.256109
*CONN
*P la_data_out[80] O
*I *739:la_data_out_o[80] O *D ntt_wb_bridge
*CAP
1 la_data_out[80] 0.000961731
2 *739:la_data_out_o[80] 0.0012139
3 *378:33 0.00263609
4 *378:27 0.0144167
5 *378:25 0.0127423
6 *378:23 0.00207753
7 *378:21 0.00220027
8 *378:15 0.00517565
9 *378:13 0.00626681
10 *378:15 *384:21 0.00414653
11 *378:15 *711:15 0.00721106
12 *378:15 *728:15 0.00627657
13 *378:23 *384:21 0.000719723
14 *378:23 *656:15 0.00544563
15 *378:23 *668:19 0.0049304
16 *378:23 *675:27 0
17 *378:23 *678:19 1.98839e-05
18 *378:23 *711:15 0.000989521
19 *378:23 *728:15 0.000148651
20 *378:27 *650:19 0.0513019
21 *378:27 *690:19 0.00249743
22 *378:27 *708:11 0.00431078
23 *378:27 *724:13 0.000640947
24 *378:33 la_data_out[84] 0.000111763
25 la_data_out[75] *378:33 0.000185098
26 *78:25 *378:27 0
27 *105:23 *378:23 0.00044468
28 *353:19 *378:15 0.0207145
29 *353:19 *378:23 0.000120342
30 *354:27 *378:27 7.14148e-05
31 *362:31 *378:33 0
32 *363:7 *378:13 0.000105017
33 *368:27 *378:33 0.000135652
34 *371:23 *378:33 0.00293343
35 *375:15 *378:15 0.0333768
36 *375:19 *378:27 0.0615804
*RES
1 *739:la_data_out_o[80] *378:13 25.0566 
2 *378:13 *378:15 52.0071 
3 *378:15 *378:21 9.40107 
4 *378:21 *378:23 81.0357 
5 *378:23 *378:25 4.5 
6 *378:25 *378:27 761.179 
7 *378:27 *378:33 48.9643 
8 *378:33 la_data_out[80] 16.9107 
*END

*D_NET *379 0.242597
*CONN
*P la_data_out[81] O
*I *739:la_data_out_o[81] O *D ntt_wb_bridge
*CAP
1 la_data_out[81] 0.00136137
2 *739:la_data_out_o[81] 0.00095129
3 *379:19 0.0118256
4 *379:17 0.0104642
5 *379:15 0.0124555
6 *379:13 0.0134068
7 *379:15 *725:23 0.00291372
8 *379:15 *729:15 0.00751863
9 *379:15 *737:21 4.73953e-05
10 *379:19 *733:11 0.0098233
11 *379:19 *733:37 0.00125727
12 *379:19 *734:19 2.2355e-05
13 *284:21 la_data_out[81] 0.000121926
14 *354:31 la_data_out[81] 0.00200769
15 *361:27 *379:19 0.000132635
16 *363:7 *379:13 4.58811e-05
17 *364:15 *379:15 0.00368895
18 *368:23 *379:19 0.0611202
19 *375:15 *379:15 0
20 *375:29 la_data_out[81] 0.0020045
21 *376:15 *379:15 0.0400623
22 *376:19 *379:19 0.0613658
23 *376:31 la_data_out[81] 0
*RES
1 *739:la_data_out_o[81] *379:13 20.7157 
2 *379:13 *379:15 64.0422 
3 *379:15 *379:17 3.41 
4 *379:17 *379:19 758.446 
5 *379:19 la_data_out[81] 24.0647 
*END

*D_NET *380 0.177909
*CONN
*P la_data_out[82] O
*I *739:la_data_out_o[82] O *D ntt_wb_bridge
*CAP
1 la_data_out[82] 0.027578
2 *739:la_data_out_o[82] 0.000769969
3 *380:13 0.027578
4 *380:11 0.0140998
5 *380:9 0.0148697
6 la_data_out[82] *382:17 0
7 la_data_out[82] *383:37 0
8 la_data_out[82] *733:11 0.00980749
9 la_data_out[82] *733:37 0.00169135
10 *380:9 *381:13 0.000366324
11 *380:9 *382:11 0.000136023
12 *380:9 *383:15 0.000747352
13 *380:9 *384:17 3.00051e-06
14 *380:11 *383:17 0.0318055
15 *380:11 *384:17 0.000201495
16 *380:11 *385:13 0.000394577
17 *380:11 *386:21 0.000288541
18 *380:11 *387:13 0.000265152
19 *380:11 *389:13 0.00021717
20 *380:11 *390:13 0.000155027
21 *380:11 *391:13 9.88992e-05
22 *380:11 *392:11 5.21374e-05
23 *380:11 *393:13 0.000355833
24 *380:11 *394:13 0.000625002
25 *380:11 *395:13 0.000565867
26 *380:11 *396:13 0.000506731
27 *380:11 *397:13 0.000430426
28 *380:11 *398:13 0.00038846
29 *380:11 *529:13 0.000168231
30 *380:11 *530:13 0.000133565
31 *380:11 *531:17 0.000651228
32 *380:11 *731:41 7.88747e-05
33 *273:13 *380:11 0.000319033
34 *274:13 *380:11 0.000176387
35 *275:13 *380:11 0.000211053
36 *276:13 *380:11 0.000140123
37 *277:13 *380:11 4.04331e-05
38 *278:13 *380:11 0.00012133
39 *279:13 *380:11 0.00067802
40 *280:13 *380:11 0.000337481
41 *281:15 *380:11 0.000544796
42 *282:17 *380:11 0.000500613
43 *284:11 *380:11 0.000205646
44 *284:13 *380:11 0.00309259
45 *285:11 *380:11 0.000191525
46 *285:13 *380:11 0.000333105
47 *286:11 *380:11 8.72503e-05
48 *286:13 *380:11 0.00167883
49 *287:11 *380:11 0.000122702
50 *287:13 *380:11 0.000741457
51 *288:21 *380:11 0.000111134
52 *289:11 *380:11 6.57299e-05
53 *289:13 *380:11 0.000234422
54 *290:11 *380:11 4.87156e-05
55 *291:11 *380:11 5.85216e-05
56 *292:13 *380:11 0.000671903
57 *293:11 *380:11 0.00021387
58 *295:23 *380:11 0.000319128
59 *295:31 *380:11 0.000569598
60 *296:13 *380:11 0.000494496
61 *297:11 *380:11 0.000201586
62 *297:13 *380:11 0.000979974
63 *298:13 *380:11 0.000376225
64 *299:13 *380:11 0.000314081
65 *300:13 *380:11 0.000257954
66 *301:23 *380:11 0.000151917
67 *302:11 *380:11 3.12446e-05
68 *361:27 la_data_out[82] 0.0232413
69 *363:7 *380:9 0.0030952
70 *363:7 *380:11 0.00129373
71 *372:13 *380:11 0.000626608
*RES
1 *739:la_data_out_o[82] *380:9 5.2687 
2 *380:9 *380:11 57.8084 
3 *380:11 *380:13 3.41 
4 *380:13 la_data_out[82] 758.384 
*END

*D_NET *381 0.153741
*CONN
*P la_data_out[83] O
*I *739:la_data_out_o[83] O *D ntt_wb_bridge
*CAP
1 la_data_out[83] 0.0269087
2 *739:la_data_out_o[83] 0.00052321
3 *381:25 0.0269087
4 *381:23 0.0063307
5 *381:21 0.00654635
6 *381:15 0.00485241
7 *381:13 0.00515997
8 la_data_out[83] *704:19 0.0171907
9 la_data_out[83] *707:11 0
10 *381:15 *382:13 0.00556976
11 *381:23 *383:17 0.00080629
12 *381:23 *392:21 0.00626322
13 *277:13 *381:21 0
14 *278:13 *381:21 0
15 *284:13 *381:23 0.00365275
16 *288:23 *381:23 0.0124457
17 *291:13 *381:23 0.000739119
18 *293:13 *381:23 0.0035285
19 *353:23 la_data_out[83] 0.0110724
20 *362:27 la_data_out[83] 0
21 *363:7 *381:23 0.000131918
22 *365:15 *381:15 0.0147441
23 *380:9 *381:13 0.000366324
*RES
1 *739:la_data_out_o[83] *381:13 14.1437 
2 *381:13 *381:15 138.946 
3 *381:15 *381:21 12.4643 
4 *381:21 *381:23 221.089 
5 *381:23 *381:25 4.5 
6 *381:25 la_data_out[83] 759.446 
*END

*D_NET *382 0.192763
*CONN
*P la_data_out[84] O
*I *739:la_data_out_o[84] O *D ntt_wb_bridge
*CAP
1 la_data_out[84] 0.00288052
2 *739:la_data_out_o[84] 0.000444666
3 *382:17 0.0264531
4 *382:15 0.0235726
5 *382:13 0.00847813
6 *382:11 0.0089228
7 *382:13 *392:17 0.0267817
8 *382:13 *396:15 0.000160715
9 *382:13 *397:15 0.00151184
10 *382:13 *531:17 0.00302111
11 *382:17 *383:37 0.0604166
12 *382:17 *733:37 0.000470134
13 la_data_out[82] *382:17 0
14 *138:13 la_data_out[84] 0
15 *277:15 *382:13 0.0112538
16 *301:23 *382:13 0.000508049
17 *353:11 *382:13 0.00346156
18 *359:15 *382:13 0.000109687
19 *361:27 *382:17 0
20 *365:15 *382:13 0.00232432
21 *372:13 *382:13 0.000221145
22 *373:13 *382:13 0.00544974
23 *374:19 *382:17 5.8984e-05
24 *375:29 la_data_out[84] 0.000195683
25 *376:31 la_data_out[84] 0.000248129
26 *378:33 la_data_out[84] 0.000111763
27 *380:9 *382:11 0.000136023
28 *381:15 *382:13 0.00556976
*RES
1 *739:la_data_out_o[84] *382:11 12.4413 
2 *382:11 *382:13 59.2858 
3 *382:13 *382:15 3.41 
4 *382:15 *382:17 745.696 
5 *382:17 la_data_out[84] 29.1598 
*END

*D_NET *383 0.242106
*CONN
*P la_data_out[85] O
*I *739:la_data_out_o[85] O *D ntt_wb_bridge
*CAP
1 la_data_out[85] 0.000699992
2 *739:la_data_out_o[85] 0.000399675
3 *383:41 0.00136062
4 *383:39 0.000660627
5 *383:37 0.0101428
6 *383:35 0.0117322
7 *383:31 0.00203309
8 *383:17 0.00540981
9 *383:15 0.00536574
10 *383:31 *389:23 0.000290353
11 *383:31 *395:21 0.000288829
12 *383:31 *530:13 0
13 *383:37 *733:37 0.000470134
14 la_data_out[82] *383:37 0
15 *284:21 *383:41 0.00521174
16 *288:23 *383:17 0.00116846
17 *290:13 *383:31 0.000745721
18 *291:13 *383:35 0.00372353
19 *302:13 *383:31 0.000749067
20 *302:21 *383:41 0.00521603
21 *363:7 *383:17 0.0318125
22 *365:15 *383:35 0
23 *372:13 *383:35 0.00014225
24 *374:19 *383:37 0.0605849
25 *375:29 *383:41 0.000121926
26 *380:9 *383:15 0.000747352
27 *380:11 *383:17 0.0318055
28 *381:23 *383:17 0.00080629
29 *382:17 *383:37 0.0604166
*RES
1 *739:la_data_out_o[85] *383:15 10.2942 
2 *383:15 *383:17 49.773 
3 *383:17 *383:31 30.4904 
4 *383:31 *383:35 40.7679 
5 *383:35 *383:37 746.607 
6 *383:37 *383:39 4.5 
7 *383:39 *383:41 49.4107 
8 *383:41 la_data_out[85] 18.6786 
*END

*D_NET *384 0.173398
*CONN
*P la_data_out[86] O
*I *739:la_data_out_o[86] O *D ntt_wb_bridge
*CAP
1 la_data_out[86] 0.0385968
2 *739:la_data_out_o[86] 0.00329159
3 *384:23 0.0385968
4 *384:21 0.00484942
5 *384:19 0.00484942
6 *384:17 0.00329159
7 la_data_out[86] *530:19 0
8 la_data_out[86] *703:11 0.00379686
9 *384:17 *386:21 0.00377213
10 *384:17 *668:11 0.001422
11 *384:17 *676:19 0.00441234
12 *384:21 *386:23 0.0339702
13 *384:21 *683:23 2.44318e-05
14 *384:21 *728:15 0.0250484
15 *77:49 la_data_out[86] 0
16 *105:23 *384:21 0.00240485
17 *378:15 *384:21 0.00414653
18 *378:23 *384:21 0.000719723
19 *380:9 *384:17 3.00051e-06
20 *380:11 *384:17 0.000201495
*RES
1 *739:la_data_out_o[86] *384:17 49.7262 
2 *384:17 *384:19 4.5 
3 *384:19 *384:21 320.893 
4 *384:21 *384:23 4.5 
5 *384:23 la_data_out[86] 776.75 
*END

*D_NET *385 0.201954
*CONN
*P la_data_out[87] O
*I *739:la_data_out_o[87] O *D ntt_wb_bridge
*CAP
1 la_data_out[87] 0.0283794
2 *739:la_data_out_o[87] 0.000963612
3 *385:17 0.0283794
4 *385:15 0.0111172
5 *385:13 0.0120808
6 la_data_out[87] *651:11 0.0245169
7 *385:15 *387:15 0.0423442
8 *77:57 la_data_out[87] 0.00428865
9 *78:55 la_data_out[87] 0.00135576
10 *274:15 *385:15 0.00592445
11 *275:15 *385:15 0.00549415
12 *276:15 *385:15 0.00128691
13 *352:7 *385:15 0.000351106
14 *374:15 *385:15 0.0348017
15 *376:15 *385:15 0.000275482
16 *380:11 *385:13 0.000394577
*RES
1 *739:la_data_out_o[87] *385:13 20.4313 
2 *385:13 *385:15 69.9517 
3 *385:15 *385:17 3.41 
4 *385:17 la_data_out[87] 770.527 
*END

*D_NET *386 0.176767
*CONN
*P la_data_out[88] O
*I *739:la_data_out_o[88] O *D ntt_wb_bridge
*CAP
1 la_data_out[88] 0.0385403
2 *739:la_data_out_o[88] 0.00260257
3 *386:25 0.0385403
4 *386:23 0.00524986
5 *386:21 0.00785243
6 la_data_out[88] *670:15 0
7 *386:21 *668:11 7.17259e-05
8 *386:21 *668:17 0.000111517
9 *386:21 *676:19 9.77021e-06
10 *386:21 *713:15 0.00642462
11 *386:23 *390:15 0.00579336
12 *386:23 *683:23 0.0267662
13 *105:23 *386:23 0.000968368
14 *352:13 *386:21 6.12512e-05
15 *353:17 *386:21 6.28248e-05
16 *375:15 *386:23 0.00568057
17 *380:11 *386:21 0.000288541
18 *384:17 *386:21 0.00377213
19 *384:21 *386:23 0.0339702
*RES
1 *739:la_data_out_o[88] *386:21 49.376 
2 *386:21 *386:23 352.107 
3 *386:23 *386:25 4.5 
4 *386:25 la_data_out[88] 776.446 
*END

*D_NET *387 0.199281
*CONN
*P la_data_out[89] O
*I *739:la_data_out_o[89] O *D ntt_wb_bridge
*CAP
1 la_data_out[89] 0.0381711
2 *739:la_data_out_o[89] 0.000958474
3 *387:17 0.0381711
4 *387:15 0.00984998
5 *387:13 0.0108085
6 *387:15 *391:15 0.0446364
7 *273:15 *387:15 0.00664416
8 *274:15 *387:15 0.000473445
9 *275:15 *387:15 0.000313184
10 *276:15 *387:15 0.000366889
11 *280:15 *387:15 0.00551296
12 *297:17 la_data_out[89] 0
13 *352:7 *387:15 0.000765375
14 *380:11 *387:13 0.000265152
15 *385:15 *387:15 0.0423442
*RES
1 *739:la_data_out_o[89] *387:13 19.6425 
2 *387:13 *387:15 73.3388 
3 *387:15 *387:17 3.41 
4 *387:17 la_data_out[89] 769.92 
*END

*D_NET *388 0.145827
*CONN
*P la_data_out[8] O
*I *739:la_data_out_o[8] O *D ntt_wb_bridge
*CAP
1 la_data_out[8] 0.0378658
2 *739:la_data_out_o[8] 0.00247983
3 *388:29 0.048201
4 *388:25 0.012815
5 *272:23 *388:25 2.11419e-05
6 *304:13 *388:25 0.000116425
7 *305:13 *388:25 0.000101187
8 *307:13 *388:25 0.000108972
9 *308:13 *388:25 0.000117507
10 *310:21 *388:25 0.000576062
11 *311:23 *388:25 6.60787e-05
12 *312:13 *388:25 0.000775252
13 *322:23 *388:29 0.0278671
14 *323:21 *388:25 0.000193916
15 *324:15 *388:25 0.00143565
16 *325:15 *388:25 0.00144119
17 *327:15 *388:25 0.000133557
18 *333:31 *388:29 0
19 *335:25 *388:25 0.000212652
20 *337:15 *388:25 0.00151797
21 *344:17 *388:25 0.00423197
22 *377:23 *388:25 0.00554871
*RES
1 *739:la_data_out_o[8] *388:25 41.2086 
2 *388:25 *388:29 47.9942 
3 *388:29 la_data_out[8] 754.741 
*END

*D_NET *389 0.155599
*CONN
*P la_data_out[90] O
*I *739:la_data_out_o[90] O *D ntt_wb_bridge
*CAP
1 la_data_out[90] 0.027932
2 *739:la_data_out_o[90] 0.000657246
3 *389:31 0.027932
4 *389:29 0.00428838
5 *389:27 0.00611267
6 *389:23 0.00250344
7 *389:15 0.00770516
8 *389:13 0.00768325
9 la_data_out[90] *692:11 0.0270525
10 *389:15 *393:15 0
11 *389:15 *395:15 0.00168326
12 *389:23 *395:21 0.000177396
13 *389:27 *393:23 0
14 *389:27 *395:23 0
15 *389:29 *393:23 0.0131904
16 *278:15 *389:15 0.00765807
17 *279:15 *389:15 0.000112662
18 *282:17 *389:15 0.0020105
19 *288:21 *389:15 0.000867006
20 *299:15 *389:15 0.00367795
21 *301:27 *389:27 0.00382066
22 *301:27 *389:29 0
23 *356:19 *389:15 0.00261028
24 *367:15 *389:15 0
25 *367:23 *389:27 0.00012694
26 *368:15 *389:15 0.00728959
27 *368:19 *389:15 0
28 *380:11 *389:13 0.00021717
29 *383:31 *389:23 0.000290353
*RES
1 *739:la_data_out_o[90] *389:13 17.1505 
2 *389:13 *389:15 262.571 
3 *389:15 *389:23 20.1786 
4 *389:23 *389:27 41.4018 
5 *389:27 *389:29 125.598 
6 *389:29 *389:31 4.5 
7 *389:31 la_data_out[90] 753.982 
*END

*D_NET *390 0.181954
*CONN
*P la_data_out[91] O
*I *739:la_data_out_o[91] O *D ntt_wb_bridge
*CAP
1 la_data_out[91] 0.0384565
2 *739:la_data_out_o[91] 0.00125824
3 *390:17 0.0384565
4 *390:15 0.0072639
5 *390:13 0.00852213
6 *390:15 *394:15 0.0428668
7 *390:15 *683:23 0.0307921
8 *390:15 *701:15 0.0017835
9 *105:23 *390:15 0
10 *276:19 la_data_out[91] 0
11 *364:15 *390:15 0.00648339
12 *375:15 *390:15 0.000122494
13 *380:11 *390:13 0.000155027
14 *386:23 *390:15 0.00579336
*RES
1 *739:la_data_out_o[91] *390:13 26.4704 
2 *390:13 *390:15 437.536 
3 *390:15 *390:17 4.5 
4 *390:17 la_data_out[91] 775.839 
*END

*D_NET *391 0.205944
*CONN
*P la_data_out[92] O
*I *739:la_data_out_o[92] O *D ntt_wb_bridge
*CAP
1 la_data_out[92] 0.0380943
2 *739:la_data_out_o[92] 0.000828161
3 *391:17 0.0380943
4 *391:15 0.0106693
5 *391:13 0.0114975
6 *391:15 *398:15 0.044369
7 *391:15 *726:15 0.00109481
8 *273:15 *391:15 0.000755107
9 *274:15 *391:15 0.000491982
10 *275:15 *391:15 0.000497853
11 *276:15 *391:15 0.000135163
12 *280:15 *391:15 0.000600162
13 *296:15 *391:15 0.00469297
14 *300:15 *391:15 0.00654943
15 *352:7 *391:15 0.00215106
16 *358:15 *391:15 0.000687845
17 *380:11 *391:13 9.88992e-05
18 *387:15 *391:15 0.0446364
*RES
1 *739:la_data_out_o[92] *391:13 18.7627 
2 *391:13 *391:15 78.4555 
3 *391:15 *391:17 3.41 
4 *391:17 la_data_out[92] 769.312 
*END

*D_NET *392 0.185644
*CONN
*P la_data_out[93] O
*I *739:la_data_out_o[93] O *D ntt_wb_bridge
*CAP
1 la_data_out[93] 0.0369793
2 *739:la_data_out_o[93] 0.00029993
3 *392:23 0.0369793
4 *392:21 0.00387867
5 *392:19 0.00387867
6 *392:17 0.00409865
7 *392:11 0.00439858
8 la_data_out[93] *529:19 0
9 *77:87 la_data_out[93] 0.000738188
10 *78:71 la_data_out[93] 0.00200054
11 *288:23 *392:21 0.00928914
12 *293:13 *392:21 0.0230926
13 *363:7 *392:21 0.000131918
14 *373:13 *392:17 0.0267817
15 *380:11 *392:11 5.21374e-05
16 *381:23 *392:21 0.00626322
17 *382:13 *392:17 0.0267817
*RES
1 *739:la_data_out_o[93] *392:11 11.3485 
2 *392:11 *392:17 47.0503 
3 *392:17 *392:19 4.5 
4 *392:19 *392:21 219.446 
5 *392:21 *392:23 4.5 
6 *392:23 la_data_out[93] 759.75 
*END

*D_NET *393 0.179733
*CONN
*P la_data_out[94] O
*I *739:la_data_out_o[94] O *D ntt_wb_bridge
*CAP
1 la_data_out[94] 0.0384023
2 *739:la_data_out_o[94] 0.000592038
3 *393:25 0.0384023
4 *393:23 0.00561378
5 *393:21 0.00598228
6 *393:15 0.00437512
7 *393:13 0.00459866
8 *393:15 *395:15 0.0122049
9 *393:15 *396:15 0.00456875
10 *393:15 *529:15 0.00135884
11 *393:15 *530:15 0.000614023
12 *393:21 *395:21 0.000812885
13 *393:21 *731:41 0.000186878
14 *393:23 *395:23 0.0237939
15 *295:23 *393:21 0.000578492
16 *298:21 *393:21 2.05656e-05
17 *301:27 *393:23 0
18 *359:15 *393:15 0.000469189
19 *367:15 *393:15 0.0226068
20 *371:15 *393:15 0.00100487
21 *380:11 *393:13 0.000355833
22 *389:15 *393:15 0
23 *389:27 *393:23 0
24 *389:29 *393:23 0.0131904
*RES
1 *739:la_data_out_o[94] *393:13 15.5422 
2 *393:13 *393:15 235.875 
3 *393:15 *393:21 20.0536 
4 *393:21 *393:23 227.25 
5 *393:23 *393:25 4.5 
6 *393:25 la_data_out[94] 753.679 
*END

*D_NET *394 0.178822
*CONN
*P la_data_out[95] O
*I *739:la_data_out_o[95] O *D ntt_wb_bridge
*CAP
1 la_data_out[95] 0.0384145
2 *739:la_data_out_o[95] 0.00137252
3 *394:17 0.0384145
4 *394:15 0.0115659
5 *394:13 0.0129384
6 *394:15 *701:15 0.0262747
7 *105:23 *394:15 0
8 *115:91 la_data_out[95] 0
9 *361:23 *394:15 0.000912014
10 *364:15 *394:15 0.00530568
11 *375:15 *394:15 0.000132088
12 *380:11 *394:13 0.000625002
13 *390:15 *394:15 0.0428668
*RES
1 *739:la_data_out_o[95] *394:13 26.8843 
2 *394:13 *394:15 469.982 
3 *394:15 *394:17 4.5 
4 *394:17 la_data_out[95] 775.536 
*END

*D_NET *395 0.17966
*CONN
*P la_data_out[96] O
*I *739:la_data_out_o[96] O *D ntt_wb_bridge
*CAP
1 la_data_out[96] 0.037191
2 *739:la_data_out_o[96] 0.000679701
3 *395:25 0.037191
4 *395:23 0.00467268
5 *395:21 0.00516692
6 *395:15 0.00454093
7 *395:13 0.00472639
8 *395:15 *396:15 0.00300721
9 *395:15 *529:15 0.00131798
10 *395:21 *731:41 1.08936e-05
11 *115:101 la_data_out[96] 0
12 *274:19 la_data_out[96] 0
13 *278:15 *395:15 0.0054805
14 *292:15 *395:15 0.00768937
15 *295:23 *395:15 0.00136643
16 *295:23 *395:21 1.26641e-05
17 *298:23 *395:23 0.0270497
18 *301:27 *395:23 0
19 *353:17 *395:13 2.94126e-05
20 *380:11 *395:13 0.000565867
21 *383:31 *395:21 0.000288829
22 *389:15 *395:15 0.00168326
23 *389:23 *395:21 0.000177396
24 *389:27 *395:23 0
25 *393:15 *395:15 0.0122049
26 *393:21 *395:21 0.000812885
27 *393:23 *395:23 0.0237939
*RES
1 *739:la_data_out_o[96] *395:13 16.472 
2 *395:13 *395:15 220.268 
3 *395:15 *395:21 20.9643 
4 *395:21 *395:23 259.286 
5 *395:23 *395:25 4.5 
6 *395:25 la_data_out[96] 753.375 
*END

*D_NET *396 0.207164
*CONN
*P la_data_out[97] O
*I *739:la_data_out_o[97] O *D ntt_wb_bridge
*CAP
1 la_data_out[97] 0.0360666
2 *739:la_data_out_o[97] 0.000620541
3 *396:17 0.0360666
4 *396:15 0.0137351
5 *396:13 0.0143557
6 *396:15 *397:15 0.0539676
7 *396:15 *529:15 0.00663547
8 *78:73 la_data_out[97] 0.00212517
9 *115:107 la_data_out[97] 0.00293421
10 *278:15 *396:15 0.0029115
11 *279:15 *396:15 0.00518784
12 *282:17 *396:15 0.00105336
13 *288:21 *396:15 0.00163261
14 *292:15 *396:15 0.000146255
15 *295:23 *396:15 0.00704039
16 *299:15 *396:15 0.00223362
17 *359:15 *396:15 0.0116881
18 *367:15 *396:15 0.000133578
19 *369:15 *396:15 0.000129601
20 *370:15 *396:15 0.000112662
21 *371:15 *396:15 0.00014404
22 *380:11 *396:13 0.000506731
23 *382:13 *396:15 0.000160715
24 *393:15 *396:15 0.00456875
25 *395:15 *396:15 0.00300721
*RES
1 *739:la_data_out_o[97] *396:13 14.5322 
2 *396:13 *396:15 85.8784 
3 *396:15 *396:17 3.41 
4 *396:17 la_data_out[97] 764.455 
*END

*D_NET *397 0.218207
*CONN
*P la_data_out[98] O
*I *739:la_data_out_o[98] O *D ntt_wb_bridge
*CAP
1 la_data_out[98] 0.0377886
2 *739:la_data_out_o[98] 0.000637101
3 *397:17 0.0377886
4 *397:15 0.0105685
5 *397:13 0.0112056
6 *397:15 *530:15 0.00221529
7 *78:83 la_data_out[98] 0
8 *277:15 *397:15 0.0515727
9 *278:15 *397:15 0.000144485
10 *279:15 *397:15 0
11 *367:15 *397:15 0.00424572
12 *369:15 *397:15 0.00079317
13 *370:15 *397:15 0.000853501
14 *371:15 *397:15 0.00448389
15 *380:11 *397:13 0.000430426
16 *382:13 *397:15 0.00151184
17 *396:15 *397:15 0.0539676
*RES
1 *739:la_data_out_o[98] *397:13 13.8342 
2 *397:13 *397:15 87.5359 
3 *397:15 *397:17 3.41 
4 *397:17 la_data_out[98] 763.848 
*END

*D_NET *398 0.203629
*CONN
*P la_data_out[99] O
*I *739:la_data_out_o[99] O *D ntt_wb_bridge
*CAP
1 la_data_out[99] 0.0380402
2 *739:la_data_out_o[99] 0.000893217
3 *398:17 0.0380402
4 *398:15 0.013373
5 *398:13 0.0142663
6 *398:15 *726:15 0.00491652
7 *273:15 *398:15 0.000731248
8 *274:15 *398:15 0.000153807
9 *275:15 *398:15 0.000712333
10 *279:15 *398:15 0.01812
11 *280:15 *398:15 0.000953173
12 *281:15 *398:15 0.0190547
13 *296:15 *398:15 0.00123
14 *300:15 *398:15 0.00221886
15 *356:19 *398:15 0.000335614
16 *357:15 *398:15 0.000650206
17 *358:15 *398:15 0.00137084
18 *360:19 *398:15 0.000260852
19 *361:15 *398:15 0.00118733
20 *362:15 *398:15 0.00128032
21 *368:15 *398:15 0.000225341
22 *368:19 *398:15 0.000857582
23 *380:11 *398:13 0.00038846
24 *391:15 *398:15 0.044369
*RES
1 *739:la_data_out_o[99] *398:13 18.6005 
2 *398:13 *398:15 89.2655 
3 *398:15 *398:17 3.41 
4 *398:17 la_data_out[99] 768.705 
*END

*D_NET *399 0.128748
*CONN
*P la_data_out[9] O
*I *739:la_data_out_o[9] O *D ntt_wb_bridge
*CAP
1 la_data_out[9] 0.0371651
2 *739:la_data_out_o[9] 0.0046119
3 *399:25 0.0511231
4 *399:21 0.0185699
5 *283:23 *399:21 0.000110498
6 *283:23 *399:25 1.04953e-06
7 *304:13 *399:21 0.000129238
8 *305:13 *399:21 0.00011348
9 *307:13 *399:21 0.000121265
10 *308:13 *399:21 0.000130762
11 *310:21 *399:21 0.000632586
12 *326:15 *399:21 0.00129742
13 *326:19 *399:21 0.000114258
14 *329:13 *399:21 0.00021801
15 *331:35 *399:21 0.000114258
16 *332:25 *399:21 0.000105594
17 *334:37 *399:21 0.000105594
18 *338:17 *399:21 3.58773e-05
19 *338:37 *399:21 0.000123605
20 *339:21 *399:21 0.000405609
21 *340:21 *399:21 0.00215253
22 *340:29 *399:21 0.00262199
23 *341:19 *399:21 0.00140212
24 *343:25 *399:21 4.6025e-06
25 *344:17 *399:21 5.03754e-05
26 *355:23 *399:25 0
27 *366:21 *399:21 0.00728742
28 *377:31 *399:25 0
*RES
1 *739:la_data_out_o[9] *399:21 42.6701 
2 *399:21 *399:25 43.3459 
3 *399:25 la_data_out[9] 740.777 
*END

*D_NET *529 0.200456
*CONN
*P user_irq[0] O
*I *739:user_irq_o[0] O *D ntt_wb_bridge
*CAP
1 user_irq[0] 0.00225411
2 *739:user_irq_o[0] 0.000708583
3 *529:25 0.00225411
4 *529:23 0.0213714
5 *529:21 0.0213714
6 *529:19 0.0351207
7 *529:17 0.0351207
8 *529:15 0.00714392
9 *529:13 0.0078525
10 *529:15 *530:15 0.00545722
11 io_oeb[0] user_irq[0] 0.000132256
12 la_data_out[93] *529:19 0
13 *128:33 user_irq[0] 0.00105662
14 *278:15 *529:15 0.00702582
15 *292:15 *529:15 0.00229509
16 *292:23 *529:23 0.0418113
17 *380:11 *529:13 0.000168231
18 *393:15 *529:15 0.00135884
19 *395:15 *529:15 0.00131798
20 *396:15 *529:15 0.00663547
*RES
1 *739:user_irq_o[0] *529:13 15.5575 
2 *529:13 *529:15 226.839 
3 *529:15 *529:17 4.5 
4 *529:17 *529:19 713.821 
5 *529:19 *529:21 4.5 
6 *529:21 *529:23 551.714 
7 *529:23 *529:25 4.5 
8 *529:25 user_irq[0] 51.2143 
*END

*D_NET *530 0.167445
*CONN
*P user_irq[1] O
*I *739:user_irq_o[1] O *D ntt_wb_bridge
*CAP
1 user_irq[1] 0.00276675
2 *739:user_irq_o[1] 0.000629377
3 *530:25 0.00276675
4 *530:23 0.0357685
5 *530:21 0.0357685
6 *530:19 0.0348773
7 *530:17 0.0348773
8 *530:15 0.00342252
9 *530:13 0.0040519
10 la_data_out[86] *530:19 0
11 *115:69 *530:19 0
12 *371:15 *530:15 0.00409593
13 *380:11 *530:13 0.000133565
14 *383:31 *530:13 0
15 *393:15 *530:15 0.000614023
16 *397:15 *530:15 0.00221529
17 *529:15 *530:15 0.00545722
*RES
1 *739:user_irq_o[1] *530:13 14.8971 
2 *530:13 *530:15 102.804 
3 *530:15 *530:17 4.5 
4 *530:17 *530:19 707.446 
5 *530:19 *530:21 4.5 
6 *530:21 *530:23 674.107 
7 *530:23 *530:25 4.5 
8 *530:25 user_irq[1] 56.9821 
*END

*D_NET *531 0.215608
*CONN
*P user_irq[2] O
*I *739:user_irq_o[2] O *D ntt_wb_bridge
*CAP
1 user_irq[2] 0.0353896
2 *739:user_irq_o[2] 0.00214709
3 *531:25 0.0353896
4 *531:23 0.0324256
5 *531:21 0.0335976
6 *531:17 0.00331913
7 *531:17 *693:11 0.000166179
8 *531:23 *646:43 0.0623587
9 *277:15 *531:17 0.00373286
10 *285:13 *531:17 0.000135843
11 *286:13 *531:17 0.000119626
12 *287:13 *531:17 0.000127432
13 *289:13 *531:17 0.000137412
14 *292:19 *531:21 0.00278985
15 *295:31 *531:17 9.89966e-05
16 *354:27 *531:21 0
17 *380:11 *531:17 0.000651228
18 *382:13 *531:17 0.00302111
*RES
1 *739:user_irq_o[2] *531:17 22.5379 
2 *531:17 *531:21 38.1421 
3 *531:21 *531:23 128.83 
4 *531:23 *531:25 3.41 
5 *531:25 user_irq[2] 728.027 
*END

*D_NET *540 0.79802
*CONN
*P wb_clk_i I
*I *739:wb_clk_i I *D ntt_wb_bridge
*I *740:clk I *D ntt_engine_256
*CAP
1 wb_clk_i 0.00397514
2 *739:wb_clk_i 3.73296e-05
3 *740:clk 0.000390859
4 *540:31 0.0420016
5 *540:17 0.0570433
6 *540:15 0.0566525
7 *540:13 0.0947108
8 *540:11 0.0947108
9 *540:9 0.0605191
10 *540:7 0.0185548
11 *540:5 0.00397514
12 *540:9 *541:9 0
13 *540:13 wbs_dat_o[14] 0
14 *540:13 *740:mem_wdata[24] 0
15 *540:17 *658:39 0.00186864
16 *540:17 *663:11 0.00560257
17 *540:17 *675:13 0.00121619
18 *540:17 *679:11 0.0495858
19 *540:17 *685:21 0.00622238
20 *540:17 *704:45 0.000897538
21 *540:17 *714:39 0.0111624
22 *540:17 *733:53 0.000716158
23 *540:17 *734:41 5.15883e-05
24 *540:17 *734:43 0.058158
25 *540:31 *541:9 0
26 io_out[37] *540:9 0
27 *119:57 *540:13 0.229967
*RES
1 wb_clk_i *540:5 81.4196 
2 *540:5 *540:7 3.41 
3 *540:7 *540:9 49.6289 
4 *540:9 *540:11 3.41 
5 *540:11 *540:13 2868.27 
6 *540:13 *540:15 3.41 
7 *540:15 *540:17 250.983 
8 *540:17 *740:clk 10.8386 
9 *540:9 *540:31 116.11 
10 *540:31 *739:wb_clk_i 0.0767667 
*END

*D_NET *541 0.125915
*CONN
*P wb_rst_i I
*I *739:wb_rst_i I *D ntt_wb_bridge
*CAP
1 wb_rst_i 0.00441573
2 *739:wb_rst_i 3.53124e-05
3 *541:9 0.0584127
4 *541:7 0.0583774
5 *541:5 0.00441573
6 *541:9 *575:17 0
7 io_out[37] *541:9 0.000176017
8 *124:33 *541:9 8.2011e-05
9 *540:9 *541:9 0
10 *540:31 *541:9 0
*RES
1 wb_rst_i *541:5 87.4911 
2 *541:5 *541:7 3.41 
3 *541:7 *541:9 164.827 
4 *541:9 *739:wb_rst_i 0.0767667 
*END

*D_NET *542 0.185283
*CONN
*P wbs_ack_o O
*I *739:wbs_ack_o O *D ntt_wb_bridge
*CAP
1 wbs_ack_o 0.0011605
2 *739:wbs_ack_o 3.73296e-05
3 *542:11 0.0248166
4 *542:9 0.0236561
5 *542:7 0.0576503
6 *542:5 0.0576876
7 wbs_ack_o *575:11 0.000393292
8 *542:7 *600:9 0
9 *542:7 *608:7 0
10 *542:11 *575:13 0.0035583
11 *542:11 *644:5 0
12 *123:27 *542:11 0
13 *124:27 *542:11 0
14 *125:27 *542:11 0.016323
*RES
1 *739:wbs_ack_o *542:5 0.0767667 
2 *542:5 *542:7 162.377 
3 *542:7 *542:9 3.41 
4 *542:9 *542:11 510.125 
5 *542:11 wbs_ack_o 23.0143 
*END

*D_NET *543 0.126375
*CONN
*P wbs_adr_i[0] I
*I *739:wbs_adr_i[0] I *D ntt_wb_bridge
*CAP
1 wbs_adr_i[0] 0.00670676
2 *739:wbs_adr_i[0] 3.53124e-05
3 *543:9 0.0564807
4 *543:7 0.0564454
5 *543:5 0.00670676
6 *543:9 *554:9 0
7 *543:9 *643:9 0
*RES
1 wbs_adr_i[0] *543:5 136.062 
2 *543:5 *543:7 3.41 
3 *543:7 *543:9 160.143 
4 *543:9 *739:wbs_adr_i[0] 0.0767667 
*END

*D_NET *544 0.113245
*CONN
*P wbs_adr_i[10] I
*I *739:wbs_adr_i[10] I *D ntt_wb_bridge
*CAP
1 wbs_adr_i[10] 0.00984425
2 *739:wbs_adr_i[10] 3.53124e-05
3 *544:9 0.0455717
4 *544:7 0.0455364
5 *544:5 0.00984425
6 *544:9 *545:9 0
7 *544:9 *574:9 0
8 *88:27 *544:5 0.00118273
9 *116:43 *544:9 0.00123048
*RES
1 wbs_adr_i[10] *544:5 196.777 
2 *544:5 *544:7 3.41 
3 *544:7 *544:9 128.65 
4 *544:9 *739:wbs_adr_i[10] 0.0767667 
*END

*D_NET *545 0.112078
*CONN
*P wbs_adr_i[11] I
*I *739:wbs_adr_i[11] I *D ntt_wb_bridge
*CAP
1 wbs_adr_i[11] 0.0101576
2 *739:wbs_adr_i[11] 3.53124e-05
3 *545:9 0.0431848
4 *545:7 0.0431495
5 *545:5 0.0101576
6 *545:9 *546:9 0
7 *85:25 *545:5 0.00539299
8 *544:9 *545:9 0
*RES
1 wbs_adr_i[11] *545:5 202.848 
2 *545:5 *545:7 3.41 
3 *545:7 *545:9 125.911 
4 *545:9 *739:wbs_adr_i[11] 0.0767667 
*END

*D_NET *546 0.10793
*CONN
*P wbs_adr_i[12] I
*I *739:wbs_adr_i[12] I *D ntt_wb_bridge
*CAP
1 wbs_adr_i[12] 0.0104819
2 *739:wbs_adr_i[12] 3.73296e-05
3 *546:9 0.0434832
4 *546:7 0.0434458
5 *546:5 0.0104819
6 *546:9 *547:9 0
7 *83:29 *546:5 0
8 *545:9 *546:9 0
*RES
1 wbs_adr_i[12] *546:5 208.92 
2 *546:5 *546:7 3.41 
3 *546:7 *546:9 123.101 
4 *546:9 *739:wbs_adr_i[12] 0.0767667 
*END

*D_NET *547 0.11286
*CONN
*P wbs_adr_i[13] I
*I *739:wbs_adr_i[13] I *D ntt_wb_bridge
*CAP
1 wbs_adr_i[13] 0.0107872
2 *739:wbs_adr_i[13] 3.53124e-05
3 *547:9 0.0425032
4 *547:7 0.0424679
5 *547:5 0.0107872
6 *547:9 *548:13 0
7 *84:29 *547:5 0
8 *87:25 *547:5 0
9 *129:27 *547:5 0.00627916
10 *546:9 *547:9 0
*RES
1 wbs_adr_i[13] *547:5 214.991 
2 *547:5 *547:7 3.41 
3 *547:7 *547:9 120.362 
4 *547:9 *739:wbs_adr_i[13] 0.0767667 
*END

*D_NET *548 0.113194
*CONN
*P wbs_adr_i[14] I
*I *739:wbs_adr_i[14] I *D ntt_wb_bridge
*CAP
1 wbs_adr_i[14] 0.00148733
2 *739:wbs_adr_i[14] 3.73296e-05
3 *548:13 0.0413501
4 *548:11 0.0413127
5 *548:9 0.0064226
6 *548:7 0.00790994
7 *548:13 *549:9 0
8 *118:27 *548:9 0.0146744
9 *547:9 *548:13 0
*RES
1 wbs_adr_i[14] *548:7 29.8839 
2 *548:7 *548:9 191.839 
3 *548:9 *548:11 3.41 
4 *548:11 *548:13 117.624 
5 *548:13 *739:wbs_adr_i[14] 0.0767667 
*END

*D_NET *549 0.103515
*CONN
*P wbs_adr_i[15] I
*I *739:wbs_adr_i[15] I *D ntt_wb_bridge
*CAP
1 wbs_adr_i[15] 0.0114972
2 *739:wbs_adr_i[15] 3.53124e-05
3 *549:9 0.0402601
4 *549:7 0.0402248
5 *549:5 0.0114972
6 *549:9 *550:9 0
7 *548:13 *549:9 0
*RES
1 wbs_adr_i[15] *549:5 227.134 
2 *549:5 *549:7 3.41 
3 *549:7 *549:9 114.813 
4 *549:9 *739:wbs_adr_i[15] 0.0767667 
*END

*D_NET *550 0.0999411
*CONN
*P wbs_adr_i[16] I
*I *739:wbs_adr_i[16] I *D ntt_wb_bridge
*CAP
1 wbs_adr_i[16] 0.0118024
2 *739:wbs_adr_i[16] 3.53124e-05
3 *550:9 0.0381682
4 *550:7 0.0381329
5 *550:5 0.0118024
6 *550:9 *551:9 0
7 *549:9 *550:9 0
*RES
1 wbs_adr_i[16] *550:5 233.205 
2 *550:5 *550:7 3.41 
3 *550:7 *550:9 112.003 
4 *550:9 *739:wbs_adr_i[16] 0.0767667 
*END

*D_NET *551 0.101157
*CONN
*P wbs_adr_i[17] I
*I *739:wbs_adr_i[17] I *D ntt_wb_bridge
*CAP
1 wbs_adr_i[17] 0.0121067
2 *739:wbs_adr_i[17] 3.73296e-05
3 *551:9 0.0384718
4 *551:7 0.0384344
5 *551:5 0.0121067
6 *551:9 *552:9 0
7 *550:9 *551:9 0
*RES
1 wbs_adr_i[17] *551:5 239.277 
2 *551:5 *551:7 3.41 
3 *551:7 *551:9 109.264 
4 *551:9 *739:wbs_adr_i[17] 0.0767667 
*END

*D_NET *552 0.0997592
*CONN
*P wbs_adr_i[18] I
*I *739:wbs_adr_i[18] I *D ntt_wb_bridge
*CAP
1 wbs_adr_i[18] 0.0124093
2 *739:wbs_adr_i[18] 3.53124e-05
3 *552:9 0.0374703
4 *552:7 0.037435
5 *552:5 0.0124093
6 *552:9 *553:9 0
7 *551:9 *552:9 0
*RES
1 wbs_adr_i[18] *552:5 245.348 
2 *552:5 *552:7 3.41 
3 *552:7 *552:9 106.453 
4 *552:9 *739:wbs_adr_i[18] 0.0767667 
*END

*D_NET *553 0.0962284
*CONN
*P wbs_adr_i[19] I
*I *739:wbs_adr_i[19] I *D ntt_wb_bridge
*CAP
1 wbs_adr_i[19] 0.0127147
2 *739:wbs_adr_i[19] 3.53124e-05
3 *553:9 0.0353994
4 *553:7 0.0353641
5 *553:5 0.0127147
6 *553:5 *585:13 0
7 *553:9 *555:9 0
8 *552:9 *553:9 0
*RES
1 wbs_adr_i[19] *553:5 251.42 
2 *553:5 *553:7 3.41 
3 *553:7 *553:9 103.715 
4 *553:9 *739:wbs_adr_i[19] 0.0767667 
*END

*D_NET *554 0.121466
*CONN
*P wbs_adr_i[1] I
*I *739:wbs_adr_i[1] I *D ntt_wb_bridge
*CAP
1 wbs_adr_i[1] 0.00702094
2 *739:wbs_adr_i[1] 3.53124e-05
3 *554:9 0.0537121
4 *554:7 0.0536767
5 *554:5 0.00702094
6 *554:9 *565:9 0
7 *543:9 *554:9 0
*RES
1 wbs_adr_i[1] *554:5 142.134 
2 *554:5 *554:7 3.41 
3 *554:7 *554:9 156.468 
4 *554:9 *739:wbs_adr_i[1] 0.0767667 
*END

*D_NET *555 0.0975114
*CONN
*P wbs_adr_i[20] I
*I *739:wbs_adr_i[20] I *D ntt_wb_bridge
*CAP
1 wbs_adr_i[20] 0.0129857
2 *739:wbs_adr_i[20] 3.73296e-05
3 *555:9 0.0313197
4 *555:7 0.0312824
5 *555:5 0.0129857
6 *555:9 *556:9 0
7 io_out[36] *555:9 0.00890054
8 *553:9 *555:9 0
*RES
1 wbs_adr_i[20] *555:5 256.884 
2 *555:5 *555:7 3.41 
3 *555:7 *555:9 100.904 
4 *555:9 *739:wbs_adr_i[20] 0.0767667 
*END

*D_NET *556 0.0942334
*CONN
*P wbs_adr_i[21] I
*I *739:wbs_adr_i[21] I *D ntt_wb_bridge
*CAP
1 wbs_adr_i[21] 0.0132955
2 *739:wbs_adr_i[21] 3.53124e-05
3 *556:9 0.0280023
4 *556:7 0.027967
5 *556:5 0.0132955
6 *556:9 *557:9 0
7 io_out[36] *556:9 0.0116377
8 *555:9 *556:9 0
*RES
1 wbs_adr_i[21] *556:5 262.955 
2 *556:5 *556:7 3.41 
3 *556:7 *556:9 98.0937 
4 *556:9 *739:wbs_adr_i[21] 0.0767667 
*END

*D_NET *557 0.0940959
*CONN
*P wbs_adr_i[22] I
*I *739:wbs_adr_i[22] I *D ntt_wb_bridge
*CAP
1 wbs_adr_i[22] 0.0136007
2 *739:wbs_adr_i[22] 3.73296e-05
3 *557:9 0.0334472
4 *557:7 0.0334099
5 *557:5 0.0136007
6 *556:9 *557:9 0
*RES
1 wbs_adr_i[22] *557:5 269.027 
2 *557:5 *557:7 3.41 
3 *557:7 *557:9 95.3552 
4 *557:9 *739:wbs_adr_i[22] 0.0767667 
*END

*D_NET *558 0.0907806
*CONN
*P wbs_adr_i[23] I
*I *739:wbs_adr_i[23] I *D ntt_wb_bridge
*CAP
1 wbs_adr_i[23] 0.0139279
2 *739:wbs_adr_i[23] 3.53124e-05
3 *558:9 0.0314624
4 *558:7 0.0314271
5 *558:5 0.0139279
6 *558:9 *559:9 0
*RES
1 wbs_adr_i[23] *558:5 275.705 
2 *558:5 *558:7 3.41 
3 *558:7 *558:9 92.5446 
4 *558:9 *739:wbs_adr_i[23] 0.0767667 
*END

*D_NET *559 0.0894933
*CONN
*P wbs_adr_i[24] I
*I *739:wbs_adr_i[24] I *D ntt_wb_bridge
*CAP
1 wbs_adr_i[24] 0.0142331
2 *739:wbs_adr_i[24] 3.53124e-05
3 *559:9 0.0305136
4 *559:7 0.0304783
5 *559:5 0.0142331
6 *559:9 *560:9 0
7 *558:9 *559:9 0
*RES
1 wbs_adr_i[24] *559:5 281.777 
2 *559:5 *559:7 3.41 
3 *559:7 *559:9 89.806 
4 *559:9 *739:wbs_adr_i[24] 0.0767667 
*END

*D_NET *560 0.0900178
*CONN
*P wbs_adr_i[25] I
*I *739:wbs_adr_i[25] I *D ntt_wb_bridge
*CAP
1 wbs_adr_i[25] 0.0145374
2 *739:wbs_adr_i[25] 3.73296e-05
3 *560:9 0.0304715
4 *560:7 0.0304341
5 *560:5 0.0145374
6 *560:9 *561:9 0
7 *559:9 *560:9 0
*RES
1 wbs_adr_i[25] *560:5 287.848 
2 *560:5 *560:7 3.41 
3 *560:7 *560:9 86.9954 
4 *560:9 *739:wbs_adr_i[25] 0.0767667 
*END

*D_NET *561 0.0888424
*CONN
*P wbs_adr_i[26] I
*I *739:wbs_adr_i[26] I *D ntt_wb_bridge
*CAP
1 wbs_adr_i[26] 0.0148357
2 *739:wbs_adr_i[26] 3.53124e-05
3 *561:9 0.0295855
4 *561:7 0.0295502
5 *561:5 0.0148357
6 *561:9 *562:9 0
7 *560:9 *561:9 0
*RES
1 wbs_adr_i[26] *561:5 293.92 
2 *561:5 *561:7 3.41 
3 *561:7 *561:9 84.2569 
4 *561:9 *739:wbs_adr_i[26] 0.0767667 
*END

*D_NET *562 0.0859317
*CONN
*P wbs_adr_i[27] I
*I *739:wbs_adr_i[27] I *D ntt_wb_bridge
*CAP
1 wbs_adr_i[27] 0.0151409
2 *739:wbs_adr_i[27] 3.53124e-05
3 *562:9 0.0278249
4 *562:7 0.0277896
5 *562:5 0.0151409
6 *562:9 *563:9 0
7 *561:9 *562:9 0
*RES
1 wbs_adr_i[27] *562:5 299.991 
2 *562:5 *562:7 3.41 
3 *562:7 *562:9 81.4463 
4 *562:9 *739:wbs_adr_i[27] 0.0767667 
*END

*D_NET *563 0.0845935
*CONN
*P wbs_adr_i[28] I
*I *739:wbs_adr_i[28] I *D ntt_wb_bridge
*CAP
1 wbs_adr_i[28] 0.0154461
2 *739:wbs_adr_i[28] 3.53124e-05
3 *563:9 0.0268507
4 *563:7 0.0268153
5 *563:5 0.0154461
6 *563:9 *564:9 0
7 *562:9 *563:9 0
*RES
1 wbs_adr_i[28] *563:5 306.062 
2 *563:5 *563:7 3.41 
3 *563:7 *563:9 78.7078 
4 *563:9 *739:wbs_adr_i[28] 0.0767667 
*END

*D_NET *564 0.0832125
*CONN
*P wbs_adr_i[29] I
*I *739:wbs_adr_i[29] I *D ntt_wb_bridge
*CAP
1 wbs_adr_i[29] 0.0157513
2 *739:wbs_adr_i[29] 3.53124e-05
3 *564:9 0.025855
4 *564:7 0.0258197
5 *564:5 0.0157513
6 *564:9 *566:9 0
7 *563:9 *564:9 0
*RES
1 wbs_adr_i[29] *564:5 312.134 
2 *564:5 *564:7 3.41 
3 *564:7 *564:9 75.8972 
4 *564:9 *739:wbs_adr_i[29] 0.0767667 
*END

*D_NET *565 0.119967
*CONN
*P wbs_adr_i[2] I
*I *739:wbs_adr_i[2] I *D ntt_wb_bridge
*CAP
1 wbs_adr_i[2] 0.00756485
2 *739:wbs_adr_i[2] 3.53124e-05
3 *565:9 0.0524187
4 *565:7 0.0523834
5 *565:5 0.00756485
6 *565:9 *568:9 0
7 *554:9 *565:9 0
*RES
1 wbs_adr_i[2] *565:5 148.205 
2 *565:5 *565:7 3.41 
3 *565:7 *565:9 152.792 
4 *565:9 *739:wbs_adr_i[2] 0.0767667 
*END

*D_NET *566 0.0818823
*CONN
*P wbs_adr_i[30] I
*I *739:wbs_adr_i[30] I *D ntt_wb_bridge
*CAP
1 wbs_adr_i[30] 0.0160565
2 *739:wbs_adr_i[30] 3.53124e-05
3 *566:9 0.0248847
4 *566:7 0.0248493
5 *566:5 0.0160565
6 *566:9 *567:9 0
7 *564:9 *566:9 0
*RES
1 wbs_adr_i[30] *566:5 318.205 
2 *566:5 *566:7 3.41 
3 *566:7 *566:9 73.0866 
4 *566:9 *739:wbs_adr_i[30] 0.0767667 
*END

*D_NET *567 0.080595
*CONN
*P wbs_adr_i[31] I
*I *739:wbs_adr_i[31] I *D ntt_wb_bridge
*CAP
1 wbs_adr_i[31] 0.0163617
2 *739:wbs_adr_i[31] 3.53124e-05
3 *567:9 0.0239358
4 *567:7 0.0239005
5 *567:5 0.0163617
6 *567:9 *576:9 0
7 *566:9 *567:9 0
*RES
1 wbs_adr_i[31] *567:5 324.277 
2 *567:5 *567:7 3.41 
3 *567:7 *567:9 70.348 
4 *567:9 *739:wbs_adr_i[31] 0.0767667 
*END

*D_NET *568 0.117511
*CONN
*P wbs_adr_i[3] I
*I *739:wbs_adr_i[3] I *D ntt_wb_bridge
*CAP
1 wbs_adr_i[3] 0.0076476
2 *739:wbs_adr_i[3] 3.53124e-05
3 *568:9 0.0511079
4 *568:7 0.0510726
5 *568:5 0.0076476
6 *568:9 *569:9 0
7 *565:9 *568:9 0
*RES
1 wbs_adr_i[3] *568:5 154.277 
2 *568:5 *568:7 3.41 
3 *568:7 *568:9 149.045 
4 *568:9 *739:wbs_adr_i[3] 0.0767667 
*END

*D_NET *569 0.115651
*CONN
*P wbs_adr_i[4] I
*I *739:wbs_adr_i[4] I *D ntt_wb_bridge
*CAP
1 wbs_adr_i[4] 0.00797078
2 *739:wbs_adr_i[4] 3.53124e-05
3 *569:9 0.0498547
4 *569:7 0.0498194
5 *569:5 0.00797078
6 *569:9 *570:9 0
7 *568:9 *569:9 0
*RES
1 wbs_adr_i[4] *569:5 160.348 
2 *569:5 *569:7 3.41 
3 *569:7 *569:9 145.369 
4 *569:9 *739:wbs_adr_i[4] 0.0767667 
*END

*D_NET *570 0.115061
*CONN
*P wbs_adr_i[5] I
*I *739:wbs_adr_i[5] I *D ntt_wb_bridge
*CAP
1 wbs_adr_i[5] 0.00830124
2 *739:wbs_adr_i[5] 3.53124e-05
3 *570:9 0.0488799
4 *570:7 0.0488446
5 *570:5 0.00830124
6 *570:9 *571:9 0
7 *130:19 *570:5 0.0006986
8 *569:9 *570:9 0
*RES
1 wbs_adr_i[5] *570:5 166.42 
2 *570:5 *570:7 3.41 
3 *570:7 *570:9 142.559 
4 *570:9 *739:wbs_adr_i[5] 0.0767667 
*END

*D_NET *571 0.120924
*CONN
*P wbs_adr_i[6] I
*I *739:wbs_adr_i[6] I *D ntt_wb_bridge
*CAP
1 wbs_adr_i[6] 0.00860557
2 *739:wbs_adr_i[6] 3.73296e-05
3 *571:9 0.0494954
4 *571:7 0.0494581
5 *571:5 0.00860557
6 *571:9 *572:9 0
7 *122:25 *571:5 0.00472176
8 *570:9 *571:9 0
*RES
1 wbs_adr_i[6] *571:5 172.491 
2 *571:5 *571:7 3.41 
3 *571:7 *571:9 139.82 
4 *571:9 *739:wbs_adr_i[6] 0.0767667 
*END

*D_NET *572 0.114951
*CONN
*P wbs_adr_i[7] I
*I *739:wbs_adr_i[7] I *D ntt_wb_bridge
*CAP
1 wbs_adr_i[7] 0.008912
2 *739:wbs_adr_i[7] 3.53124e-05
3 *572:9 0.0485635
4 *572:7 0.0485282
5 *572:5 0.008912
6 *572:9 *573:13 0
7 *571:9 *572:9 0
*RES
1 wbs_adr_i[7] *572:5 178.562 
2 *572:5 *572:7 3.41 
3 *572:7 *572:9 137.01 
4 *572:9 *739:wbs_adr_i[7] 0.0767667 
*END

*D_NET *573 0.117288
*CONN
*P wbs_adr_i[8] I
*I *739:wbs_adr_i[8] I *D ntt_wb_bridge
*CAP
1 wbs_adr_i[8] 0.00145334
2 *739:wbs_adr_i[8] 3.53124e-05
3 *573:13 0.0461548
4 *573:11 0.0461195
5 *573:9 0.00516864
6 *573:7 0.00662198
7 *573:13 *574:9 0
8 *121:25 *573:9 0.0117345
9 *572:9 *573:13 0
*RES
1 wbs_adr_i[8] *573:7 29.8839 
2 *573:7 *573:9 155.411 
3 *573:9 *573:11 3.41 
4 *573:11 *573:13 134.199 
5 *573:13 *739:wbs_adr_i[8] 0.0767667 
*END

*D_NET *574 0.112177
*CONN
*P wbs_adr_i[9] I
*I *739:wbs_adr_i[9] I *D ntt_wb_bridge
*CAP
1 wbs_adr_i[9] 0.00953349
2 *739:wbs_adr_i[9] 3.73296e-05
3 *574:9 0.0465548
4 *574:7 0.0465174
5 *574:5 0.00953349
6 *544:9 *574:9 0
7 *573:13 *574:9 0
*RES
1 wbs_adr_i[9] *574:5 190.705 
2 *574:5 *574:7 3.41 
3 *574:7 *574:9 131.461 
4 *574:9 *739:wbs_adr_i[9] 0.0767667 
*END

*D_NET *575 0.126997
*CONN
*P wbs_cyc_i I
*I *739:wbs_cyc_i I *D ntt_wb_bridge
*CAP
1 wbs_cyc_i 0.000868368
2 *739:wbs_cyc_i 3.73296e-05
3 *575:17 0.0574612
4 *575:15 0.0574238
5 *575:13 0.00165217
6 *575:11 0.00252054
7 *575:13 *644:5 0.00246941
8 *575:17 *644:9 0
9 wbs_ack_o *575:11 0.000393292
10 *125:27 *575:13 0.000612518
11 *541:9 *575:17 0
12 *542:11 *575:13 0.0035583
*RES
1 wbs_cyc_i *575:11 21.6145 
2 *575:11 *575:13 79.6607 
3 *575:13 *575:15 3.41 
4 *575:15 *575:17 162.233 
5 *575:17 *739:wbs_cyc_i 0.0767667 
*END

*D_NET *576 0.140953
*CONN
*P wbs_dat_i[0] I
*I *739:wbs_dat_i[0] I *D ntt_wb_bridge
*CAP
1 wbs_dat_i[0] 0.0161645
2 *739:wbs_dat_i[0] 3.53124e-05
3 *576:9 0.0543122
4 *576:7 0.0542769
5 *576:5 0.0161645
6 *576:9 *587:9 0
7 *567:9 *576:9 0
*RES
1 wbs_dat_i[0] *576:5 330.348 
2 *576:5 *576:7 3.41 
3 *576:7 *576:9 159.278 
4 *576:9 *739:wbs_dat_i[0] 0.0767667 
*END

*D_NET *577 0.129866
*CONN
*P wbs_dat_i[10] I
*I *739:wbs_dat_i[10] I *D ntt_wb_bridge
*CAP
1 wbs_dat_i[10] 0.0199696
2 *739:wbs_dat_i[10] 3.53124e-05
3 *577:9 0.0449635
4 *577:7 0.0449282
5 *577:5 0.0199696
6 *577:9 *578:17 0
7 *577:9 *607:9 0
*RES
1 wbs_dat_i[10] *577:5 391.062 
2 *577:5 *577:7 3.41 
3 *577:7 *577:9 127.785 
4 *577:9 *739:wbs_dat_i[10] 0.0767667 
*END

*D_NET *578 0.131265
*CONN
*P wbs_dat_i[11] I
*I *739:wbs_dat_i[11] I *D ntt_wb_bridge
*CAP
1 wbs_dat_i[11] 0.000658068
2 *739:wbs_dat_i[11] 3.73296e-05
3 *578:17 0.0235825
4 *578:15 0.0235452
5 *578:13 0.018707
6 *578:11 0.018707
7 *578:9 0.0207764
8 *578:7 0.0214344
9 *578:9 *585:11 0.000965049
10 *578:17 *579:9 0
11 la_data_out[0] *578:13 0
12 *116:55 *578:13 0.002852
13 *577:9 *578:17 0
*RES
1 wbs_dat_i[11] *578:7 16.8296 
2 *578:7 *578:9 57.7724 
3 *578:9 *578:11 3.41 
4 *578:11 *578:13 383.839 
5 *578:13 *578:15 3.41 
6 *578:15 *578:17 67.2492 
7 *578:17 *739:wbs_dat_i[11] 0.0767667 
*END

*D_NET *579 0.124799
*CONN
*P wbs_dat_i[12] I
*I *739:wbs_dat_i[12] I *D ntt_wb_bridge
*CAP
1 wbs_dat_i[12] 0.0200197
2 *739:wbs_dat_i[12] 3.53124e-05
3 *579:9 0.04238
4 *579:7 0.0423447
5 *579:5 0.0200197
6 *579:9 *580:9 0
7 *578:17 *579:9 0
*RES
1 wbs_dat_i[12] *579:5 403.205 
2 *579:5 *579:7 3.41 
3 *579:7 *579:9 122.236 
4 *579:9 *739:wbs_dat_i[12] 0.0767667 
*END

*D_NET *580 0.123963
*CONN
*P wbs_dat_i[13] I
*I *739:wbs_dat_i[13] I *D ntt_wb_bridge
*CAP
1 wbs_dat_i[13] 0.0203984
2 *739:wbs_dat_i[13] 3.53124e-05
3 *580:9 0.0405619
4 *580:7 0.0405266
5 *580:5 0.0203984
6 *580:9 *581:9 0
7 *80:29 *580:5 0
8 *82:25 *580:5 0
9 *84:29 *580:5 0
10 *93:23 *580:5 0.00204271
11 *579:9 *580:9 0
*RES
1 wbs_dat_i[13] *580:5 409.277 
2 *580:5 *580:7 3.41 
3 *580:7 *580:9 119.425 
4 *580:9 *739:wbs_dat_i[13] 0.0767667 
*END

*D_NET *581 0.128361
*CONN
*P wbs_dat_i[14] I
*I *739:wbs_dat_i[14] I *D ntt_wb_bridge
*CAP
1 wbs_dat_i[14] 0.0147832
2 *739:wbs_dat_i[14] 3.73296e-05
3 *581:9 0.0407633
4 *581:7 0.0407259
5 *581:5 0.0147832
6 *581:9 *582:9 0
7 *81:19 *581:5 0.0172679
8 *580:9 *581:9 0
*RES
1 wbs_dat_i[14] *581:5 415.348 
2 *581:5 *581:7 3.41 
3 *581:7 *581:9 116.615 
4 *581:9 *739:wbs_dat_i[14] 0.0767667 
*END

*D_NET *582 0.123887
*CONN
*P wbs_dat_i[15] I
*I *739:wbs_dat_i[15] I *D ntt_wb_bridge
*CAP
1 wbs_dat_i[15] 0.0210601
2 *739:wbs_dat_i[15] 3.53124e-05
3 *582:9 0.0401513
4 *582:7 0.040116
5 *582:5 0.0210601
6 *582:9 *583:9 0
7 *116:59 *582:9 0.00146469
8 *581:9 *582:9 0
*RES
1 wbs_dat_i[15] *582:5 421.42 
2 *582:5 *582:7 3.41 
3 *582:7 *582:9 113.876 
4 *582:9 *739:wbs_dat_i[15] 0.0767667 
*END

*D_NET *583 0.118083
*CONN
*P wbs_dat_i[16] I
*I *739:wbs_dat_i[16] I *D ntt_wb_bridge
*CAP
1 wbs_dat_i[16] 0.0213734
2 *739:wbs_dat_i[16] 3.53124e-05
3 *583:9 0.0376678
4 *583:7 0.0376325
5 *583:5 0.0213734
6 *583:9 *584:9 0
7 *582:9 *583:9 0
*RES
1 wbs_dat_i[16] *583:5 427.491 
2 *583:5 *583:7 3.41 
3 *583:7 *583:9 111.066 
4 *583:9 *739:wbs_dat_i[16] 0.0767667 
*END

*D_NET *584 0.161283
*CONN
*P wbs_dat_i[17] I
*I *739:wbs_dat_i[17] I *D ntt_wb_bridge
*CAP
1 wbs_dat_i[17] 0.0223241
2 *739:wbs_dat_i[17] 3.73296e-05
3 *584:9 0.0251449
4 *584:7 0.0251076
5 *584:5 0.0223241
6 *584:9 *585:17 0
7 io_out[35] *584:9 0.0663452
8 *583:9 *584:9 0
*RES
1 wbs_dat_i[17] *584:5 433.562 
2 *584:5 *584:7 3.41 
3 *584:7 *584:9 108.327 
4 *584:9 *739:wbs_dat_i[17] 0.0767667 
*END

*D_NET *585 0.118623
*CONN
*P wbs_dat_i[18] I
*I *739:wbs_dat_i[18] I *D ntt_wb_bridge
*CAP
1 wbs_dat_i[18] 0.00111305
2 *739:wbs_dat_i[18] 3.53124e-05
3 *585:17 0.0363955
4 *585:15 0.0363602
5 *585:13 0.0213206
6 *585:11 0.0224337
7 *585:13 wbs_dat_o[18] 0
8 *585:17 *586:9 0
9 io_out[35] *585:17 0
10 *553:5 *585:13 0
11 *578:9 *585:11 0.000965049
12 *584:9 *585:17 0
*RES
1 wbs_dat_i[18] *585:11 22.4072 
2 *585:11 *585:13 425.732 
3 *585:13 *585:15 3.41 
4 *585:15 *585:17 104.003 
5 *585:17 *739:wbs_dat_i[18] 0.0767667 
*END

*D_NET *586 0.114444
*CONN
*P wbs_dat_i[19] I
*I *739:wbs_dat_i[19] I *D ntt_wb_bridge
*CAP
1 wbs_dat_i[19] 0.0223155
2 *739:wbs_dat_i[19] 3.53124e-05
3 *586:9 0.0349066
4 *586:7 0.0348713
5 *586:5 0.0223155
6 *586:9 *588:9 0
7 *585:17 *586:9 0
*RES
1 wbs_dat_i[19] *586:5 445.705 
2 *586:5 *586:7 3.41 
3 *586:7 *586:9 102.778 
4 *586:9 *739:wbs_dat_i[19] 0.0767667 
*END

*D_NET *587 0.14326
*CONN
*P wbs_dat_i[1] I
*I *739:wbs_dat_i[1] I *D ntt_wb_bridge
*CAP
1 wbs_dat_i[1] 0.0170143
2 *739:wbs_dat_i[1] 3.73296e-05
3 *587:9 0.0546157
4 *587:7 0.0545783
5 *587:5 0.0170143
6 *587:9 *598:9 0
7 *576:9 *587:9 0
*RES
1 wbs_dat_i[1] *587:5 336.42 
2 *587:5 *587:7 3.41 
3 *587:7 *587:9 155.531 
4 *587:9 *739:wbs_dat_i[1] 0.0767667 
*END

*D_NET *588 0.11526
*CONN
*P wbs_dat_i[20] I
*I *739:wbs_dat_i[20] I *D ntt_wb_bridge
*CAP
1 wbs_dat_i[20] 0.0226245
2 *739:wbs_dat_i[20] 3.73296e-05
3 *588:9 0.0350054
4 *588:7 0.0349681
5 *588:5 0.0226245
6 *588:9 *589:9 0
7 *586:9 *588:9 0
*RES
1 wbs_dat_i[20] *588:5 451.777 
2 *588:5 *588:7 3.41 
3 *588:7 *588:9 99.9674 
4 *588:9 *739:wbs_dat_i[20] 0.0767667 
*END

*D_NET *589 0.113898
*CONN
*P wbs_dat_i[21] I
*I *739:wbs_dat_i[21] I *D ntt_wb_bridge
*CAP
1 wbs_dat_i[21] 0.0229353
2 *739:wbs_dat_i[21] 3.53124e-05
3 *589:9 0.0340137
4 *589:7 0.0339783
5 *589:5 0.0229353
6 *589:9 *590:9 0
7 *588:9 *589:9 0
*RES
1 wbs_dat_i[21] *589:5 457.848 
2 *589:5 *589:7 3.41 
3 *589:7 *589:9 97.2289 
4 *589:9 *739:wbs_dat_i[21] 0.0767667 
*END

*D_NET *590 0.110495
*CONN
*P wbs_dat_i[22] I
*I *739:wbs_dat_i[22] I *D ntt_wb_bridge
*CAP
1 wbs_dat_i[22] 0.0232495
2 *739:wbs_dat_i[22] 3.53124e-05
3 *590:9 0.0319981
4 *590:7 0.0319627
5 *590:5 0.0232495
6 *590:9 *591:9 0
7 *589:9 *590:9 0
*RES
1 wbs_dat_i[22] *590:5 463.92 
2 *590:5 *590:7 3.41 
3 *590:7 *590:9 94.4183 
4 *590:9 *739:wbs_dat_i[22] 0.0767667 
*END

*D_NET *591 0.109203
*CONN
*P wbs_dat_i[23] I
*I *739:wbs_dat_i[23] I *D ntt_wb_bridge
*CAP
1 wbs_dat_i[23] 0.0235628
2 *739:wbs_dat_i[23] 3.53124e-05
3 *591:9 0.0310387
4 *591:7 0.0310034
5 *591:5 0.0235628
6 *591:9 *592:9 0
7 *590:9 *591:9 0
*RES
1 wbs_dat_i[23] *591:5 469.991 
2 *591:5 *591:7 3.41 
3 *591:7 *591:9 91.6077 
4 *591:9 *739:wbs_dat_i[23] 0.0767667 
*END

*D_NET *592 0.107954
*CONN
*P wbs_dat_i[24] I
*I *739:wbs_dat_i[24] I *D ntt_wb_bridge
*CAP
1 wbs_dat_i[24] 0.0238761
2 *739:wbs_dat_i[24] 3.53124e-05
3 *592:9 0.0301008
4 *592:7 0.0300655
5 *592:5 0.0238761
6 *592:9 *593:9 0
7 *591:9 *592:9 0
*RES
1 wbs_dat_i[24] *592:5 476.062 
2 *592:5 *592:7 3.41 
3 *592:7 *592:9 88.8692 
4 *592:9 *739:wbs_dat_i[24] 0.0767667 
*END

*D_NET *593 0.106663
*CONN
*P wbs_dat_i[25] I
*I *739:wbs_dat_i[25] I *D ntt_wb_bridge
*CAP
1 wbs_dat_i[25] 0.0241903
2 *739:wbs_dat_i[25] 3.53124e-05
3 *593:9 0.0291415
4 *593:7 0.0291061
5 *593:5 0.0241903
6 *593:9 *594:9 0
7 *592:9 *593:9 0
*RES
1 wbs_dat_i[25] *593:5 482.134 
2 *593:5 *593:7 3.41 
3 *593:7 *593:9 86.0586 
4 *593:9 *739:wbs_dat_i[25] 0.0767667 
*END

*D_NET *594 0.105615
*CONN
*P wbs_dat_i[26] I
*I *739:wbs_dat_i[26] I *D ntt_wb_bridge
*CAP
1 wbs_dat_i[26] 0.0245036
2 *739:wbs_dat_i[26] 3.53124e-05
3 *594:9 0.028304
4 *594:7 0.0282687
5 *594:5 0.0245036
6 *594:9 *595:9 0
7 *593:9 *594:9 0
*RES
1 wbs_dat_i[26] *594:5 488.205 
2 *594:5 *594:7 3.41 
3 *594:7 *594:9 83.32 
4 *594:9 *739:wbs_dat_i[26] 0.0767667 
*END

*D_NET *595 0.106215
*CONN
*P wbs_dat_i[27] I
*I *739:wbs_dat_i[27] I *D ntt_wb_bridge
*CAP
1 wbs_dat_i[27] 0.0248161
2 *739:wbs_dat_i[27] 3.73296e-05
3 *595:9 0.0282915
4 *595:7 0.0282542
5 *595:5 0.0248161
6 *595:9 *596:9 0
7 *594:9 *595:9 0
*RES
1 wbs_dat_i[27] *595:5 494.277 
2 *595:5 *595:7 3.41 
3 *595:7 *595:9 80.5094 
4 *595:9 *739:wbs_dat_i[27] 0.0767667 
*END

*D_NET *596 0.10484
*CONN
*P wbs_dat_i[28] I
*I *739:wbs_dat_i[28] I *D ntt_wb_bridge
*CAP
1 wbs_dat_i[28] 0.025131
2 *739:wbs_dat_i[28] 3.53124e-05
3 *596:9 0.027289
4 *596:7 0.0272537
5 *596:5 0.025131
6 *596:9 *597:9 0
7 *116:63 *596:5 0
8 *595:9 *596:9 0
*RES
1 wbs_dat_i[28] *596:5 500.348 
2 *596:5 *596:7 3.41 
3 *596:7 *596:9 77.7709 
4 *596:9 *739:wbs_dat_i[28] 0.0767667 
*END

*D_NET *597 0.101865
*CONN
*P wbs_dat_i[29] I
*I *739:wbs_dat_i[29] I *D ntt_wb_bridge
*CAP
1 wbs_dat_i[29] 0.0254467
2 *739:wbs_dat_i[29] 3.53124e-05
3 *597:9 0.025486
4 *597:7 0.0254507
5 *597:5 0.0254467
6 *597:9 *599:9 0
7 *596:9 *597:9 0
*RES
1 wbs_dat_i[29] *597:5 506.42 
2 *597:5 *597:7 3.41 
3 *597:7 *597:9 74.9603 
4 *597:9 *739:wbs_dat_i[29] 0.0767667 
*END

*D_NET *598 0.140294
*CONN
*P wbs_dat_i[2] I
*I *739:wbs_dat_i[2] I *D ntt_wb_bridge
*CAP
1 wbs_dat_i[2] 0.0168005
2 *739:wbs_dat_i[2] 3.53124e-05
3 *598:9 0.0533462
4 *598:7 0.0533109
5 *598:5 0.0168005
6 *598:9 *601:9 0
7 *587:9 *598:9 0
*RES
1 wbs_dat_i[2] *598:5 342.491 
2 *598:5 *598:7 3.41 
3 *598:7 *598:9 151.855 
4 *598:9 *739:wbs_dat_i[2] 0.0767667 
*END

*D_NET *599 0.102135
*CONN
*P wbs_dat_i[30] I
*I *739:wbs_dat_i[30] I *D ntt_wb_bridge
*CAP
1 wbs_dat_i[30] 0.0257549
2 *739:wbs_dat_i[30] 3.73296e-05
3 *599:9 0.0253128
4 *599:7 0.0252755
5 *599:5 0.0257549
6 *599:9 *600:9 0
7 *597:9 *599:9 0
*RES
1 wbs_dat_i[30] *599:5 512.491 
2 *599:5 *599:7 3.41 
3 *599:7 *599:9 72.2218 
4 *599:9 *739:wbs_dat_i[30] 0.0767667 
*END

*D_NET *600 0.100776
*CONN
*P wbs_dat_i[31] I
*I *739:wbs_dat_i[31] I *D ntt_wb_bridge
*CAP
1 wbs_dat_i[31] 0.0260656
2 *739:wbs_dat_i[31] 3.53124e-05
3 *600:9 0.0243222
4 *600:7 0.0242869
5 *600:5 0.0260656
6 *542:7 *600:9 0
7 *599:9 *600:9 0
*RES
1 wbs_dat_i[31] *600:5 518.562 
2 *600:5 *600:7 3.41 
3 *600:7 *600:9 69.4112 
4 *600:9 *739:wbs_dat_i[31] 0.0767667 
*END

*D_NET *601 0.13833
*CONN
*P wbs_dat_i[3] I
*I *739:wbs_dat_i[3] I *D ntt_wb_bridge
*CAP
1 wbs_dat_i[3] 0.0171211
2 *739:wbs_dat_i[3] 3.73296e-05
3 *601:9 0.0520439
4 *601:7 0.0520066
5 *601:5 0.0171211
6 *601:9 *602:17 0
7 *598:9 *601:9 0
*RES
1 wbs_dat_i[3] *601:5 348.562 
2 *601:5 *601:7 3.41 
3 *601:7 *601:9 148.108 
4 *601:9 *739:wbs_dat_i[3] 0.0767667 
*END

*D_NET *602 0.135911
*CONN
*P wbs_dat_i[4] I
*I *739:wbs_dat_i[4] I *D ntt_wb_bridge
*CAP
1 wbs_dat_i[4] 0.00282059
2 *739:wbs_dat_i[4] 3.53124e-05
3 *602:17 0.0232433
4 *602:15 0.023208
5 *602:13 0.0148762
6 *602:11 0.0148762
7 *602:9 0.0270155
8 *602:7 0.0270155
9 *602:5 0.00282059
10 *602:17 *603:9 0
11 *601:9 *602:17 0
*RES
1 wbs_dat_i[4] *602:5 56.5268 
2 *602:5 *602:7 3.41 
3 *602:7 *602:9 78.3114 
4 *602:9 *602:11 3.41 
5 *602:11 *602:13 298.232 
6 *602:13 *602:15 3.41 
7 *602:15 *602:17 66.1682 
8 *602:17 *739:wbs_dat_i[4] 0.0767667 
*END

*D_NET *603 0.132446
*CONN
*P wbs_dat_i[5] I
*I *739:wbs_dat_i[5] I *D ntt_wb_bridge
*CAP
1 wbs_dat_i[5] 0.017776
2 *739:wbs_dat_i[5] 3.53124e-05
3 *603:9 0.0482723
4 *603:7 0.048237
5 *603:5 0.017776
6 *603:9 *604:9 0
7 *116:53 *603:9 0.000349248
8 *602:17 *603:9 0
*RES
1 wbs_dat_i[5] *603:5 360.705 
2 *603:5 *603:7 3.41 
3 *603:7 *603:9 141.622 
4 *603:9 *739:wbs_dat_i[5] 0.0767667 
*END

*D_NET *604 0.133924
*CONN
*P wbs_dat_i[6] I
*I *739:wbs_dat_i[6] I *D ntt_wb_bridge
*CAP
1 wbs_dat_i[6] 0.0180975
2 *739:wbs_dat_i[6] 3.73296e-05
3 *604:9 0.0488646
4 *604:7 0.0488273
5 *604:5 0.0180975
6 *604:9 *605:9 0
7 *603:9 *604:9 0
*RES
1 wbs_dat_i[6] *604:5 366.777 
2 *604:5 *604:7 3.41 
3 *604:7 *604:9 138.883 
4 *604:9 *739:wbs_dat_i[6] 0.0767667 
*END

*D_NET *605 0.133913
*CONN
*P wbs_dat_i[7] I
*I *739:wbs_dat_i[7] I *D ntt_wb_bridge
*CAP
1 wbs_dat_i[7] 0.018982
2 *739:wbs_dat_i[7] 3.53124e-05
3 *605:9 0.0472415
4 *605:7 0.0472062
5 *605:5 0.018982
6 io_oeb[35] *605:9 0
7 *96:24 *605:9 0.00146574
8 *604:9 *605:9 0
*RES
1 wbs_dat_i[7] *605:5 372.848 
2 *605:5 *605:7 3.41 
3 *605:7 *605:9 136.073 
4 *605:9 *739:wbs_dat_i[7] 0.0767667 
*END

*D_NET *606 0.132566
*CONN
*P wbs_dat_i[8] I
*I *739:wbs_dat_i[8] I *D ntt_wb_bridge
*CAP
1 wbs_dat_i[8] 0.0193161
2 *739:wbs_dat_i[8] 3.53124e-05
3 *606:9 0.0361979
4 *606:7 0.0361626
5 *606:5 0.0193161
6 *606:9 *607:9 0
7 io_oeb[35] *606:9 0.0215379
8 *96:24 *606:9 0
*RES
1 wbs_dat_i[8] *606:5 378.92 
2 *606:5 *606:7 3.41 
3 *606:7 *606:9 133.334 
4 *606:9 *739:wbs_dat_i[8] 0.0767667 
*END

*D_NET *607 0.131149
*CONN
*P wbs_dat_i[9] I
*I *739:wbs_dat_i[9] I *D ntt_wb_bridge
*CAP
1 wbs_dat_i[9] 0.0196428
2 *739:wbs_dat_i[9] 3.73296e-05
3 *607:9 0.0459317
4 *607:7 0.0458944
5 *607:5 0.0196428
6 *577:9 *607:9 0
7 *606:9 *607:9 0
*RES
1 wbs_dat_i[9] *607:5 384.991 
2 *607:5 *607:7 3.41 
3 *607:7 *607:9 130.524 
4 *607:9 *739:wbs_dat_i[9] 0.0767667 
*END

*D_NET *608 0.162292
*CONN
*P wbs_dat_o[0] O
*I *739:wbs_dat_o[0] O *D ntt_wb_bridge
*CAP
1 wbs_dat_o[0] 0.0259158
2 *739:wbs_dat_o[0] 3.53124e-05
3 *608:9 0.0259158
4 *608:7 0.0551949
5 *608:5 0.0552303
6 *608:7 *619:7 0
7 *542:7 *608:7 0
*RES
1 *739:wbs_dat_o[0] *608:5 0.0767667 
2 *608:5 *608:7 158.341 
3 *608:7 *608:9 3.41 
4 *608:9 wbs_dat_o[0] 530.705 
*END

*D_NET *609 0.167907
*CONN
*P wbs_dat_o[10] O
*I *739:wbs_dat_o[10] O *D ntt_wb_bridge
*CAP
1 wbs_dat_o[10] 0.0291961
2 *739:wbs_dat_o[10] 3.73296e-05
3 *609:9 0.0291961
4 *609:7 0.0442744
5 *609:5 0.0443118
6 *609:7 *610:7 0
7 *609:7 *639:7 0
8 *89:25 wbs_dat_o[10] 0.0208908
*RES
1 *739:wbs_dat_o[10] *609:5 0.0767667 
2 *609:5 *609:7 126.848 
3 *609:7 *609:9 3.41 
4 *609:9 wbs_dat_o[10] 591.42 
*END

*D_NET *610 0.145626
*CONN
*P wbs_dat_o[11] O
*I *739:wbs_dat_o[11] O *D ntt_wb_bridge
*CAP
1 wbs_dat_o[11] 0.0295287
2 *739:wbs_dat_o[11] 3.53124e-05
3 *610:9 0.0295287
4 *610:7 0.0432488
5 *610:5 0.0432841
6 *610:7 *611:7 0
7 *83:29 wbs_dat_o[11] 0
8 *609:7 *610:7 0
*RES
1 *739:wbs_dat_o[11] *610:5 0.0767667 
2 *610:5 *610:7 124.038 
3 *610:7 *610:9 3.41 
4 *610:9 wbs_dat_o[11] 597.491 
*END

*D_NET *611 0.14178
*CONN
*P wbs_dat_o[12] O
*I *739:wbs_dat_o[12] O *D ntt_wb_bridge
*CAP
1 wbs_dat_o[12] 0.02986
2 *739:wbs_dat_o[12] 3.53124e-05
3 *611:9 0.02986
4 *611:7 0.0409947
5 *611:5 0.04103
6 *611:7 *612:7 0
7 io_oeb[34] *611:7 0
8 *610:7 *611:7 0
*RES
1 *739:wbs_dat_o[12] *611:5 0.0767667 
2 *611:5 *611:7 121.299 
3 *611:7 *611:9 3.41 
4 *611:9 wbs_dat_o[12] 603.562 
*END

*D_NET *612 0.201369
*CONN
*P wbs_dat_o[13] O
*I *739:wbs_dat_o[13] O *D ntt_wb_bridge
*CAP
1 wbs_dat_o[13] 0.023031
2 *739:wbs_dat_o[13] 3.73296e-05
3 *612:9 0.023031
4 *612:7 0.0281459
5 *612:5 0.0281833
6 *612:7 *613:7 0
7 io_oeb[34] *612:7 0.0738248
8 *116:85 *612:7 0.000643196
9 *120:29 wbs_dat_o[13] 0.0242933
10 *123:21 wbs_dat_o[13] 0.000179748
11 *611:7 *612:7 0
*RES
1 *739:wbs_dat_o[13] *612:5 0.0767667 
2 *612:5 *612:7 118.489 
3 *612:7 *612:9 3.41 
4 *612:9 wbs_dat_o[13] 609.634 
*END

*D_NET *613 0.143326
*CONN
*P wbs_dat_o[14] O
*I *739:wbs_dat_o[14] O *D ntt_wb_bridge
*CAP
1 wbs_dat_o[14] 0.0315358
2 *739:wbs_dat_o[14] 3.53124e-05
3 *613:9 0.0315358
4 *613:7 0.0400917
5 *613:5 0.040127
6 *613:7 *614:7 0
7 *81:19 wbs_dat_o[14] 0
8 *82:23 wbs_dat_o[14] 0
9 *119:57 wbs_dat_o[14] 0
10 *540:13 wbs_dat_o[14] 0
11 *612:7 *613:7 0
*RES
1 *739:wbs_dat_o[14] *613:5 0.0767667 
2 *613:5 *613:7 115.75 
3 *613:7 *613:9 3.41 
4 *613:9 wbs_dat_o[14] 615.705 
*END

*D_NET *614 0.137873
*CONN
*P wbs_dat_o[15] O
*I *739:wbs_dat_o[15] O *D ntt_wb_bridge
*CAP
1 wbs_dat_o[15] 0.0309347
2 *739:wbs_dat_o[15] 3.53124e-05
3 *614:9 0.0309347
4 *614:7 0.0379666
5 *614:5 0.038002
6 *614:7 *615:7 0
7 *613:7 *614:7 0
*RES
1 *739:wbs_dat_o[15] *614:5 0.0767667 
2 *614:5 *614:7 112.939 
3 *614:7 *614:9 3.41 
4 *614:9 wbs_dat_o[15] 621.777 
*END

*D_NET *615 0.13682
*CONN
*P wbs_dat_o[16] O
*I *739:wbs_dat_o[16] O *D ntt_wb_bridge
*CAP
1 wbs_dat_o[16] 0.0312561
2 *739:wbs_dat_o[16] 3.53124e-05
3 *615:9 0.0312561
4 *615:7 0.0371187
5 *615:5 0.037154
6 *615:7 *616:7 0
7 *614:7 *615:7 0
*RES
1 *739:wbs_dat_o[16] *615:5 0.0767667 
2 *615:5 *615:7 110.129 
3 *615:7 *615:9 3.41 
4 *615:9 wbs_dat_o[16] 627.848 
*END

*D_NET *616 0.13561
*CONN
*P wbs_dat_o[17] O
*I *739:wbs_dat_o[17] O *D ntt_wb_bridge
*CAP
1 wbs_dat_o[17] 0.0315793
2 *739:wbs_dat_o[17] 3.53124e-05
3 *616:9 0.0315793
4 *616:7 0.0361906
5 *616:5 0.0362259
6 *616:7 *617:7 0
7 *615:7 *616:7 0
*RES
1 *739:wbs_dat_o[17] *616:5 0.0767667 
2 *616:5 *616:7 107.39 
3 *616:7 *616:9 3.41 
4 *616:9 wbs_dat_o[17] 633.92 
*END

*D_NET *617 0.134356
*CONN
*P wbs_dat_o[18] O
*I *739:wbs_dat_o[18] O *D ntt_wb_bridge
*CAP
1 wbs_dat_o[18] 0.0319016
2 *739:wbs_dat_o[18] 3.53124e-05
3 *617:9 0.0319016
4 *617:7 0.0352411
5 *617:5 0.0352764
6 *617:7 *618:7 0
7 *585:13 wbs_dat_o[18] 0
8 *616:7 *617:7 0
*RES
1 *739:wbs_dat_o[18] *617:5 0.0767667 
2 *617:5 *617:7 104.58 
3 *617:7 *617:9 3.41 
4 *617:9 wbs_dat_o[18] 639.991 
*END

*D_NET *618 0.133141
*CONN
*P wbs_dat_o[19] O
*I *739:wbs_dat_o[19] O *D ntt_wb_bridge
*CAP
1 wbs_dat_o[19] 0.0322222
2 *739:wbs_dat_o[19] 3.53124e-05
3 *618:9 0.0322222
4 *618:7 0.0343131
5 *618:5 0.0343484
6 *618:7 *620:7 0
7 *617:7 *618:7 0
*RES
1 *739:wbs_dat_o[19] *618:5 0.0767667 
2 *618:5 *618:7 101.841 
3 *618:7 *618:9 3.41 
4 *618:9 wbs_dat_o[19] 646.062 
*END

*D_NET *619 0.158914
*CONN
*P wbs_dat_o[1] O
*I *739:wbs_dat_o[1] O *D ntt_wb_bridge
*CAP
1 wbs_dat_o[1] 0.0262471
2 *739:wbs_dat_o[1] 3.53124e-05
3 *619:9 0.0262471
4 *619:7 0.052295
5 *619:5 0.0523303
6 *619:7 *630:7 0
7 *116:77 *619:7 0.00175902
8 *608:7 *619:7 0
*RES
1 *739:wbs_dat_o[1] *619:5 0.0767667 
2 *619:5 *619:7 154.594 
3 *619:7 *619:9 3.41 
4 *619:9 wbs_dat_o[1] 536.777 
*END

*D_NET *620 0.135893
*CONN
*P wbs_dat_o[20] O
*I *739:wbs_dat_o[20] O *D ntt_wb_bridge
*CAP
1 wbs_dat_o[20] 0.033503
2 *739:wbs_dat_o[20] 3.73296e-05
3 *620:9 0.033503
4 *620:7 0.0344061
5 *620:5 0.0344434
6 *620:7 *621:7 0
7 *116:87 wbs_dat_o[20] 0
8 *618:7 *620:7 0
*RES
1 *739:wbs_dat_o[20] *620:5 0.0767667 
2 *620:5 *620:7 99.0306 
3 *620:7 *620:9 3.41 
4 *620:9 wbs_dat_o[20] 652.134 
*END

*D_NET *621 0.134623
*CONN
*P wbs_dat_o[21] O
*I *739:wbs_dat_o[21] O *D ntt_wb_bridge
*CAP
1 wbs_dat_o[21] 0.0338362
2 *739:wbs_dat_o[21] 3.53124e-05
3 *621:9 0.0338362
4 *621:7 0.0334398
5 *621:5 0.0334751
6 *621:7 *622:7 0
7 *620:7 *621:7 0
*RES
1 *739:wbs_dat_o[21] *621:5 0.0767667 
2 *621:5 *621:7 96.292 
3 *621:7 *621:9 3.41 
4 *621:9 wbs_dat_o[21] 658.205 
*END

*D_NET *622 0.131347
*CONN
*P wbs_dat_o[22] O
*I *739:wbs_dat_o[22] O *D ntt_wb_bridge
*CAP
1 wbs_dat_o[22] 0.0341629
2 *739:wbs_dat_o[22] 3.53124e-05
3 *622:9 0.0341629
4 *622:7 0.0314752
5 *622:5 0.0315105
6 *622:7 *623:7 0
7 *116:79 wbs_dat_o[22] 0
8 *621:7 *622:7 0
*RES
1 *739:wbs_dat_o[22] *622:5 0.0767667 
2 *622:5 *622:7 93.4814 
3 *622:7 *622:9 3.41 
4 *622:9 wbs_dat_o[22] 664.277 
*END

*D_NET *623 0.132138
*CONN
*P wbs_dat_o[23] O
*I *739:wbs_dat_o[23] O *D ntt_wb_bridge
*CAP
1 wbs_dat_o[23] 0.0344896
2 *739:wbs_dat_o[23] 3.73296e-05
3 *623:9 0.0344896
4 *623:7 0.031542
5 *623:5 0.0315793
6 *623:7 *624:7 0
7 *622:7 *623:7 0
*RES
1 *739:wbs_dat_o[23] *623:5 0.0767667 
2 *623:5 *623:7 90.7429 
3 *623:7 *623:9 3.41 
4 *623:9 wbs_dat_o[23] 670.348 
*END

*D_NET *624 0.130794
*CONN
*P wbs_dat_o[24] O
*I *739:wbs_dat_o[24] O *D ntt_wb_bridge
*CAP
1 wbs_dat_o[24] 0.0347859
2 *739:wbs_dat_o[24] 3.53124e-05
3 *624:9 0.0347859
4 *624:7 0.0305759
5 *624:5 0.0306113
6 *624:7 *625:7 0
7 *623:7 *624:7 0
*RES
1 *739:wbs_dat_o[24] *624:5 0.0767667 
2 *624:5 *624:7 87.9323 
3 *624:7 *624:9 3.41 
4 *624:9 wbs_dat_o[24] 675.812 
*END

*D_NET *625 0.125753
*CONN
*P wbs_dat_o[25] O
*I *739:wbs_dat_o[25] O *D ntt_wb_bridge
*CAP
1 wbs_dat_o[25] 0.0341156
2 *739:wbs_dat_o[25] 3.53124e-05
3 *625:9 0.0341156
4 *625:7 0.0287257
5 *625:5 0.028761
6 *625:7 *626:7 0
7 *624:7 *625:7 0
*RES
1 *739:wbs_dat_o[25] *625:5 0.0767667 
2 *625:5 *625:7 85.1938 
3 *625:7 *625:9 3.41 
4 *625:9 wbs_dat_o[25] 681.884 
*END

*D_NET *626 0.126439
*CONN
*P wbs_dat_o[26] O
*I *739:wbs_dat_o[26] O *D ntt_wb_bridge
*CAP
1 wbs_dat_o[26] 0.0344327
2 *739:wbs_dat_o[26] 3.73296e-05
3 *626:9 0.0344327
4 *626:7 0.0287494
5 *626:5 0.0287867
6 *625:7 *626:7 0
*RES
1 *739:wbs_dat_o[26] *626:5 0.0767667 
2 *626:5 *626:7 82.3832 
3 *626:7 *626:9 3.41 
4 *626:9 wbs_dat_o[26] 687.955 
*END

*D_NET *627 0.125491
*CONN
*P wbs_dat_o[27] O
*I *739:wbs_dat_o[27] O *D ntt_wb_bridge
*CAP
1 wbs_dat_o[27] 0.0357965
2 *739:wbs_dat_o[27] 3.53124e-05
3 *627:9 0.0357965
4 *627:7 0.0269135
5 *627:5 0.0269488
6 *627:7 *628:7 0
*RES
1 *739:wbs_dat_o[27] *627:5 0.0767667 
2 *627:5 *627:7 79.5726 
3 *627:7 *627:9 3.41 
4 *627:9 wbs_dat_o[27] 694.634 
*END

*D_NET *628 0.12429
*CONN
*P wbs_dat_o[28] O
*I *739:wbs_dat_o[28] O *D ntt_wb_bridge
*CAP
1 wbs_dat_o[28] 0.0361232
2 *739:wbs_dat_o[28] 3.53124e-05
3 *628:9 0.0361232
4 *628:7 0.0259865
5 *628:5 0.0260218
6 *628:7 *629:7 0
7 *627:7 *628:7 0
*RES
1 *739:wbs_dat_o[28] *628:5 0.0767667 
2 *628:5 *628:7 76.834 
3 *628:7 *628:9 3.41 
4 *628:9 wbs_dat_o[28] 700.705 
*END

*D_NET *629 0.124646
*CONN
*P wbs_dat_o[29] O
*I *739:wbs_dat_o[29] O *D ntt_wb_bridge
*CAP
1 wbs_dat_o[29] 0.0364499
2 *739:wbs_dat_o[29] 3.73296e-05
3 *629:9 0.0364499
4 *629:7 0.0258356
5 *629:5 0.025873
6 *629:7 *631:7 0
7 *628:7 *629:7 0
*RES
1 *739:wbs_dat_o[29] *629:5 0.0767667 
2 *629:5 *629:7 74.0234 
3 *629:7 *629:9 3.41 
4 *629:9 wbs_dat_o[29] 706.777 
*END

*D_NET *630 0.158581
*CONN
*P wbs_dat_o[2] O
*I *739:wbs_dat_o[2] O *D ntt_wb_bridge
*CAP
1 wbs_dat_o[2] 0.0265758
2 *739:wbs_dat_o[2] 3.73296e-05
3 *630:9 0.0265758
4 *630:7 0.0526773
5 *630:5 0.0527146
6 *630:7 *633:7 0
7 *619:7 *630:7 0
*RES
1 *739:wbs_dat_o[2] *630:5 0.0767667 
2 *630:5 *630:7 150.919 
3 *630:7 *630:9 3.41 
4 *630:9 wbs_dat_o[2] 542.848 
*END

*D_NET *631 0.123431
*CONN
*P wbs_dat_o[30] O
*I *739:wbs_dat_o[30] O *D ntt_wb_bridge
*CAP
1 wbs_dat_o[30] 0.0367766
2 *739:wbs_dat_o[30] 3.53124e-05
3 *631:9 0.0367766
4 *631:7 0.0249038
5 *631:5 0.0249391
6 *631:7 *632:7 0
7 *629:7 *631:7 0
*RES
1 *739:wbs_dat_o[30] *631:5 0.0767667 
2 *631:5 *631:7 71.2849 
3 *631:7 *631:9 3.41 
4 *631:9 wbs_dat_o[30] 712.848 
*END

*D_NET *632 0.122157
*CONN
*P wbs_dat_o[31] O
*I *739:wbs_dat_o[31] O *D ntt_wb_bridge
*CAP
1 wbs_dat_o[31] 0.0371033
2 *739:wbs_dat_o[31] 3.73296e-05
3 *632:9 0.0371033
4 *632:7 0.0239378
5 *632:5 0.0239751
6 *631:7 *632:7 0
*RES
1 *739:wbs_dat_o[31] *632:5 0.0767667 
2 *632:5 *632:7 68.4743 
3 *632:7 *632:9 3.41 
4 *632:9 wbs_dat_o[31] 718.92 
*END

*D_NET *633 0.158352
*CONN
*P wbs_dat_o[3] O
*I *739:wbs_dat_o[3] O *D ntt_wb_bridge
*CAP
1 wbs_dat_o[3] 0.0277707
2 *739:wbs_dat_o[3] 3.53124e-05
3 *633:9 0.0277707
4 *633:7 0.0513702
5 *633:5 0.0514055
6 *633:7 *634:7 0
7 *630:7 *633:7 0
*RES
1 *739:wbs_dat_o[3] *633:5 0.0767667 
2 *633:5 *633:7 147.171 
3 *633:7 *633:9 3.41 
4 *633:9 wbs_dat_o[3] 548.92 
*END

*D_NET *634 0.157066
*CONN
*P wbs_dat_o[4] O
*I *739:wbs_dat_o[4] O *D ntt_wb_bridge
*CAP
1 wbs_dat_o[4] 0.00315032
2 *739:wbs_dat_o[4] 3.53124e-05
3 *634:17 0.00315032
4 *634:15 0.0290801
5 *634:13 0.0290801
6 *634:11 0.0245726
7 *634:9 0.0245726
8 *634:7 0.0216945
9 *634:5 0.0217298
10 *634:7 *635:7 0
11 *633:7 *634:7 0
*RES
1 *739:wbs_dat_o[4] *634:5 0.0767667 
2 *634:5 *634:7 64.0062 
3 *634:7 *634:9 3.41 
4 *634:9 *634:11 491.911 
5 *634:11 *634:13 3.41 
6 *634:13 *634:15 79.5365 
7 *634:15 *634:17 3.41 
8 *634:17 wbs_dat_o[4] 63.2054 
*END

*D_NET *635 0.155089
*CONN
*P wbs_dat_o[5] O
*I *739:wbs_dat_o[5] O *D ntt_wb_bridge
*CAP
1 wbs_dat_o[5] 0.0275641
2 *739:wbs_dat_o[5] 3.73296e-05
3 *635:9 0.0275641
4 *635:7 0.0499432
5 *635:5 0.0499806
6 *635:7 *636:7 0
7 *634:7 *635:7 0
*RES
1 *739:wbs_dat_o[5] *635:5 0.0767667 
2 *635:5 *635:7 140.757 
3 *635:7 *635:9 3.41 
4 *635:9 wbs_dat_o[5] 561.062 
*END

*D_NET *636 0.152308
*CONN
*P wbs_dat_o[6] O
*I *739:wbs_dat_o[6] O *D ntt_wb_bridge
*CAP
1 wbs_dat_o[6] 0.0278928
2 *739:wbs_dat_o[6] 3.53124e-05
3 *636:9 0.0278928
4 *636:7 0.0482257
5 *636:5 0.048261
6 *636:7 *637:7 0
7 *635:7 *636:7 0
*RES
1 *739:wbs_dat_o[6] *636:5 0.0767667 
2 *636:5 *636:7 137.947 
3 *636:7 *636:9 3.41 
4 *636:9 wbs_dat_o[6] 567.134 
*END

*D_NET *637 0.148152
*CONN
*P wbs_dat_o[7] O
*I *739:wbs_dat_o[7] O *D ntt_wb_bridge
*CAP
1 wbs_dat_o[7] 0.0282143
2 *739:wbs_dat_o[7] 3.53124e-05
3 *637:9 0.0282143
4 *637:7 0.0458265
5 *637:5 0.0458618
6 *637:7 *638:7 0
7 *636:7 *637:7 0
*RES
1 *739:wbs_dat_o[7] *637:5 0.0767667 
2 *637:5 *637:7 135.136 
3 *637:7 *637:9 3.41 
4 *637:9 wbs_dat_o[7] 573.205 
*END

*D_NET *638 0.168703
*CONN
*P wbs_dat_o[8] O
*I *739:wbs_dat_o[8] O *D ntt_wb_bridge
*CAP
1 wbs_dat_o[8] 0.0285387
2 *739:wbs_dat_o[8] 3.73296e-05
3 *638:9 0.0285387
4 *638:7 0.0462798
5 *638:5 0.0463172
6 *638:7 *639:7 0
7 *127:27 wbs_dat_o[8] 0.0189912
8 *637:7 *638:7 0
*RES
1 *739:wbs_dat_o[8] *638:5 0.0767667 
2 *638:5 *638:7 132.397 
3 *638:7 *638:9 3.41 
4 *638:9 wbs_dat_o[8] 579.277 
*END

*D_NET *639 0.148314
*CONN
*P wbs_dat_o[9] O
*I *739:wbs_dat_o[9] O *D ntt_wb_bridge
*CAP
1 wbs_dat_o[9] 0.0288674
2 *739:wbs_dat_o[9] 3.53124e-05
3 *639:9 0.0288674
4 *639:7 0.0452542
5 *639:5 0.0452895
6 *609:7 *639:7 0
7 *638:7 *639:7 0
*RES
1 *739:wbs_dat_o[9] *639:5 0.0767667 
2 *639:5 *639:7 129.587 
3 *639:7 *639:9 3.41 
4 *639:9 wbs_dat_o[9] 585.348 
*END

*D_NET *640 0.122428
*CONN
*P wbs_sel_i[0] I
*I *739:wbs_sel_i[0] I *D ntt_wb_bridge
*CAP
1 wbs_sel_i[0] 0.00553056
2 *739:wbs_sel_i[0] 3.73296e-05
3 *640:9 0.0556835
4 *640:7 0.0556461
5 *640:5 0.00553056
6 *640:9 *641:9 0
7 *640:9 *645:9 0
*RES
1 wbs_sel_i[0] *640:5 111.777 
2 *640:5 *640:7 3.41 
3 *640:7 *640:9 157.405 
4 *640:9 *739:wbs_sel_i[0] 0.0767667 
*END

*D_NET *641 0.120426
*CONN
*P wbs_sel_i[1] I
*I *739:wbs_sel_i[1] I *D ntt_wb_bridge
*CAP
1 wbs_sel_i[1] 0.00583317
2 *739:wbs_sel_i[1] 3.53124e-05
3 *641:9 0.0543799
4 *641:7 0.0543445
5 *641:5 0.00583317
6 *641:9 *642:9 0
7 *640:9 *641:9 0
*RES
1 wbs_sel_i[1] *641:5 117.848 
2 *641:5 *641:7 3.41 
3 *641:7 *641:9 153.657 
4 *641:9 *739:wbs_sel_i[1] 0.0767667 
*END

*D_NET *642 0.115627
*CONN
*P wbs_sel_i[2] I
*I *739:wbs_sel_i[2] I *D ntt_wb_bridge
*CAP
1 wbs_sel_i[2] 0.00633176
2 *739:wbs_sel_i[2] 3.53124e-05
3 *642:9 0.0514819
4 *642:7 0.0514466
5 *642:5 0.00633176
6 *642:9 *643:9 0
7 *641:9 *642:9 0
*RES
1 wbs_sel_i[2] *642:5 123.92 
2 *642:5 *642:7 3.41 
3 *642:7 *642:9 149.982 
4 *642:9 *739:wbs_sel_i[2] 0.0767667 
*END

*D_NET *643 0.119505
*CONN
*P wbs_sel_i[3] I
*I *739:wbs_sel_i[3] I *D ntt_wb_bridge
*CAP
1 wbs_sel_i[3] 0.00643839
2 *739:wbs_sel_i[3] 3.73296e-05
3 *643:9 0.0517072
4 *643:7 0.0516699
5 *643:5 0.00643839
6 *131:19 *643:5 0.00321388
7 *543:9 *643:9 0
8 *642:9 *643:9 0
*RES
1 wbs_sel_i[3] *643:5 129.991 
2 *643:5 *643:7 3.41 
3 *643:7 *643:9 146.306 
4 *643:9 *739:wbs_sel_i[3] 0.0767667 
*END

*D_NET *644 0.124917
*CONN
*P wbs_stb_i I
*I *739:wbs_stb_i I *D ntt_wb_bridge
*CAP
1 wbs_stb_i 0.00384272
2 *739:wbs_stb_i 3.53124e-05
3 *644:9 0.0573811
4 *644:7 0.0573458
5 *644:5 0.00384272
6 *644:9 *645:9 0
7 *542:11 *644:5 0
8 *575:13 *644:5 0.00246941
9 *575:17 *644:9 0
*RES
1 wbs_stb_i *644:5 99.6339 
2 *644:5 *644:7 3.41 
3 *644:7 *644:9 162.017 
4 *644:9 *739:wbs_stb_i 0.0767667 
*END

*D_NET *645 0.121
*CONN
*P wbs_we_i I
*I *739:wbs_we_i I *D ntt_wb_bridge
*CAP
1 wbs_we_i 0.00522622
2 *739:wbs_we_i 3.53124e-05
3 *645:9 0.0552737
4 *645:7 0.0552384
5 *645:5 0.00522622
6 *640:9 *645:9 0
7 *644:9 *645:9 0
*RES
1 wbs_we_i *645:5 105.705 
2 *645:5 *645:7 3.41 
3 *645:7 *645:9 161.08 
4 *645:9 *739:wbs_we_i 0.0767667 
*END

*D_NET *646 0.726835
*CONN
*I *739:busy_i I *D ntt_wb_bridge
*I *740:busy O *D ntt_engine_256
*CAP
1 *739:busy_i 3.8555e-05
2 *740:busy 0.000458693
3 *646:43 0.0237236
4 *646:41 0.0270814
5 *646:23 0.0665524
6 *646:21 0.0631561
7 *646:19 0.00844623
8 *646:17 0.00851564
9 *646:11 0.0183193
10 *646:9 0.0187086
11 *646:11 *658:47 0.0113507
12 *646:11 *663:11 0.000335318
13 *646:11 *673:11 0.0398214
14 *646:11 *685:13 0.0111707
15 *646:11 *714:39 0.049495
16 *646:11 *715:23 0.0499468
17 *646:17 *740:mem_wdata[3] 0.000112246
18 *646:19 *648:15 0.000338463
19 *646:19 *658:39 0.0567902
20 *646:19 *679:11 0.010843
21 *646:19 *685:21 0.000165719
22 *646:19 *714:31 0
23 *646:19 *715:23 0.00199059
24 *646:19 *732:27 0.0469669
25 *646:23 *740:mem_addr[3] 0.00328223
26 *646:23 *658:27 0.000256264
27 *646:23 *658:35 0
28 *646:23 *682:15 0.0814262
29 *646:23 *682:23 0.0232885
30 *646:23 *685:33 0.00727035
31 *646:23 *685:41 0.00388176
32 *646:23 *700:19 0.0127052
33 *646:23 *714:19 0.00503727
34 *646:23 *724:23 0.00254178
35 *646:41 *700:11 0.00226218
36 *77:141 *646:41 0.000461446
37 *114:25 *646:41 0.00666889
38 *114:35 *646:41 0.000859088
39 *114:37 *646:23 0
40 *115:233 *646:11 0.000207312
41 *531:23 *646:43 0.0623587
*RES
1 *740:busy *646:9 12.3207 
2 *646:9 *646:11 155.927 
3 *646:11 *646:17 9.40107 
4 *646:17 *646:19 536.518 
5 *646:19 *646:21 4.5 
6 *646:21 *646:23 2126.79 
7 *646:23 *646:41 29.0723 
8 *646:41 *646:43 103.102 
9 *646:43 *739:busy_i 0.0767667 
*END

*D_NET *647 0.359716
*CONN
*I *739:done_i I *D ntt_wb_bridge
*I *740:done O *D ntt_engine_256
*CAP
1 *739:done_i 0.00165839
2 *740:done 0.000971762
3 *647:15 0.00349182
4 *647:13 0.00183343
5 *647:11 0.0297908
6 *647:9 0.0307626
7 *647:11 *649:11 0.0285379
8 *647:11 *664:19 0.128006
9 *647:11 *695:23 0.0614474
10 *647:11 *704:31 0.00813257
11 *647:11 *710:23 0.0129391
12 *647:11 *710:31 0.0150371
13 *647:11 *712:24 0.000219842
14 *647:11 *734:23 0.0208749
15 *647:15 *649:15 0
16 *647:15 *661:27 0
17 *647:15 *683:27 0
18 *281:19 *647:15 0.00263684
19 *282:19 *647:15 0.00254409
20 *354:25 *647:11 0.0108319
*RES
1 *740:done *647:9 20.8207 
2 *647:9 *647:11 229.363 
3 *647:11 *647:13 3.41 
4 *647:13 *647:15 52.3393 
5 *647:15 *739:done_i 7.029 
*END

*D_NET *648 0.547548
*CONN
*I *740:rst_n I *D ntt_engine_256
*I *739:engine_rst_n_o O *D ntt_wb_bridge
*CAP
1 *740:rst_n 0.000466655
2 *739:engine_rst_n_o 3.9923e-05
3 *648:15 0.00680933
4 *648:13 0.00634267
5 *648:11 0.068708
6 *648:9 0.068708
7 *648:7 0.0359271
8 *648:5 0.0359671
9 *648:11 *653:11 0.125862
10 *648:11 *659:15 0.0381789
11 *648:11 *671:17 0
12 *648:15 *740:mem_slot[1] 6.178e-05
13 *648:15 *653:23 0.0282048
14 *648:15 *663:11 0.00213406
15 *648:15 *671:15 0.00426633
16 *648:15 *685:21 2.97829e-05
17 *648:15 *714:31 0.00108843
18 *648:15 *715:23 0.00203561
19 *648:15 *720:23 4.20505e-05
20 *648:15 *732:27 0.0374339
21 *74:31 *648:11 0
22 *76:23 *648:11 0
23 *78:137 *648:11 0.0194405
24 *78:153 *648:11 0.00907241
25 *115:211 *648:11 0.0331926
26 *141:17 *648:11 0.0231972
27 *646:19 *648:15 0.000338463
*RES
1 *739:engine_rst_n_o *648:5 0.0767667 
2 *648:5 *648:7 106.237 
3 *648:7 *648:9 3.41 
4 *648:9 *648:11 2879.65 
5 *648:11 *648:13 4.5 
6 *648:13 *648:15 368.125 
7 *648:15 *740:rst_n 13.0625 
*END

*D_NET *649 0.176962
*CONN
*I *739:mem_rvalid_i I *D ntt_wb_bridge
*I *740:mem_rvalid O *D ntt_engine_256
*CAP
1 *739:mem_rvalid_i 0.00150177
2 *740:mem_rvalid 0.000866386
3 *649:15 0.00416292
4 *649:13 0.00266116
5 *649:11 0.0162534
6 *649:9 0.0171198
7 *649:9 *704:29 2.69575e-05
8 *649:11 *704:23 0.0164424
9 *649:11 *704:31 0.000121508
10 *649:11 *706:15 0.0132691
11 *649:11 *712:24 0.00010713
12 *649:11 *716:15 0.00924502
13 *649:11 *719:13 0.0180468
14 *649:11 *727:15 0.000176702
15 *649:11 *731:43 0.0432944
16 *649:15 *662:41 0
17 *649:15 *717:11 0
18 *101:19 *649:15 0.000824768
19 *281:19 *649:15 0
20 *284:17 *649:15 0.00116409
21 *357:25 *649:11 0
22 *360:31 *649:15 0
23 *367:27 *649:15 0.00291726
24 *369:19 *649:15 6.54998e-05
25 *373:17 *649:15 0.000156627
26 *647:11 *649:11 0.0285379
27 *647:15 *649:15 0
*RES
1 *740:mem_rvalid *649:9 18.9993 
2 *649:9 *649:11 119.966 
3 *649:11 *649:13 3.41 
4 *649:13 *649:15 68.7321 
5 *649:15 *739:mem_rvalid_i 6.5966 
*END

*D_NET *650 0.575106
*CONN
*I *740:mac_init I *D ntt_engine_256
*I *739:mac_init_o O *D ntt_wb_bridge
*CAP
1 *740:mac_init 0.00206563
2 *739:mac_init_o 0.0024943
3 *650:35 0.00882439
4 *650:33 0.00675877
5 *650:31 0.0222651
6 *650:29 0.0224409
7 *650:23 0.00404914
8 *650:21 0.00387336
9 *650:19 0.0134488
10 *650:17 0.0159431
11 *650:17 *737:9 0
12 *650:19 *690:19 0.00376826
13 *650:19 *710:19 0.0296419
14 *650:23 *662:31 0
15 *650:23 *664:27 0.0198405
16 *650:23 *676:19 0.000758616
17 *650:23 *677:23 0.0235028
18 *650:31 *657:15 5.86114e-05
19 *650:31 *661:15 4.76293e-05
20 *650:31 *662:23 0.000210464
21 *650:31 *664:19 0.154836
22 *650:31 *675:25 0.000305512
23 *650:31 *677:15 0.15088
24 *650:31 *687:13 0.00092591
25 *650:35 *661:11 0.0246356
26 *92:27 *650:35 2.74131e-05
27 *93:23 *650:35 0.00905167
28 *354:27 *650:19 0.000127324
29 *358:21 *650:29 0.000257428
30 *358:25 *650:31 6.92474e-05
31 *359:25 *650:23 0.00256642
32 *360:31 *650:17 9.36119e-05
33 *364:19 *650:17 3.54658e-05
34 *378:27 *650:19 0.0513019
*RES
1 *739:mac_init_o *650:17 36.7803 
2 *650:17 *650:19 635.804 
3 *650:19 *650:21 4.5 
4 *650:21 *650:23 226.429 
5 *650:23 *650:29 11.8296 
6 *650:29 *650:31 242.443 
7 *650:31 *650:33 3.41 
8 *650:33 *650:35 51.5026 
9 *650:35 *740:mac_init 7.4191 
*END

*D_NET *651 0.167016
*CONN
*I *740:mem_addr[0] I *D ntt_engine_256
*I *739:mem_addr_o[0] O *D ntt_wb_bridge
*CAP
1 *740:mem_addr[0] 0.00072068
2 *739:mem_addr_o[0] 0.00705128
3 *651:15 0.0186951
4 *651:13 0.0179744
5 *651:11 0.0206024
6 *651:9 0.0276537
7 *651:15 *660:11 0.0422987
8 *651:15 *670:13 0.000237044
9 *651:15 *699:15 0
10 *651:15 *705:17 0.00213062
11 *651:15 *705:21 0.001778
12 la_data_out[87] *651:11 0.0245169
13 *77:57 *651:11 0.00335732
14 *101:23 *651:15 0
*RES
1 *739:mem_addr_o[0] *651:9 21.9468 
2 *651:9 *651:11 601.804 
3 *651:11 *651:13 3.41 
4 *651:13 *651:15 82.7795 
5 *651:15 *740:mem_addr[0] 17.3743 
*END

*D_NET *652 0.336508
*CONN
*I *740:mem_addr[1] I *D ntt_engine_256
*I *739:mem_addr_o[1] O *D ntt_wb_bridge
*CAP
1 *740:mem_addr[1] 0.000432045
2 *739:mem_addr_o[1] 2.28625e-05
3 *652:11 0.0369277
4 *652:9 0.0364957
5 *652:7 0.0350691
6 *652:5 0.0350919
7 *652:11 *740:mem_wdata[18] 0.000255549
8 *652:11 *654:11 0.0300418
9 *652:11 *663:23 0.0180347
10 *652:11 *666:9 0.0552692
11 *652:11 *667:15 0.0156565
12 *652:11 *672:6 0.0365971
13 *652:11 *673:15 0.0168708
14 *652:11 *730:11 0
15 *114:25 *652:11 0.0197431
*RES
1 *739:mem_addr_o[1] *652:5 0.0767667 
2 *652:5 *652:7 103.535 
3 *652:7 *652:9 3.41 
4 *652:9 *652:11 234.74 
5 *652:11 *740:mem_addr[1] 4.3641 
*END

*D_NET *653 0.496828
*CONN
*I *740:mem_addr[2] I *D ntt_engine_256
*I *739:mem_addr_o[2] O *D ntt_wb_bridge
*CAP
1 *740:mem_addr[2] 0.000499967
2 *739:mem_addr_o[2] 2.28625e-05
3 *653:23 0.00431625
4 *653:21 0.00448166
5 *653:11 0.0528785
6 *653:9 0.0522132
7 *653:7 0.0349631
8 *653:5 0.034986
9 *653:11 *659:15 0.0369224
10 *653:21 *673:15 3.838e-05
11 *653:21 *682:11 0.000268543
12 *653:21 *714:27 8.61512e-05
13 *653:21 *721:15 0.00165618
14 *653:23 *663:19 0.0188076
15 *653:23 *714:31 0.00273587
16 *653:23 *715:23 0.00599371
17 *653:23 *720:23 8.40933e-05
18 *76:23 *653:11 0.0877866
19 *78:63 *653:7 0.0034717
20 *115:81 *653:7 0.000548676
21 *648:11 *653:11 0.125862
22 *648:15 *653:23 0.0282048
*RES
1 *739:mem_addr_o[2] *653:5 0.0767667 
2 *653:5 *653:7 106.381 
3 *653:7 *653:9 3.41 
4 *653:9 *653:11 2749.88 
5 *653:11 *653:21 15.1489 
6 *653:21 *653:23 265.036 
7 *653:23 *740:mem_addr[2] 13.3661 
*END

*D_NET *654 0.388453
*CONN
*I *740:mem_addr[3] I *D ntt_engine_256
*I *739:mem_addr_o[3] O *D ntt_wb_bridge
*CAP
1 *740:mem_addr[3] 0.00942328
2 *739:mem_addr_o[3] 2.48797e-05
3 *654:11 0.0557119
4 *654:9 0.0462886
5 *654:7 0.0372363
6 *654:5 0.0372612
7 *740:mem_addr[3] *690:9 0
8 *654:11 *658:19 0.00141242
9 *654:11 *666:9 0.0552752
10 *654:11 *667:15 0.00159468
11 *654:11 *679:15 0.00772295
12 *654:11 *685:41 0
13 *654:11 *685:49 0.00561822
14 *654:11 *714:27 0.00843051
15 *654:11 *715:11 0.0108352
16 *654:11 *724:21 0
17 *654:11 *724:23 0.00547588
18 *654:11 *730:11 0.00126622
19 *77:145 *654:11 0.00849601
20 *78:63 *654:7 0
21 *114:37 *654:11 0.00191366
22 *114:45 *740:mem_addr[3] 0.00571519
23 *114:45 *654:11 0.0554271
24 *646:23 *740:mem_addr[3] 0.00328223
25 *652:11 *654:11 0.0300418
*RES
1 *739:mem_addr_o[3] *654:5 0.0767667 
2 *654:5 *654:7 103.823 
3 *654:7 *654:9 3.41 
4 *654:9 *654:11 266.593 
5 *654:11 *740:mem_addr[3] 44.3128 
*END

*D_NET *655 0.416615
*CONN
*I *740:mem_addr[4] I *D ntt_engine_256
*I *739:mem_addr_o[4] O *D ntt_wb_bridge
*CAP
1 *740:mem_addr[4] 0.00226389
2 *739:mem_addr_o[4] 2.28625e-05
3 *655:11 0.171289
4 *655:9 0.169025
5 *655:7 0.0369956
6 *655:5 0.0370185
7 *69:21 *655:11 0
*RES
1 *739:mem_addr_o[4] *655:5 0.0767667 
2 *655:5 *655:7 108.291 
3 *655:7 *655:9 3.41 
4 *655:9 *655:11 412.438 
5 *655:11 *740:mem_addr[4] 8.64737 
*END

*D_NET *656 0.699547
*CONN
*I *740:mem_addr[5] I *D ntt_engine_256
*I *739:mem_addr_o[5] O *D ntt_wb_bridge
*CAP
1 *740:mem_addr[5] 0.000938075
2 *739:mem_addr_o[5] 0.000587214
3 *656:35 0.0162866
4 *656:33 0.0154527
5 *656:27 0.0169888
6 *656:25 0.0168846
7 *656:23 0.0257636
8 *656:21 0.0257851
9 *656:15 0.0411152
10 *656:13 0.0410937
11 *656:11 0.00943958
12 *656:9 0.0100268
13 *656:11 *657:11 0.0434947
14 *656:11 *728:11 0.0439347
15 *656:15 *740:mem_we 0.000559286
16 *656:15 *668:19 0.0141957
17 *656:15 *675:27 0
18 *656:15 *678:19 0.000739629
19 *656:15 *683:23 0
20 *656:15 *701:15 0
21 *656:15 *701:23 0.00108487
22 *656:15 *711:15 0.0118388
23 *656:15 *728:15 0.00019558
24 *656:15 *728:23 0.0073916
25 *656:23 *676:19 1.45707e-05
26 *656:23 *683:15 0.000119777
27 *656:23 *701:23 0.0752931
28 *656:23 *725:23 0
29 *656:23 *729:23 0
30 *656:27 *677:11 0.0218109
31 *656:27 *691:19 0.0694042
32 *656:27 *702:22 0.0836319
33 *656:27 *729:27 0
34 *656:33 *677:9 4.73891e-05
35 *656:35 *677:11 6.40846e-05
36 *656:35 *691:11 0.03403
37 *656:35 *702:30 0.0467755
38 *656:35 *709:27 0.000128809
39 *656:35 *718:27 0.0160377
40 *79:20 *656:9 0.000207921
41 *118:27 *656:27 0.000757317
42 *118:27 *656:35 0.00114781
43 *342:31 *656:23 0.000174849
44 *343:25 *656:23 0.000658339
45 *349:31 *656:15 0
46 *350:27 *656:15 0
47 *352:19 *656:11 0
48 *378:23 *656:15 0.00544563
*RES
1 *739:mem_addr_o[5] *656:9 4.71973 
2 *656:9 *656:11 552.473 
3 *656:11 *656:13 4.5 
4 *656:13 *656:15 895.482 
5 *656:15 *656:21 8.18679 
6 *656:21 *656:23 118.164 
7 *656:23 *656:25 3.41 
8 *656:25 *656:27 1050.48 
9 *656:27 *656:33 7.04717 
10 *656:33 *656:35 131.935 
11 *656:35 *740:mem_addr[5] 5.65817 
*END

*D_NET *657 0.269352
*CONN
*I *740:mem_addr[6] I *D ntt_engine_256
*I *739:mem_addr_o[6] O *D ntt_wb_bridge
*CAP
1 *740:mem_addr[6] 0.00122987
2 *739:mem_addr_o[6] 0.000592864
3 *657:15 0.0180562
4 *657:13 0.0168263
5 *657:11 0.0106623
6 *657:9 0.0112552
7 *740:mem_addr[6] *661:21 2.69575e-05
8 *657:11 *722:13 0
9 *657:11 *722:15 0.0379613
10 *657:11 *731:11 0
11 *657:15 *740:mem_slot[0] 0.000101991
12 *657:15 *661:15 0.000121508
13 *657:15 *664:27 0.000128774
14 *657:15 *676:19 0.00190595
15 *657:15 *676:27 0.000119421
16 *657:15 *677:15 0.0165074
17 *657:15 *687:13 0.0247873
18 *657:15 *696:15 0.00339265
19 *657:15 *696:23 0.0678076
20 *352:17 *657:15 0
21 *352:19 *657:11 0
22 *356:29 *657:15 0.000127646
23 *356:31 *657:11 0
24 *358:25 *657:15 4.92595e-05
25 *359:25 *657:15 0.0127661
26 *362:23 *657:15 0.00137187
27 *650:31 *657:15 5.86114e-05
28 *656:11 *657:11 0.0434947
*RES
1 *739:mem_addr_o[6] *657:9 4.68527 
2 *657:9 *657:11 550.196 
3 *657:11 *657:13 3.41 
4 *657:13 *657:15 133.082 
5 *657:15 *740:mem_addr[6] 25.0707 
*END

*D_NET *658 0.805276
*CONN
*I *740:mem_addr[7] I *D ntt_engine_256
*I *739:mem_addr_o[7] O *D ntt_wb_bridge
*CAP
1 *740:mem_addr[7] 0.000560239
2 *739:mem_addr_o[7] 0.00368391
3 *658:47 0.00770254
4 *658:45 0.00733791
5 *658:39 0.0153096
6 *658:37 0.015114
7 *658:35 0.051657
8 *658:33 0.0519199
9 *658:27 0.00550261
10 *658:25 0.00543038
11 *658:19 0.00119105
12 *658:17 0.00100036
13 *658:15 0.0185213
14 *658:13 0.0185213
15 *658:11 0.0226317
16 *658:9 0.0263156
17 *658:11 *682:39 0.01159
18 *658:11 *695:19 0.00519408
19 *658:15 *682:35 0.0614196
20 *658:19 *685:49 0.00628039
21 *658:19 *715:11 0.00629334
22 *658:25 *714:25 0.000306914
23 *658:27 *682:15 0.00707021
24 *658:27 *700:19 0.0226369
25 *658:27 *730:19 0.0298996
26 *658:33 *685:31 0
27 *658:35 *685:33 0
28 *658:35 *714:27 0.138042
29 *658:35 *720:21 2.04825e-05
30 *658:39 *679:11 0.0120817
31 *658:39 *685:21 0.0849945
32 *658:39 *714:31 0
33 *658:39 *715:23 0.00355076
34 *658:47 *673:11 0.00982603
35 *658:47 *682:11 0.000292288
36 *658:47 *685:13 0.0199208
37 *658:47 *714:31 0.00471884
38 *77:135 *658:15 0.00062968
39 *114:37 *658:19 5.41797e-06
40 *114:45 *658:35 0.0303761
41 *140:17 *658:11 0.0260486
42 *540:17 *658:39 0.00186864
43 *646:11 *658:47 0.0113507
44 *646:19 *658:39 0.0567902
45 *646:23 *658:27 0.000256264
46 *646:23 *658:35 0
47 *654:11 *658:19 0.00141242
*RES
1 *739:mem_addr_o[7] *658:9 12.1818 
2 *658:9 *658:11 99.9753 
3 *658:11 *658:13 3.41 
4 *658:13 *658:15 95.3552 
5 *658:15 *658:17 3.41 
6 *658:17 *658:19 77.3839 
7 *658:19 *658:25 12.8214 
8 *658:25 *658:27 372.607 
9 *658:27 *658:33 13.2321 
10 *658:33 *658:35 1691.93 
11 *658:35 *658:37 4.5 
12 *658:37 *658:39 798.554 
13 *658:39 *658:45 10.9189 
14 *658:45 *658:47 46.8183 
15 *658:47 *740:mem_addr[7] 13.9457 
*END

*D_NET *659 0.423714
*CONN
*I *740:mem_addr[8] I *D ntt_engine_256
*I *739:mem_addr_o[8] O *D ntt_wb_bridge
*CAP
1 *740:mem_addr[8] 0.00158935
2 *739:mem_addr_o[8] 2.28625e-05
3 *659:15 0.081895
4 *659:13 0.085482
5 *659:7 0.0363447
6 *659:5 0.0311912
7 *659:15 *669:11 0.0729062
8 *659:15 *669:17 0.00187749
9 *659:15 *674:13 0
10 *659:15 *681:11 0.00642073
11 *659:15 *686:21 0.00443021
12 *659:15 *723:11 0
13 *659:15 *738:11 0
14 *75:17 *659:15 0.00563371
15 *76:23 *659:15 0.0060985
16 *102:27 *659:15 0.00271271
17 *115:211 *659:15 0.00706213
18 *141:17 *659:15 0.00494572
19 *648:11 *659:15 0.0381789
20 *653:11 *659:15 0.0369224
*RES
1 *739:mem_addr_o[8] *659:5 0.0767667 
2 *659:5 *659:7 91.4275 
3 *659:7 *659:13 18.6004 
4 *659:13 *659:15 357.573 
5 *659:15 *740:mem_addr[8] 6.88017 
*END

*D_NET *660 0.137812
*CONN
*I *739:mem_rdata_i[0] I *D ntt_wb_bridge
*I *740:mem_rdata[0] O *D ntt_engine_256
*CAP
1 *739:mem_rdata_i[0] 0.00728225
2 *740:mem_rdata[0] 0.000724663
3 *660:15 0.0224427
4 *660:13 0.0151604
5 *660:11 0.00699761
6 *660:9 0.00772227
7 *660:11 *740:mem_re 0.00739728
8 *660:11 *684:13 0.0048614
9 *660:11 *699:15 0
10 *660:11 *705:17 0.0229247
11 *651:15 *660:11 0.0422987
*RES
1 *740:mem_rdata[0] *660:9 17.1779 
2 *660:9 *660:11 65.988 
3 *660:11 *660:13 3.41 
4 *660:13 *660:15 303.696 
5 *660:15 *739:mem_rdata_i[0] 23.0278 
*END

*D_NET *661 0.596891
*CONN
*I *739:mem_rdata_i[10] I *D ntt_wb_bridge
*I *740:mem_rdata[10] O *D ntt_engine_256
*CAP
1 *739:mem_rdata_i[10] 0.00220198
2 *740:mem_rdata[10] 0.00158727
3 *661:27 0.00591213
4 *661:25 0.00371015
5 *661:23 0.0201791
6 *661:21 0.0203042
7 *661:15 0.0197597
8 *661:13 0.0196346
9 *661:11 0.109113
10 *661:9 0.1107
11 *739:mem_rdata_i[10] *739:mem_rdata_i[11] 0
12 *739:mem_rdata_i[10] *688:27 0.000243905
13 *739:mem_rdata_i[10] *712:12 0.000255549
14 *661:15 *662:23 0.032018
15 *661:15 *662:31 0.0119621
16 *661:15 *676:19 0.00775525
17 *661:15 *677:15 0.0222973
18 *661:15 *696:23 0.0399147
19 *661:23 *662:31 0
20 *661:23 *675:27 0.0825199
21 *661:23 *676:19 0.0015832
22 *661:23 *677:23 0.0263942
23 *661:27 *683:27 0
24 *740:mem_addr[6] *661:21 2.69575e-05
25 *86:33 *661:11 0
26 *91:27 *661:11 0
27 *92:27 *661:11 0
28 *93:23 *661:11 2.71848e-05
29 *129:27 *661:11 0
30 *359:25 *661:23 0.0011233
31 *361:27 *661:27 0
32 *364:19 *739:mem_rdata_i[10] 0.000242191
33 *371:19 *661:27 0.000140075
34 *372:17 *661:27 0.0158252
35 *374:19 *661:27 0.0166542
36 *647:15 *661:27 0
37 *650:31 *661:15 4.76293e-05
38 *650:35 *661:11 0.0246356
39 *657:15 *661:15 0.000121508
*RES
1 *740:mem_rdata[10] *661:9 6.95537 
2 *661:9 *661:11 282.893 
3 *661:11 *661:13 3.41 
4 *661:13 *661:15 143.928 
5 *661:15 *661:21 10.0082 
6 *661:21 *661:23 775.554 
7 *661:23 *661:25 4.5 
8 *661:25 *661:27 216.268 
9 *661:27 *739:mem_rdata_i[10] 28.7759 
*END

*D_NET *662 0.647602
*CONN
*I *739:mem_rdata_i[11] I *D ntt_wb_bridge
*I *740:mem_rdata[11] O *D ntt_engine_256
*CAP
1 *739:mem_rdata_i[11] 0.0121788
2 *740:mem_rdata[11] 0.00546572
3 *662:41 0.0124358
4 *662:31 0.0659975
5 *662:29 0.0657621
6 *662:23 0.00564364
7 *662:21 0.00562216
8 *662:19 0.040275
9 *662:17 0.0457407
10 *739:mem_rdata_i[11] *689:27 0
11 *739:mem_rdata_i[11] *717:11 0.000931333
12 *662:17 *740:slot_a[1] 0.00697098
13 *662:17 *695:45 0.00463685
14 *662:19 *675:15 9.96517e-05
15 *662:19 *695:35 0.173532
16 *662:19 *734:35 2.38581e-05
17 *662:23 *677:15 0.0159382
18 *662:31 *675:27 0
19 *662:31 *677:15 0.0103034
20 *662:31 *677:23 0
21 *662:31 *687:13 0.00149984
22 *662:31 *696:15 0.00293676
23 *662:41 *717:11 7.07131e-05
24 *739:mem_rdata_i[10] *739:mem_rdata_i[11] 0
25 *80:29 *662:19 0.0933121
26 *101:19 *739:mem_rdata_i[11] 0.00944161
27 *116:109 *662:23 0.00314312
28 *353:19 *662:41 0
29 *356:29 *662:31 0.00368887
30 *358:25 *662:41 0
31 *360:31 *739:mem_rdata_i[11] 0.0036466
32 *362:23 *662:31 0.00298901
33 *364:19 *739:mem_rdata_i[11] 0.000949201
34 *367:27 *739:mem_rdata_i[11] 0.00365551
35 *369:19 *739:mem_rdata_i[11] 0.0032599
36 *373:17 *739:mem_rdata_i[11] 0.0032599
37 *649:15 *662:41 0
38 *650:23 *662:31 0
39 *650:31 *662:23 0.000210464
40 *661:15 *662:23 0.032018
41 *661:15 *662:31 0.0119621
42 *661:23 *662:31 0
*RES
1 *740:mem_rdata[11] *662:17 37.7819 
2 *662:17 *662:19 2170.05 
3 *662:19 *662:21 3.41 
4 *662:21 *662:23 49.9892 
5 *662:23 *662:29 8.18679 
6 *662:29 *662:31 1300.45 
7 *662:31 *662:41 14.1805 
8 *662:41 *739:mem_rdata_i[11] 44.0697 
*END

*D_NET *663 0.753702
*CONN
*I *739:mem_rdata_i[12] I *D ntt_wb_bridge
*I *740:mem_rdata[12] O *D ntt_engine_256
*CAP
1 *739:mem_rdata_i[12] 0.0014917
2 *740:mem_rdata[12] 0.000410218
3 *663:27 0.0311868
4 *663:25 0.0296951
5 *663:23 0.0731163
6 *663:21 0.0731163
7 *663:19 0.00260146
8 *663:17 0.00269922
9 *663:11 0.0172629
10 *663:9 0.0175754
11 *739:mem_rdata_i[12] *717:11 9.03692e-05
12 *663:11 *679:11 0.110006
13 *663:11 *714:39 0.0293879
14 *663:11 *715:23 0.0898988
15 *663:11 *732:27 0.00401467
16 *663:19 *714:31 0.00379045
17 *663:19 *715:23 0.00432907
18 *663:19 *720:23 0.00910526
19 *663:23 *740:mem_slot[1] 0.000413027
20 *663:23 *667:15 0.191493
21 *663:23 *672:6 0.0169042
22 *663:23 *715:11 0
23 *663:23 *732:25 3.45423e-05
24 *115:167 *663:27 0
25 *360:31 *739:mem_rdata_i[12] 0.000166101
26 *540:17 *663:11 0.00560257
27 *646:11 *663:11 0.000335318
28 *648:15 *663:11 0.00213406
29 *652:11 *663:23 0.0180347
30 *653:23 *663:19 0.0188076
*RES
1 *740:mem_rdata[12] *663:9 11.5171 
2 *663:9 *663:11 186.772 
3 *663:11 *663:17 9.0975 
4 *663:17 *663:19 176.732 
5 *663:19 *663:21 4.5 
6 *663:21 *663:23 2374.36 
7 *663:23 *663:25 4.5 
8 *663:25 *663:27 574.304 
9 *663:27 *739:mem_rdata_i[12] 13.0475 
*END

*D_NET *664 0.541617
*CONN
*I *739:mem_rdata_i[13] I *D ntt_wb_bridge
*I *740:mem_rdata[13] O *D ntt_engine_256
*CAP
1 *739:mem_rdata_i[13] 0.00281471
2 *740:mem_rdata[13] 0.00137208
3 *664:31 0.00734744
4 *664:29 0.00453273
5 *664:27 0.0026294
6 *664:25 0.00281605
7 *664:19 0.024537
8 *664:17 0.0243504
9 *664:15 0.0125173
10 *664:13 0.0138894
11 *739:mem_rdata_i[13] *717:11 6.57509e-05
12 *664:13 *718:25 9.06484e-05
13 *664:15 *676:17 0.00882937
14 *664:15 *677:11 0.000279228
15 *664:15 *718:19 0.00940765
16 *664:15 *729:27 0.00339939
17 *664:15 *729:35 0.0232161
18 *664:15 *736:26 0.00179029
19 *664:15 *736:34 0.0310494
20 *664:19 *675:25 0.00307641
21 *664:19 *695:23 0.00354936
22 *664:19 *710:31 0.0077593
23 *664:25 *696:21 5.42764e-05
24 *664:27 *676:27 0.0166466
25 *664:27 *696:15 0.00181102
26 *664:31 *676:31 0.00939901
27 *664:31 *691:27 0.0160489
28 *101:23 *664:27 0.000110042
29 *354:21 *664:25 4.70331e-05
30 *354:25 *664:19 0.000118634
31 *356:25 *664:25 0.000184452
32 *357:27 *664:31 0
33 *358:25 *664:19 0.0023821
34 *359:25 *664:27 0.00256642
35 *360:31 *739:mem_rdata_i[13] 0.000118506
36 *647:11 *664:19 0.128006
37 *650:23 *664:27 0.0198405
38 *650:31 *664:19 0.154836
39 *657:15 *664:27 0.000128774
*RES
1 *740:mem_rdata[13] *664:13 6.2159 
2 *664:13 *664:15 84.4214 
3 *664:15 *664:17 3.41 
4 *664:17 *664:19 248.064 
5 *664:19 *664:25 12.1332 
6 *664:25 *664:27 188.232 
7 *664:27 *664:29 4.5 
8 *664:29 *664:31 198.661 
9 *664:31 *739:mem_rdata_i[13] 38.316 
*END

*D_NET *665 0.450574
*CONN
*I *739:mem_rdata_i[14] I *D ntt_wb_bridge
*I *740:mem_rdata[14] O *D ntt_engine_256
*CAP
1 *739:mem_rdata_i[14] 3.8555e-05
2 *740:mem_rdata[14] 0.00184788
3 *665:23 0.0371358
4 *665:21 0.0411392
5 *665:11 0.0320734
6 *665:9 0.0298794
7 *665:11 *680:11 0.0304034
8 *665:11 *686:11 0.160424
9 *665:21 *686:11 0.00100048
10 *665:21 *721:11 0.000318935
11 *73:24 *665:11 0.070315
12 *73:24 *665:21 0.00191187
13 *77:119 *665:23 0
14 *102:27 *665:21 0.00890787
15 *115:203 *665:11 0.0351779
*RES
1 *740:mem_rdata[14] *665:9 7.5272 
2 *665:9 *665:11 1966.05 
3 *665:11 *665:21 29.041 
4 *665:21 *665:23 107.138 
5 *665:23 *739:mem_rdata_i[14] 0.0767667 
*END

*D_NET *666 0.220374
*CONN
*I *739:mem_rdata_i[15] I *D ntt_wb_bridge
*I *740:mem_rdata[15] O *D ntt_engine_256
*CAP
1 *739:mem_rdata_i[15] 4.05722e-05
2 *740:mem_rdata[15] 0.000170309
3 *666:13 0.0371811
4 *666:11 0.0371405
5 *666:9 0.0116272
6 *666:7 0.0117975
7 *666:9 *679:15 0.00339274
8 *666:9 *714:27 0.00343595
9 *77:119 *666:13 0.00123377
10 *77:145 *666:9 0.00381031
11 *652:11 *666:9 0.0552692
12 *654:11 *666:9 0.0552752
*RES
1 *740:mem_rdata[15] *666:7 3.72177 
2 *666:7 *666:9 115.689 
3 *666:9 *666:11 3.41 
4 *666:11 *666:13 103.679 
5 *666:13 *739:mem_rdata_i[15] 0.0767667 
*END

*D_NET *667 0.704812
*CONN
*I *739:mem_rdata_i[16] I *D ntt_wb_bridge
*I *740:mem_rdata[16] O *D ntt_engine_256
*CAP
1 *739:mem_rdata_i[16] 3.8555e-05
2 *740:mem_rdata[16] 0.000579109
3 *667:19 0.035545
4 *667:17 0.0355064
5 *667:15 0.0302064
6 *667:13 0.0302064
7 *667:11 0.0119782
8 *667:9 0.0125573
9 *667:11 *673:11 0.0684376
10 *667:11 *682:11 0.0684376
11 *667:15 *673:15 0.18858
12 *667:15 *715:11 0
13 *114:45 *667:15 0.0139955
14 *652:11 *667:15 0.0156565
15 *654:11 *667:15 0.00159468
16 *663:23 *667:15 0.191493
*RES
1 *740:mem_rdata[16] *667:9 13.9457 
2 *667:9 *667:11 108.868 
3 *667:11 *667:13 3.41 
4 *667:13 *667:15 2349.77 
5 *667:15 *667:17 3.41 
6 *667:17 *667:19 103.571 
7 *667:19 *739:mem_rdata_i[16] 0.0767667 
*END

*D_NET *668 0.286482
*CONN
*I *739:mem_rdata_i[17] I *D ntt_wb_bridge
*I *740:mem_rdata[17] O *D ntt_engine_256
*CAP
1 *739:mem_rdata_i[17] 0.000370491
2 *740:mem_rdata[17] 0.00142029
3 *668:23 0.00320457
4 *668:21 0.00283408
5 *668:19 0.00427558
6 *668:17 0.00438666
7 *668:11 0.011682
8 *668:9 0.0129912
9 *739:mem_rdata_i[17] *712:24 0.000100707
10 *668:11 *740:mem_we 0.00157402
11 *668:11 *676:19 0.000202507
12 *668:11 *678:11 0.0806631
13 *668:11 *701:23 0.0201712
14 *668:11 *711:15 4.1819e-05
15 *668:11 *713:15 0.00143132
16 *668:11 *728:23 0.0570173
17 *668:19 *678:19 0.0305353
18 *668:19 *711:15 0.00127225
19 *668:23 *678:23 0.00804691
20 *668:23 *687:15 0.0131723
21 *668:23 *712:24 0.00197466
22 *668:23 *719:9 0.00284438
23 *353:19 *668:19 0.0055383
24 *378:23 *668:19 0.0049304
25 *384:17 *668:11 0.001422
26 *386:21 *668:11 7.17259e-05
27 *386:21 *668:17 0.000111517
28 *656:15 *668:19 0.0141957
*RES
1 *740:mem_rdata[17] *668:9 28.1064 
2 *668:9 *668:11 128.686 
3 *668:11 *668:17 10.0082 
4 *668:17 *668:19 287.214 
5 *668:19 *668:21 4.5 
6 *668:21 *668:23 164.509 
7 *668:23 *739:mem_rdata_i[17] 4.23407 
*END

*D_NET *669 0.502161
*CONN
*I *739:mem_rdata_i[18] I *D ntt_wb_bridge
*I *740:mem_rdata[18] O *D ntt_engine_256
*CAP
1 *739:mem_rdata_i[18] 3.8555e-05
2 *740:mem_rdata[18] 0.00191664
3 *669:19 0.0369845
4 *669:17 0.0381982
5 *669:11 0.0410164
6 *669:9 0.0416808
7 *669:11 *674:13 0
8 *669:11 *680:11 0.126219
9 *669:11 *686:11 0.000267184
10 *669:11 *721:11 0.0345539
11 *669:17 *721:11 0.00104694
12 *669:19 *686:21 1.3791e-05
13 *669:19 *708:15 0
14 *669:19 *738:17 4.49449e-05
15 *73:24 *669:11 0.00232375
16 *75:17 *669:11 0.0308816
17 *76:23 *669:11 0.0345531
18 *102:27 *669:11 0.00063521
19 *102:27 *669:17 0.00495008
20 *113:19 *669:11 0.0308816
21 *113:19 *669:17 0.00117113
22 *659:15 *669:11 0.0729062
23 *659:15 *669:17 0.00187749
*RES
1 *740:mem_rdata[18] *669:9 7.3815 
2 *669:9 *669:11 298.588 
3 *669:11 *669:17 13.8409 
4 *669:17 *669:19 106.85 
5 *669:19 *739:mem_rdata_i[18] 0.0767667 
*END

*D_NET *670 0.0362254
*CONN
*I *739:mem_rdata_i[19] I *D ntt_wb_bridge
*I *740:mem_rdata[19] O *D ntt_engine_256
*CAP
1 *739:mem_rdata_i[19] 0.00683197
2 *740:mem_rdata[19] 0.00115445
3 *670:15 0.0150351
4 *670:13 0.00935762
5 *739:mem_rdata_i[19] *708:15 0.00360921
6 la_data_out[88] *670:15 0
7 *101:23 *670:13 0
8 *651:15 *670:13 0.000237044
*RES
1 *740:mem_rdata[19] *670:13 24.8957 
2 *670:13 *670:15 162.232 
3 *670:15 *739:mem_rdata_i[19] 25.1898 
*END

*D_NET *671 0.590348
*CONN
*I *739:mem_rdata_i[1] I *D ntt_wb_bridge
*I *740:mem_rdata[1] O *D ntt_engine_256
*CAP
1 *739:mem_rdata_i[1] 3.36392e-05
2 *740:mem_rdata[1] 0.00389709
3 *671:21 0.0387362
4 *671:19 0.0387026
5 *671:17 0.0493093
6 *671:15 0.0532064
7 *671:15 *679:11 0.0196995
8 *671:15 *715:23 0.0205888
9 *671:15 *720:21 0.0011913
10 *671:15 *721:15 0.000277844
11 *671:15 *732:25 7.48846e-05
12 *671:15 *732:27 0.00393762
13 *671:17 *674:13 0.0203719
14 *671:17 *681:11 0.0131836
15 *671:17 *720:11 0.200378
16 *671:17 *723:11 0.0066088
17 *78:153 *671:17 0.0420438
18 *115:143 *671:21 0.000426772
19 *115:211 *671:17 0.000283237
20 *141:17 *671:17 0.0731297
21 *648:11 *671:17 0
22 *648:15 *671:15 0.00426633
*RES
1 *740:mem_rdata[1] *671:15 48.4443 
2 *671:15 *671:17 2456.62 
3 *671:17 *671:19 3.41 
4 *671:19 *671:21 105.949 
5 *671:21 *739:mem_rdata_i[1] 0.0767667 
*END

*D_NET *672 0.182175
*CONN
*I *739:mem_rdata_i[20] I *D ntt_wb_bridge
*I *740:mem_rdata[20] O *D ntt_engine_256
*CAP
1 *739:mem_rdata_i[20] 3.8555e-05
2 *740:mem_rdata[20] 0
3 *672:10 0.035484
4 *672:8 0.0354454
5 *672:6 0.00834999
6 *672:4 0.00834999
7 *672:6 *740:mem_wdata[16] 0.000207921
8 *672:6 *740:mem_wdata[6] 0.000437196
9 *672:6 *679:15 0.00409955
10 *77:127 *672:10 0
11 *77:141 *672:6 0.0214692
12 *114:25 *672:6 0.0146715
13 *114:35 *672:6 0.000120566
14 *652:11 *672:6 0.0365971
15 *663:23 *672:6 0.0169042
*RES
1 *740:mem_rdata[20] *672:4 3.41 
2 *672:4 *672:6 76.6977 
3 *672:6 *672:8 3.41 
4 *672:8 *672:10 103.391 
5 *672:10 *739:mem_rdata_i[20] 0.0767667 
*END

*D_NET *673 0.777635
*CONN
*I *739:mem_rdata_i[21] I *D ntt_wb_bridge
*I *740:mem_rdata[21] O *D ntt_engine_256
*CAP
1 *739:mem_rdata_i[21] 3.8555e-05
2 *740:mem_rdata[21] 0.000512503
3 *673:19 0.0356189
4 *673:17 0.0355804
5 *673:15 0.0298229
6 *673:13 0.0298229
7 *673:11 0.0164906
8 *673:9 0.0170031
9 *673:11 *682:11 0.0102801
10 *673:11 *714:31 0.0201394
11 *673:11 *715:23 3.11358e-05
12 *673:11 *721:15 0.0598562
13 *673:15 *679:15 0.184847
14 *673:15 *714:27 2.1059e-05
15 *673:15 *715:11 0
16 *114:45 *673:15 0.0139955
17 *646:11 *673:11 0.0398214
18 *652:11 *673:15 0.0168708
19 *653:21 *673:15 3.838e-05
20 *658:47 *673:11 0.00982603
21 *667:11 *673:11 0.0684376
22 *667:15 *673:15 0.18858
*RES
1 *740:mem_rdata[21] *673:9 12.9279 
2 *673:9 *673:11 155.423 
3 *673:11 *673:13 3.41 
4 *673:13 *673:15 2312.73 
5 *673:15 *673:17 3.41 
6 *673:17 *673:19 103.643 
7 *673:19 *739:mem_rdata_i[21] 0.0767667 
*END

*D_NET *674 0.501794
*CONN
*I *739:mem_rdata_i[22] I *D ntt_wb_bridge
*I *740:mem_rdata[22] O *D ntt_engine_256
*CAP
1 *739:mem_rdata_i[22] 3.8555e-05
2 *740:mem_rdata[22] 0.00156414
3 *674:17 0.0365852
4 *674:15 0.0365467
5 *674:13 0.0534598
6 *674:11 0.0550239
7 *674:13 *681:11 0.054592
8 *674:13 *694:11 0.0330735
9 *674:13 *720:11 0.0113753
10 *674:13 *723:11 0.153325
11 *674:13 *732:11 0.0369968
12 *78:153 *674:13 0.00643208
13 *141:17 *674:13 0.00240991
14 *659:15 *674:13 0
15 *669:11 *674:13 0
16 *671:17 *674:13 0.0203719
*RES
1 *740:mem_rdata[22] *674:11 6.5261 
2 *674:11 *674:13 320.073 
3 *674:13 *674:15 3.41 
4 *674:15 *674:17 105.697 
5 *674:17 *739:mem_rdata_i[22] 0.0767667 
*END

*D_NET *675 0.601545
*CONN
*I *739:mem_rdata_i[23] I *D ntt_wb_bridge
*I *740:mem_rdata[23] O *D ntt_engine_256
*CAP
1 *739:mem_rdata_i[23] 0.00251043
2 *740:mem_rdata[23] 0.00143448
3 *675:31 0.00442639
4 *675:29 0.00191596
5 *675:27 0.0665089
6 *675:25 0.0682016
7 *675:15 0.0708284
8 *675:13 0.0705702
9 *739:mem_rdata_i[23] *717:11 7.73407e-05
10 *675:13 *704:45 0.00152687
11 *675:13 *734:41 0.000829045
12 *675:15 *734:35 0.173344
13 *675:25 *704:31 5.46123e-05
14 *675:25 *710:31 0.000699979
15 *675:25 *734:31 0
16 *675:27 *676:19 0.00556044
17 *675:27 *677:23 0.000355858
18 *675:27 *683:15 0.0240771
19 *675:31 *677:27 0.00893019
20 *675:31 *733:37 0.000841434
21 *675:31 *734:19 0.00994546
22 *82:25 *675:15 0
23 *105:19 *675:31 0.000570903
24 *359:25 *675:27 0.000976476
25 *360:31 *739:mem_rdata_i[23] 0.00014183
26 *378:23 *675:27 0
27 *540:17 *675:13 0.00121619
28 *650:31 *675:25 0.000305512
29 *656:15 *675:27 0
30 *661:23 *675:27 0.0825199
31 *662:19 *675:15 9.96517e-05
32 *662:31 *675:27 0
33 *664:19 *675:25 0.00307641
*RES
1 *740:mem_rdata[23] *675:13 18.7848 
2 *675:13 *675:15 2163.38 
3 *675:15 *675:25 23.249 
4 *675:25 *675:27 1567.41 
5 *675:27 *675:29 4.5 
6 *675:29 *675:31 123.679 
7 *675:31 *739:mem_rdata_i[23] 32.1547 
*END

*D_NET *676 0.447004
*CONN
*I *739:mem_rdata_i[24] I *D ntt_wb_bridge
*I *740:mem_rdata[24] O *D ntt_engine_256
*CAP
1 *739:mem_rdata_i[24] 0.00284383
2 *740:mem_rdata[24] 0.00351547
3 *676:31 0.00705395
4 *676:29 0.00421012
5 *676:27 0.00226196
6 *676:25 0.00234592
7 *676:19 0.0254064
8 *676:17 0.0288379
9 *739:mem_rdata_i[24] *706:11 0.00012022
10 *739:mem_rdata_i[24] *716:11 0.000118506
11 *676:17 *677:11 0.00891664
12 *676:17 *683:13 0.000160437
13 *676:17 *691:19 0.0017925
14 *676:17 *709:19 0.00160242
15 *676:19 *677:23 0.00157993
16 *676:19 *678:11 0.00280395
17 *676:19 *683:15 0.136875
18 *676:19 *696:23 0.138189
19 *676:19 *713:15 1.20131e-05
20 *676:27 *696:15 0.0126006
21 *676:31 *691:27 1.08359e-05
22 *101:23 *676:27 0.000143439
23 *352:17 *676:19 0.00330942
24 *357:27 *676:31 0
25 *359:25 *676:19 7.17259e-05
26 *359:25 *676:25 5.05056e-05
27 *359:25 *676:27 0.00276742
28 *362:23 *676:27 0.00220726
29 *384:17 *676:19 0.00441234
30 *386:21 *676:19 9.77021e-06
31 *650:23 *676:19 0.000758616
32 *656:23 *676:19 1.45707e-05
33 *657:15 *676:19 0.00190595
34 *657:15 *676:27 0.000119421
35 *661:15 *676:19 0.00775525
36 *661:23 *676:19 0.0015832
37 *664:15 *676:17 0.00882937
38 *664:27 *676:27 0.0166466
39 *664:31 *676:31 0.00939901
40 *668:11 *676:19 0.000202507
41 *675:27 *676:19 0.00556044
*RES
1 *740:mem_rdata[24] *676:17 28.7048 
2 *676:17 *676:19 253.397 
3 *676:19 *676:25 9.0975 
4 *676:25 *676:27 157.429 
5 *676:27 *676:29 4.5 
6 *676:29 *676:31 118.821 
7 *676:31 *739:mem_rdata_i[24] 41.0973 
*END

*D_NET *677 0.61475
*CONN
*I *739:mem_rdata_i[25] I *D ntt_wb_bridge
*I *740:mem_rdata[25] O *D ntt_engine_256
*CAP
1 *739:mem_rdata_i[25] 0.00231626
2 *740:mem_rdata[25] 0.00113951
3 *677:27 0.00412603
4 *677:25 0.00180976
5 *677:23 0.00403615
6 *677:21 0.00424776
7 *677:15 0.0289409
8 *677:13 0.0287293
9 *677:11 0.0289784
10 *677:9 0.0301179
11 *739:mem_rdata_i[25] *706:11 6.97631e-05
12 *739:mem_rdata_i[25] *716:11 6.80962e-05
13 *677:11 *683:13 0.0167869
14 *677:11 *688:11 0.00656031
15 *677:11 *691:11 0.0153982
16 *677:11 *691:19 0.00682175
17 *677:11 *702:22 0.0206895
18 *677:11 *709:19 0.000111243
19 *677:11 *718:27 0.0169206
20 *677:11 *736:34 0.0469649
21 *677:21 *687:9 0
22 *677:27 *733:37 0.000527535
23 *677:27 *734:19 2.49484e-05
24 *105:19 *677:27 0.0086605
25 *116:109 *677:15 0.0031383
26 *116:111 *677:11 0.012353
27 *118:27 *677:11 0.0146374
28 *354:27 *677:27 0
29 *359:25 *677:23 0.00276742
30 *650:23 *677:23 0.0235028
31 *650:31 *677:15 0.15088
32 *656:27 *677:11 0.0218109
33 *656:33 *677:9 4.73891e-05
34 *656:35 *677:11 6.40846e-05
35 *657:15 *677:15 0.0165074
36 *661:15 *677:15 0.0222973
37 *661:23 *677:23 0.0263942
38 *662:23 *677:15 0.0159382
39 *662:31 *677:15 0.0103034
40 *662:31 *677:23 0
41 *664:15 *677:11 0.000279228
42 *675:27 *677:23 0.000355858
43 *675:31 *677:27 0.00893019
44 *676:17 *677:11 0.00891664
45 *676:19 *677:23 0.00157993
*RES
1 *740:mem_rdata[25] *677:9 5.7271 
2 *677:9 *677:11 183.284 
3 *677:11 *677:13 3.41 
4 *677:13 *677:15 234.948 
5 *677:15 *677:21 11.5261 
6 *677:21 *677:23 255.179 
7 *677:23 *677:25 4.5 
8 *677:25 *677:27 111.839 
9 *677:27 *739:mem_rdata_i[25] 33.8122 
*END

*D_NET *678 0.30259
*CONN
*I *739:mem_rdata_i[26] I *D ntt_wb_bridge
*I *740:mem_rdata[26] O *D ntt_engine_256
*CAP
1 *739:mem_rdata_i[26] 8.25766e-05
2 *740:mem_rdata[26] 0.00138244
3 *678:23 0.00189176
4 *678:21 0.00180918
5 *678:19 0.00396876
6 *678:17 0.00415577
7 *678:11 0.0130225
8 *678:9 0.014218
9 *678:11 *683:15 0.0858175
10 *678:11 *701:23 0.00570494
11 *678:19 *711:15 0.00179513
12 *678:19 *728:15 0.0324913
13 *678:23 *712:24 0.000258184
14 *678:23 *719:9 0.00804691
15 *353:19 *678:19 0.00513605
16 *378:23 *678:19 1.98839e-05
17 *656:15 *678:19 0.000739629
18 *668:11 *678:11 0.0806631
19 *668:19 *678:19 0.0305353
20 *668:23 *678:23 0.00804691
21 *676:19 *678:11 0.00280395
*RES
1 *740:mem_rdata[26] *678:9 27.4993 
2 *678:9 *678:11 141.154 
3 *678:11 *678:17 10.9189 
4 *678:17 *678:19 305.696 
5 *678:19 *678:21 4.5 
6 *678:21 *678:23 101.366 
7 *678:23 *739:mem_rdata_i[26] 3.61367 
*END

*D_NET *679 0.82278
*CONN
*I *739:mem_rdata_i[27] I *D ntt_wb_bridge
*I *740:mem_rdata[27] O *D ntt_engine_256
*CAP
1 *739:mem_rdata_i[27] 3.8555e-05
2 *740:mem_rdata[27] 0.000299632
3 *679:19 0.0357045
4 *679:17 0.0356659
5 *679:15 0.0297105
6 *679:13 0.0297105
7 *679:11 0.0334052
8 *679:9 0.0337049
9 *679:11 *685:21 0.0344012
10 *679:11 *715:23 0.000168074
11 *679:11 *732:25 0.000245378
12 *679:15 *714:27 0.00863069
13 *679:15 *715:11 0.00632145
14 *77:145 *679:15 0.153031
15 *78:175 *679:11 0
16 *114:45 *679:15 0.0194636
17 *540:17 *679:11 0.0495858
18 *646:19 *679:11 0.010843
19 *654:11 *679:15 0.00772295
20 *658:39 *679:11 0.0120817
21 *663:11 *679:11 0.110006
22 *666:9 *679:15 0.00339274
23 *671:15 *679:11 0.0196995
24 *672:6 *679:15 0.00409955
25 *673:15 *679:15 0.184847
*RES
1 *740:mem_rdata[27] *679:9 9.26714 
2 *679:9 *679:11 202.626 
3 *679:11 *679:13 3.41 
4 *679:13 *679:15 2266.59 
5 *679:15 *679:17 3.41 
6 *679:17 *679:19 103.715 
7 *679:19 *739:mem_rdata_i[27] 0.0767667 
*END

*D_NET *680 0.415938
*CONN
*I *739:mem_rdata_i[28] I *D ntt_wb_bridge
*I *740:mem_rdata[28] O *D ntt_engine_256
*CAP
1 *739:mem_rdata_i[28] 3.8555e-05
2 *740:mem_rdata[28] 0.00166568
3 *680:15 0.0371526
4 *680:13 0.037114
5 *680:11 0.0441322
6 *680:9 0.0457979
7 *680:11 *686:11 0.027193
8 *73:24 *680:11 0.0222874
9 *102:27 *680:11 0.0439343
10 *665:11 *680:11 0.0304034
11 *669:11 *680:11 0.126219
*RES
1 *740:mem_rdata[28] *680:9 7.0995 
2 *680:9 *680:11 263.397 
3 *680:11 *680:13 3.41 
4 *680:13 *680:15 106.85 
5 *680:15 *739:mem_rdata_i[28] 0.0767667 
*END

*D_NET *681 0.220818
*CONN
*I *739:mem_rdata_i[29] I *D ntt_wb_bridge
*I *740:mem_rdata[29] O *D ntt_engine_256
*CAP
1 *739:mem_rdata_i[29] 3.8555e-05
2 *740:mem_rdata[29] 0.00134692
3 *681:15 0.0367064
4 *681:13 0.0366679
5 *681:11 0.0205323
6 *681:9 0.0218793
7 *681:11 *720:11 0.0117696
8 *78:137 *681:11 0.00737151
9 *141:17 *681:11 0.0103096
10 *659:15 *681:11 0.00642073
11 *671:17 *681:11 0.0131836
12 *674:13 *681:11 0.054592
*RES
1 *740:mem_rdata[29] *681:9 6.09057 
2 *681:9 *681:11 114.038 
3 *681:11 *681:13 3.41 
4 *681:13 *681:15 105.841 
5 *681:15 *739:mem_rdata_i[29] 0.0767667 
*END

*D_NET *682 0.640691
*CONN
*I *739:mem_rdata_i[2] I *D ntt_wb_bridge
*I *740:mem_rdata[2] O *D ntt_engine_256
*CAP
1 *739:mem_rdata_i[2] 0.0038456
2 *740:mem_rdata[2] 0.000598879
3 *682:39 0.0168417
4 *682:37 0.0129961
5 *682:35 0.0199165
6 *682:33 0.0199165
7 *682:31 0.0012127
8 *682:29 0.00146182
9 *682:23 0.00640915
10 *682:21 0.00626262
11 *682:15 0.0267147
12 *682:13 0.0266121
13 *682:11 0.0333463
14 *682:9 0.0339452
15 *682:11 *721:15 2.29832e-05
16 *682:15 *685:25 0.137774
17 *682:15 *730:19 0.000133309
18 *682:21 *685:39 0.000134422
19 *682:23 *685:41 0.00373675
20 *682:23 *714:27 0
21 *682:23 *724:23 0.00153612
22 *682:29 *685:47 0.000129624
23 *682:29 *715:17 0.000354517
24 *682:31 *690:11 0.00629371
25 *682:31 *738:19 0.00629371
26 *682:35 *690:15 0
27 *78:175 *682:11 0.000253973
28 *114:37 *682:23 0.00586926
29 *140:17 *682:39 0.00400567
30 *646:23 *682:15 0.0814262
31 *646:23 *682:23 0.0232885
32 *653:21 *682:11 0.000268543
33 *658:11 *682:39 0.01159
34 *658:15 *682:35 0.0614196
35 *658:27 *682:15 0.00707021
36 *658:47 *682:11 0.000292288
37 *667:11 *682:11 0.0684376
38 *673:11 *682:11 0.0102801
*RES
1 *740:mem_rdata[2] *682:9 14.1421 
2 *682:9 *682:11 141.226 
3 *682:11 *682:13 3.41 
4 *682:13 *682:15 1782.09 
5 *682:15 *682:21 7.0832 
6 *682:21 *682:23 285.482 
7 *682:23 *682:29 7.44353 
8 *682:29 *682:31 78.4464 
9 *682:31 *682:33 3.41 
10 *682:33 *682:35 96.0038 
11 *682:35 *682:37 3.41 
12 *682:37 *682:39 53.8463 
13 *682:39 *739:mem_rdata_i[2] 12.47 
*END

*D_NET *683 0.450333
*CONN
*I *739:mem_rdata_i[30] I *D ntt_wb_bridge
*I *740:mem_rdata[30] O *D ntt_engine_256
*CAP
1 *739:mem_rdata_i[30] 0.0018491
2 *740:mem_rdata[30] 0.00665428
3 *683:27 0.00470749
4 *683:25 0.00285839
5 *683:23 0.00631447
6 *683:21 0.00660302
7 *683:15 0.021976
8 *683:13 0.0283417
9 *739:mem_rdata_i[30] *706:11 6.97631e-05
10 *739:mem_rdata_i[30] *716:11 6.80962e-05
11 *683:13 *688:11 0.00465511
12 *683:15 *701:23 0.0187844
13 *683:23 *701:15 0.00312254
14 *683:23 *728:15 0.00334884
15 *94:21 *683:13 0.000539847
16 *116:111 *683:13 0.00322695
17 *118:27 *683:13 0.00351832
18 *282:19 *683:27 0
19 *365:19 *683:27 0.00445864
20 *370:19 *683:27 8.44271e-06
21 *371:19 *683:27 1.14483e-05
22 *375:15 *683:23 0.00779691
23 *384:21 *683:23 2.44318e-05
24 *386:23 *683:23 0.0267662
25 *390:15 *683:23 0.0307921
26 *647:15 *683:27 0
27 *656:15 *683:23 0
28 *656:23 *683:15 0.000119777
29 *661:27 *683:27 0
30 *675:27 *683:15 0.0240771
31 *676:17 *683:13 0.000160437
32 *676:19 *683:15 0.136875
33 *677:11 *683:13 0.0167869
34 *678:11 *683:15 0.0858175
*RES
1 *740:mem_rdata[30] *683:13 44.9417 
2 *683:13 *683:15 213.184 
3 *683:15 *683:21 12.7404 
4 *683:21 *683:23 369.768 
5 *683:23 *683:25 4.5 
6 *683:25 *683:27 69.3393 
7 *683:27 *739:mem_rdata_i[30] 25.2937 
*END

*D_NET *684 0.0832271
*CONN
*I *739:mem_rdata_i[31] I *D ntt_wb_bridge
*I *740:mem_rdata[31] O *D ntt_engine_256
*CAP
1 *739:mem_rdata_i[31] 0.00930279
2 *740:mem_rdata[31] 0.000643527
3 *684:15 0.0134134
4 *684:13 0.0107327
5 *684:9 0.00726558
6 *684:13 *740:mem_re 0.00739728
7 *684:13 *740:mem_wdata[11] 0.0167194
8 *684:13 *699:15 0
9 *684:13 *705:17 0.012891
10 *660:11 *684:13 0.0048614
*RES
1 *740:mem_rdata[31] *684:9 15.9636 
2 *684:9 *684:13 48.3545 
3 *684:13 *684:15 79.0536 
4 *684:15 *739:mem_rdata_i[31] 28.4328 
*END

*D_NET *685 0.724111
*CONN
*I *739:mem_rdata_i[3] I *D ntt_wb_bridge
*I *740:mem_rdata[3] O *D ntt_engine_256
*CAP
1 *739:mem_rdata_i[3] 0.00131362
2 *740:mem_rdata[3] 0.000592811
3 *685:53 0.0311175
4 *685:51 0.0298038
5 *685:49 0.0112057
6 *685:47 0.0114364
7 *685:41 0.0183736
8 *685:39 0.0182235
9 *685:33 0.00280432
10 *685:31 0.00284839
11 *685:25 0.0388037
12 *685:23 0.0386791
13 *685:21 0.0303786
14 *685:19 0.030631
15 *685:13 0.0193793
16 *685:11 0.0197197
17 *739:mem_rdata_i[3] *717:11 3.64726e-05
18 *685:21 *740:mem_slot[1] 0.00073031
19 *685:21 *714:31 0
20 *685:25 *708:27 0.0038096
21 *685:25 *715:19 0
22 *685:25 *730:19 0.0598511
23 *685:33 *714:27 0
24 *685:41 *700:19 0.00501731
25 *685:41 *724:23 0.00731945
26 *685:47 *740:mem_wdata[16] 0
27 *685:47 *715:17 9.92651e-05
28 *685:49 *714:19 0
29 *685:49 *715:11 0.0135812
30 *78:161 *685:25 0
31 *114:37 *685:49 0.00554221
32 *114:45 *685:41 0.00101398
33 *115:219 *685:25 0
34 *115:233 *685:21 0
35 *360:31 *739:mem_rdata_i[3] 6.80962e-05
36 *540:17 *685:21 0.00622238
37 *646:11 *685:13 0.0111707
38 *646:19 *685:21 0.000165719
39 *646:23 *685:33 0.00727035
40 *646:23 *685:41 0.00388176
41 *648:15 *685:21 2.97829e-05
42 *654:11 *685:41 0
43 *654:11 *685:49 0.00561822
44 *658:19 *685:49 0.00628039
45 *658:33 *685:31 0
46 *658:35 *685:33 0
47 *658:39 *685:21 0.0849945
48 *658:47 *685:13 0.0199208
49 *679:11 *685:21 0.0344012
50 *682:15 *685:25 0.137774
51 *682:21 *685:39 0.000134422
52 *682:23 *685:41 0.00373675
53 *682:29 *685:47 0.000129624
*RES
1 *740:mem_rdata[3] *685:11 15.0886 
2 *685:11 *685:13 78.5276 
3 *685:13 *685:19 11.8296 
4 *685:19 *685:21 888.911 
5 *685:21 *685:23 4.5 
6 *685:23 *685:25 1688.59 
7 *685:25 *685:31 10.7679 
8 *685:31 *685:33 89.2232 
9 *685:33 *685:39 7.04717 
10 *685:39 *685:41 50.3307 
11 *685:41 *685:47 7.33543 
12 *685:47 *685:49 376.402 
13 *685:49 *685:51 4.5 
14 *685:51 *685:53 577.589 
15 *685:53 *739:mem_rdata_i[3] 11.6202 
*END

*D_NET *686 0.521672
*CONN
*I *739:mem_rdata_i[4] I *D ntt_wb_bridge
*I *740:mem_rdata[4] O *D ntt_engine_256
*CAP
1 *739:mem_rdata_i[4] 3.1622e-05
2 *740:mem_rdata[4] 0.00188919
3 *686:23 0.0368152
4 *686:21 0.0394952
5 *686:11 0.029979
6 *686:9 0.0291565
7 *686:11 *721:11 0.174545
8 *73:24 *686:11 0.00553942
9 *73:24 *686:21 0.000909132
10 *75:17 *686:21 0.00177922
11 *76:23 *686:21 0.00199921
12 *102:27 *686:21 0.0044257
13 *113:19 *686:21 0.00177922
14 *659:15 *686:21 0.00443021
15 *665:11 *686:11 0.160424
16 *665:21 *686:11 0.00100048
17 *669:11 *686:11 0.000267184
18 *669:19 *686:21 1.3791e-05
19 *680:11 *686:11 0.027193
*RES
1 *740:mem_rdata[4] *686:9 7.56167 
2 *686:9 *686:11 2139.09 
3 *686:11 *686:21 27.9756 
4 *686:21 *686:23 106.706 
5 *686:23 *739:mem_rdata_i[4] 0.0767667 
*END

*D_NET *687 0.0914578
*CONN
*I *739:mem_rdata_i[5] I *D ntt_wb_bridge
*I *740:mem_rdata[5] O *D ntt_engine_256
*CAP
1 *739:mem_rdata_i[5] 0.000339478
2 *740:mem_rdata[5] 0.00121376
3 *687:15 0.0054174
4 *687:13 0.00977583
5 *687:9 0.00591167
6 *739:mem_rdata_i[5] *711:11 0.000102907
7 *739:mem_rdata_i[5] *712:12 0.000363819
8 *687:15 *697:11 0
9 *687:15 *702:14 0.000113898
10 *687:15 *712:24 0.00255945
11 *687:15 *713:11 0.0112224
12 *687:15 *719:9 0.00280624
13 *356:29 *687:13 0.00967046
14 *358:25 *687:13 0.00157512
15 *650:31 *687:13 0.00092591
16 *657:15 *687:13 0.0247873
17 *662:31 *687:13 0.00149984
18 *668:23 *687:15 0.0131723
19 *677:21 *687:9 0
*RES
1 *740:mem_rdata[5] *687:9 24.4636 
2 *687:9 *687:13 42.1568 
3 *687:13 *687:15 256.339 
4 *687:15 *739:mem_rdata_i[5] 4.209 
*END

*D_NET *688 0.594395
*CONN
*I *739:mem_rdata_i[6] I *D ntt_wb_bridge
*I *740:mem_rdata[6] O *D ntt_engine_256
*CAP
1 *739:mem_rdata_i[6] 0.00136588
2 *740:mem_rdata[6] 0.000949328
3 *688:27 0.00660644
4 *688:25 0.00524055
5 *688:23 0.0245597
6 *688:21 0.0257161
7 *688:11 0.0349841
8 *688:9 0.0347771
9 *739:mem_rdata_i[6] *712:12 0.000255549
10 *688:9 *737:41 2.9988e-05
11 *688:11 *740:mem_wdata[14] 0.000714836
12 *688:11 *740:mem_wdata[8] 0.00211879
13 *688:11 *689:11 0.00853362
14 *688:11 *691:11 0.00869907
15 *688:11 *701:27 0.0139937
16 *688:11 *726:27 0.000423043
17 *688:11 *726:35 0.0243095
18 *688:21 *726:27 0.00272194
19 *688:23 *702:18 0.175685
20 *688:23 *717:15 0.177172
21 *688:23 *718:15 5.76148e-05
22 *688:27 *689:27 0.0010631
23 *688:27 *716:11 0.0205743
24 *688:27 *717:11 0.000789544
25 *688:27 *718:11 0
26 *739:mem_rdata_i[10] *688:27 0.000243905
27 *94:21 *688:11 0.000436037
28 *94:21 *688:21 0.000552553
29 *118:27 *688:21 0
30 *364:19 *688:27 0.0106058
31 *677:11 *688:11 0.00656031
32 *683:13 *688:11 0.00465511
*RES
1 *740:mem_rdata[6] *688:9 5.2571 
2 *688:9 *688:11 190.635 
3 *688:11 *688:21 43.975 
4 *688:21 *688:23 275.918 
5 *688:23 *688:25 3.41 
6 *688:25 *688:27 270.304 
7 *688:27 *739:mem_rdata_i[6] 6.30207 
*END

*D_NET *689 0.741781
*CONN
*I *739:mem_rdata_i[7] I *D ntt_wb_bridge
*I *740:mem_rdata[7] O *D ntt_engine_256
*CAP
1 *739:mem_rdata_i[7] 0.00118978
2 *740:mem_rdata[7] 0.000810928
3 *689:27 0.0146315
4 *689:23 0.03857
5 *689:21 0.0251282
6 *689:19 0.0149723
7 *689:17 0.0150574
8 *689:11 0.0182217
9 *689:9 0.0189475
10 *739:mem_rdata_i[7] *739:mem_rdata_i[8] 0
11 *739:mem_rdata_i[7] *712:12 0.000255549
12 *689:11 *740:mem_wdata[8] 6.40766e-05
13 *689:11 *691:11 0
14 *689:11 *706:35 0.0316834
15 *689:11 *717:27 0.00414034
16 *689:11 *737:43 0.0029909
17 *689:17 *740:mem_wdata[8] 0.000133908
18 *689:19 *740:mem_wdata[14] 0.000442689
19 *689:19 *706:27 0.000242167
20 *689:19 *706:35 0.0100346
21 *689:19 *716:27 0.0107064
22 *689:19 *717:19 0.0615169
23 *689:19 *737:35 0.0765654
24 *689:23 *691:23 0.000219017
25 *689:23 *709:15 0.176209
26 *689:23 *718:15 0
27 *689:23 *736:22 0.175156
28 *689:27 *701:11 0.00359925
29 *689:27 *706:11 0.00323284
30 *689:27 *716:11 0.000721382
31 *689:27 *718:11 0.0001326
32 *689:27 *725:11 0.00348079
33 *689:27 *726:11 0.0038937
34 *689:27 *737:11 0.0192343
35 *739:mem_rdata_i[11] *689:27 0
36 *101:19 *689:27 0
37 *688:11 *689:11 0.00853362
38 *688:27 *689:27 0.0010631
*RES
1 *740:mem_rdata[7] *689:9 4.96883 
2 *689:9 *689:11 98.9099 
3 *689:11 *689:17 7.04717 
4 *689:17 *689:19 938.768 
5 *689:19 *689:21 3.41 
6 *689:21 *689:23 275.161 
7 *689:23 *689:27 48.5206 
8 *689:27 *739:mem_rdata_i[7] 5.83363 
*END

*D_NET *690 0.27214
*CONN
*I *739:mem_rdata_i[8] I *D ntt_wb_bridge
*I *740:mem_rdata[8] O *D ntt_engine_256
*CAP
1 *739:mem_rdata_i[8] 0.00289654
2 *740:mem_rdata[8] 0.000946119
3 *690:19 0.0186139
4 *690:15 0.0488029
5 *690:13 0.0330856
6 *690:11 0.0174427
7 *690:9 0.0183888
8 *690:11 *705:23 0.0512158
9 *690:11 *715:19 0.0121869
10 *690:11 *738:19 0.0322676
11 *690:15 *691:23 0
12 *690:15 *699:15 0
13 *690:15 *700:17 0.000263573
14 *690:15 *703:15 0
15 *690:19 *708:11 0.00653529
16 *690:19 *710:19 0.00434778
17 *690:19 *733:11 0
18 *690:19 *733:37 0
19 *739:mem_rdata_i[7] *739:mem_rdata_i[8] 0
20 *740:mem_addr[3] *690:9 0
21 *115:219 *690:11 0.0074486
22 *354:27 *690:19 0.00246817
23 *375:19 *690:19 0.00267008
24 *378:27 *690:19 0.00249743
25 *650:19 *690:19 0.00376826
26 *682:31 *690:11 0.00629371
27 *682:35 *690:15 0
*RES
1 *740:mem_rdata[8] *690:9 5.36833 
2 *690:9 *690:11 921.768 
3 *690:11 *690:13 3.41 
4 *690:13 *690:15 98.8144 
5 *690:15 *690:19 48.5206 
6 *690:19 *739:mem_rdata_i[8] 9.7315 
*END

*D_NET *691 0.717758
*CONN
*I *739:mem_rdata_i[9] I *D ntt_wb_bridge
*I *740:mem_rdata[9] O *D ntt_engine_256
*CAP
1 *739:mem_rdata_i[9] 0.002895
2 *740:mem_rdata[9] 0.000767614
3 *691:27 0.00733669
4 *691:25 0.00444169
5 *691:23 0.0425452
6 *691:21 0.0425452
7 *691:19 0.0139957
8 *691:17 0.0141196
9 *691:11 0.0458379
10 *691:9 0.0464816
11 *691:11 *702:30 0.00577631
12 *691:11 *737:43 0
13 *691:17 *740:op[0] 1.56905e-05
14 *691:19 *709:19 0.0539985
15 *691:19 *729:27 2.00751e-05
16 *691:19 *736:34 0.0113328
17 *691:23 *695:33 0
18 *691:23 *706:23 0
19 *691:23 *709:15 0.176872
20 *691:23 *712:34 0.030324
21 *691:23 *716:23 0
22 *691:27 *710:19 0.0190361
23 *116:111 *691:11 0.0100137
24 *118:27 *691:11 0.0305039
25 *357:25 *691:23 0.00647427
26 *357:27 *691:27 0
27 *656:27 *691:19 0.0694042
28 *656:35 *691:11 0.03403
29 *664:31 *691:27 0.0160489
30 *676:17 *691:19 0.0017925
31 *676:31 *691:27 1.08359e-05
32 *677:11 *691:11 0.0153982
33 *677:11 *691:19 0.00682175
34 *688:11 *691:11 0.00869907
35 *689:11 *691:11 0
36 *689:23 *691:23 0.000219017
37 *690:15 *691:23 0
*RES
1 *740:mem_rdata[9] *691:9 5.26337 
2 *691:9 *691:11 213.54 
3 *691:11 *691:17 7.04717 
4 *691:17 *691:19 850.732 
5 *691:19 *691:21 3.41 
6 *691:21 *691:23 280.747 
7 *691:23 *691:25 3.41 
8 *691:25 *691:27 243.589 
9 *691:27 *739:mem_rdata_i[9] 9.91167 
*END

*D_NET *692 0.108653
*CONN
*I *740:mem_re I *D ntt_engine_256
*I *739:mem_re_o O *D ntt_wb_bridge
*CAP
1 *740:mem_re 0.0018073
2 *739:mem_re_o 0.00964141
3 *692:11 0.0237616
4 *692:9 0.0315957
5 la_data_out[90] *692:11 0.0270525
6 *660:11 *740:mem_re 0.00739728
7 *684:13 *740:mem_re 0.00739728
*RES
1 *739:mem_re_o *692:9 30.5948 
2 *692:9 *692:11 632.161 
3 *692:11 *740:mem_re 31.1477 
*END

*D_NET *693 0.115206
*CONN
*I *740:mem_slot[0] I *D ntt_engine_256
*I *739:mem_slot_o[0] O *D ntt_wb_bridge
*CAP
1 *740:mem_slot[0] 0.00260538
2 *739:mem_slot_o[0] 0.000243368
3 *693:11 0.0229412
4 *693:9 0.0205792
5 *693:9 *736:6 0.000360771
6 *693:11 *696:11 0.0425037
7 *693:11 *736:6 0.00944451
8 *693:11 *736:18 0.00970763
9 *79:20 *693:11 0.000997825
10 *295:29 *693:11 0
11 *352:17 *740:mem_slot[0] 0.00449076
12 *359:25 *740:mem_slot[0] 0.00106313
13 *359:41 *693:11 0
14 *531:17 *693:11 0.000166179
15 *657:15 *740:mem_slot[0] 0.000101991
*RES
1 *739:mem_slot_o[0] *693:9 3.99593 
2 *693:9 *693:11 603.625 
3 *693:11 *740:mem_slot[0] 38.5539 
*END

*D_NET *694 0.465597
*CONN
*I *740:mem_slot[1] I *D ntt_engine_256
*I *739:mem_slot_o[1] O *D ntt_wb_bridge
*CAP
1 *740:mem_slot[1] 0.00082394
2 *739:mem_slot_o[1] 2.28625e-05
3 *694:11 0.0529979
4 *694:9 0.0521739
5 *694:7 0.0356995
6 *694:5 0.0357223
7 *740:mem_slot[1] *732:25 2.11419e-05
8 *694:11 *720:11 0.113097
9 *694:11 *723:11 0.01019
10 *694:11 *732:11 0.123338
11 *694:11 *732:15 0.00604941
12 *74:31 *694:11 2.30116e-06
13 *77:55 *694:7 0
14 *78:55 *694:7 0.00117932
15 *141:17 *694:11 0
16 *648:15 *740:mem_slot[1] 6.178e-05
17 *663:23 *740:mem_slot[1] 0.000413027
18 *674:13 *694:11 0.0330735
19 *685:21 *740:mem_slot[1] 0.00073031
*RES
1 *739:mem_slot_o[1] *694:5 0.0767667 
2 *694:5 *694:7 105.733 
3 *694:7 *694:9 3.41 
4 *694:9 *694:11 2768.85 
5 *694:11 *740:mem_slot[1] 27.6696 
*END

*D_NET *695 0.938018
*CONN
*I *740:mem_target I *D ntt_engine_256
*I *739:mem_target_o O *D ntt_wb_bridge
*CAP
1 *740:mem_target 0.000401976
2 *739:mem_target_o 0.00327397
3 *695:47 0.00769741
4 *695:45 0.00841877
5 *695:35 0.0344182
6 *695:33 0.0356355
7 *695:23 0.0569367
8 *695:21 0.0545961
9 *695:19 0.0194194
10 *695:17 0.0194194
11 *695:15 0.00327397
12 *695:19 *707:11 0.000131056
13 *695:23 *704:23 0.000216208
14 *695:23 *710:23 0.000360406
15 *695:23 *734:23 0.130735
16 *695:33 *740:mem_wdata[30] 0
17 *695:33 *706:23 0.0100453
18 *695:33 *734:31 0.0112714
19 *695:35 *734:35 0.17339
20 *695:45 *740:slot_a[1] 0.00112276
21 *695:45 *710:39 0.00107982
22 *695:45 *734:41 0.000611639
23 *695:47 *704:47 0.0385118
24 *695:47 *710:39 0.0283631
25 *79:20 *695:15 0.000284346
26 *360:31 *695:15 0.000218081
27 *362:27 *695:19 0.0497402
28 *364:19 *695:15 8.56535e-05
29 *647:11 *695:23 0.0614474
30 *658:11 *695:19 0.00519408
31 *662:17 *695:45 0.00463685
32 *662:19 *695:35 0.173532
33 *664:19 *695:23 0.00354936
34 *691:23 *695:33 0
*RES
1 *739:mem_target_o *695:15 45.5112 
2 *695:15 *695:17 4.5 
3 *695:17 *695:19 616.679 
4 *695:19 *695:21 4.5 
5 *695:21 *695:23 1516.07 
6 *695:23 *695:33 32.943 
7 *695:33 *695:35 2162.16 
8 *695:35 *695:45 19.6463 
9 *695:45 *695:47 60.0065 
10 *695:47 *740:mem_target 10.8921 
*END

*D_NET *696 0.428565
*CONN
*I *740:mem_wdata[0] I *D ntt_engine_256
*I *739:mem_wdata_o[0] O *D ntt_wb_bridge
*CAP
1 *740:mem_wdata[0] 0.0012099
2 *739:mem_wdata_o[0] 0.000218768
3 *696:23 0.0224545
4 *696:21 0.0212926
5 *696:15 0.00255685
6 *696:13 0.00250885
7 *696:11 0.0084856
8 *696:9 0.00870437
9 *696:9 *736:6 0.000255549
10 *696:11 *697:11 0.0368419
11 *696:11 *736:6 0.00295222
12 *696:11 *736:16 0.000101822
13 *696:11 *736:18 0.00541867
14 *79:20 *696:11 0.000395891
15 *356:25 *696:21 5.00087e-06
16 *359:41 *696:11 0
17 *362:23 *696:15 0.00595241
18 *657:15 *696:15 0.00339265
19 *657:15 *696:23 0.0678076
20 *661:15 *696:23 0.0399147
21 *662:31 *696:15 0.00293676
22 *664:25 *696:21 5.42764e-05
23 *664:27 *696:15 0.00181102
24 *676:19 *696:23 0.138189
25 *676:27 *696:15 0.0126006
26 *693:11 *696:11 0.0425037
*RES
1 *739:mem_wdata_o[0] *696:9 3.99593 
2 *696:9 *696:11 526.67 
3 *696:11 *696:13 4.5 
4 *696:13 *696:15 149.214 
5 *696:15 *696:21 8.79393 
6 *696:21 *696:23 215.166 
7 *696:23 *740:mem_wdata[0] 24.8564 
*END

*D_NET *697 0.329473
*CONN
*I *740:mem_wdata[10] I *D ntt_engine_256
*I *739:mem_wdata_o[10] O *D ntt_wb_bridge
*CAP
1 *740:mem_wdata[10] 0.00072485
2 *739:mem_wdata_o[10] 0.000172912
3 *697:15 0.0152288
4 *697:13 0.0145039
5 *697:11 0.00722176
6 *697:9 0.00739468
7 *697:9 *736:6 0.000201414
8 *697:11 *702:12 0.000915135
9 *697:11 *702:14 0.00458078
10 *697:11 *711:11 0.0287386
11 *697:11 *712:24 5.87083e-05
12 *697:11 *713:11 1.74236e-05
13 *697:11 *719:9 0
14 *697:11 *736:16 0.000221395
15 *697:11 *736:18 0.000272226
16 *697:15 *706:23 0.0396618
17 *697:15 *716:23 0.000117546
18 *697:15 *722:19 0.0648646
19 *697:15 *727:15 0.10473
20 *359:41 *697:11 0.00300496
21 *687:15 *697:11 0
22 *696:11 *697:11 0.0368419
*RES
1 *739:mem_wdata_o[10] *697:9 3.8894 
2 *697:9 *697:11 462.768 
3 *697:11 *697:13 3.41 
4 *697:13 *697:15 163.062 
5 *697:15 *740:mem_wdata[10] 16.5707 
*END

*D_NET *698 0.104084
*CONN
*I *740:mem_wdata[11] I *D ntt_engine_256
*I *739:mem_wdata_o[11] O *D ntt_wb_bridge
*CAP
1 *740:mem_wdata[11] 0.00611532
2 *739:mem_wdata_o[11] 0.00796963
3 *698:11 0.0288294
4 *698:9 0.0306837
5 *740:mem_wdata[11] *699:15 0
6 *698:9 *724:15 0.0137663
7 *684:13 *740:mem_wdata[11] 0.0167194
*RES
1 *739:mem_wdata_o[11] *698:9 31.6758 
2 *698:9 *698:11 458.518 
3 *698:11 *740:mem_wdata[11] 44.8295 
*END

*D_NET *699 0.27926
*CONN
*I *740:mem_wdata[12] I *D ntt_engine_256
*I *739:mem_wdata_o[12] O *D ntt_wb_bridge
*CAP
1 *740:mem_wdata[12] 0.000931125
2 *739:mem_wdata_o[12] 0.00434757
3 *699:19 0.0286146
4 *699:17 0.0276835
5 *699:15 0.0208735
6 *699:13 0.0208735
7 *699:11 0.0255816
8 *699:9 0.0299292
9 *699:15 *700:17 0
10 *699:15 *703:15 0.0566248
11 *699:15 *705:17 0
12 *699:15 *705:21 0
13 *699:19 *705:23 0.00375425
14 *699:19 *715:19 0.0597464
15 *740:mem_wdata[11] *699:15 0
16 *74:31 *699:19 0
17 *78:129 *699:19 0.000299594
18 *651:15 *699:15 0
19 *660:11 *699:15 0
20 *684:13 *699:15 0
21 *690:15 *699:15 0
*RES
1 *739:mem_wdata_o[12] *699:9 14.3438 
2 *699:9 *699:11 79.8405 
3 *699:11 *699:13 3.41 
4 *699:13 *699:15 94.4183 
5 *699:15 *699:17 3.41 
6 *699:17 *699:19 835.554 
7 *699:19 *740:mem_wdata[12] 5.37147 
*END

*D_NET *700 0.193152
*CONN
*I *740:mem_wdata[13] I *D ntt_engine_256
*I *739:mem_wdata_o[13] O *D ntt_wb_bridge
*CAP
1 *740:mem_wdata[13] 0.000605883
2 *739:mem_wdata_o[13] 2.48797e-05
3 *700:19 0.00604537
4 *700:17 0.00610783
5 *700:11 0.0245726
6 *700:9 0.0239042
7 *700:7 0.0356754
8 *700:5 0.0357003
9 *700:17 *703:15 0.000176945
10 *700:19 *714:19 0.00701411
11 *700:19 *730:19 0.00392499
12 *77:87 *700:7 0.00280343
13 *114:25 *700:11 0.00371051
14 *646:23 *700:19 0.0127052
15 *646:41 *700:11 0.00226218
16 *658:27 *700:19 0.0226369
17 *685:41 *700:19 0.00501731
18 *690:15 *700:17 0.000263573
19 *699:15 *700:17 0
*RES
1 *739:mem_wdata_o[13] *700:5 0.0767667 
2 *700:5 *700:7 102.67 
3 *700:7 *700:9 3.41 
4 *700:9 *700:11 79.2013 
5 *700:11 *700:17 8.77677 
6 *700:17 *700:19 363.804 
7 *700:19 *740:mem_wdata[13] 4.72287 
*END

*D_NET *701 0.450807
*CONN
*I *740:mem_wdata[14] I *D ntt_engine_256
*I *739:mem_wdata_o[14] O *D ntt_wb_bridge
*CAP
1 *740:mem_wdata[14] 0.00127171
2 *739:mem_wdata_o[14] 0.000946423
3 *701:27 0.0101594
4 *701:25 0.00888765
5 *701:23 0.0144987
6 *701:21 0.0147415
7 *701:15 0.0327518
8 *701:13 0.032509
9 *701:11 0.0060477
10 *701:9 0.00699412
11 *740:mem_wdata[14] *706:27 0.000495203
12 *740:mem_wdata[14] *716:27 0.00206941
13 *740:mem_wdata[14] *717:19 0.000442689
14 *740:mem_wdata[14] *726:35 2.05803e-05
15 *740:mem_wdata[14] *737:35 0.000503384
16 *701:11 *706:11 0.0309836
17 *701:11 *718:11 8.46498e-05
18 *701:11 *725:11 7.86614e-05
19 *701:11 *726:11 0.0334926
20 *701:11 *735:11 0.00165138
21 *701:11 *737:11 0.00122256
22 *701:15 *725:23 0.00434759
23 *701:15 *729:15 0
24 *701:21 *740:mem_we 5.53997e-05
25 *701:23 *740:mem_we 7.4607e-05
26 *701:27 *706:27 0.00623356
27 *701:27 *716:27 0.0162086
28 *701:27 *717:19 0.00697301
29 *701:27 *725:27 0.000398765
30 *701:27 *726:27 0.00558462
31 *94:21 *701:27 0.00523338
32 *342:31 *701:23 0.00154737
33 *350:27 *701:15 0.0169031
34 *361:23 *701:15 0.0073472
35 *364:15 *701:15 0.0090769
36 *390:15 *701:15 0.0017835
37 *394:15 *701:15 0.0262747
38 *656:15 *701:15 0
39 *656:15 *701:23 0.00108487
40 *656:23 *701:23 0.0752931
41 *668:11 *701:23 0.0201712
42 *678:11 *701:23 0.00570494
43 *683:15 *701:23 0.0187844
44 *683:23 *701:15 0.00312254
45 *688:11 *740:mem_wdata[14] 0.000714836
46 *688:11 *701:27 0.0139937
47 *689:19 *740:mem_wdata[14] 0.000442689
48 *689:27 *701:11 0.00359925
*RES
1 *739:mem_wdata_o[14] *701:9 5.58767 
2 *701:9 *701:11 419.509 
3 *701:11 *701:13 4.5 
4 *701:13 *701:15 852.768 
5 *701:15 *701:21 11.8296 
6 *701:21 *701:23 125.911 
7 *701:23 *701:25 3.41 
8 *701:25 *701:27 65.2454 
9 *701:27 *740:mem_wdata[14] 9.00457 
*END

*D_NET *702 0.739005
*CONN
*I *740:mem_wdata[15] I *D ntt_engine_256
*I *739:mem_wdata_o[15] O *D ntt_wb_bridge
*CAP
1 *740:mem_wdata[15] 0.00116383
2 *739:mem_wdata_o[15] 0.00427537
3 *702:30 0.0219333
4 *702:28 0.0209644
5 *702:22 0.0189132
6 *702:20 0.0187184
7 *702:18 0.0527346
8 *702:16 0.0527346
9 *702:14 0.00729375
10 *702:12 0.0115691
11 *702:12 *709:9 0.000237214
12 *702:12 *711:9 0.000201414
13 *702:12 *711:11 0.000740795
14 *702:12 *712:12 0.00572329
15 *702:12 *713:11 0.000236935
16 *702:12 *736:6 0.0094106
17 *702:12 *736:16 0.00111324
18 *702:12 *736:18 0.000474709
19 *702:14 *711:11 0.00511325
20 *702:14 *712:12 0.00263879
21 *702:14 *712:24 0.0164074
22 *702:14 *713:11 0.000433067
23 *702:14 *736:18 0.0244448
24 *702:18 *718:15 0.000143031
25 *702:28 *740:mem_wdata[2] 0
26 *702:30 *709:27 0.0210417
27 *116:109 *702:18 0.000720118
28 *116:111 *702:22 0.0994813
29 *118:27 *702:22 8.10981e-05
30 *359:41 *702:12 0.00189287
31 *656:27 *702:22 0.0836319
32 *656:35 *702:30 0.0467755
33 *677:11 *702:22 0.0206895
34 *687:15 *702:14 0.000113898
35 *688:23 *702:18 0.175685
36 *691:11 *702:30 0.00577631
37 *697:11 *702:12 0.000915135
38 *697:11 *702:14 0.00458078
*RES
1 *739:mem_wdata_o[15] *702:12 28.8965 
2 *702:12 *702:14 52.7215 
3 *702:14 *702:16 3.41 
4 *702:16 *702:18 273.936 
5 *702:18 *702:20 3.41 
6 *702:20 *702:22 1221.09 
7 *702:22 *702:28 7.26337 
8 *702:28 *702:30 130.231 
9 *702:30 *740:mem_wdata[15] 6.1219 
*END

*D_NET *703 0.176803
*CONN
*I *740:mem_wdata[16] I *D ntt_engine_256
*I *739:mem_wdata_o[16] O *D ntt_wb_bridge
*CAP
1 *740:mem_wdata[16] 0.00513063
2 *739:mem_wdata_o[16] 0.00600499
3 *703:15 0.0239376
4 *703:13 0.018807
5 *703:11 0.0245658
6 *703:9 0.0305708
7 *740:mem_wdata[16] *724:23 0.00698015
8 la_data_out[86] *703:11 0.00379686
9 *672:6 *740:mem_wdata[16] 0.000207921
10 *685:47 *740:mem_wdata[16] 0
11 *690:15 *703:15 0
12 *699:15 *703:15 0.0566248
13 *700:17 *703:15 0.000176945
*RES
1 *739:mem_wdata_o[16] *703:9 19.6767 
2 *703:9 *703:11 74.8334 
3 *703:11 *703:13 3.41 
4 *703:13 *703:15 88.4007 
5 *703:15 *740:mem_wdata[16] 22.952 
*END

*D_NET *704 0.969115
*CONN
*I *740:mem_wdata[17] I *D ntt_engine_256
*I *739:mem_wdata_o[17] O *D ntt_wb_bridge
*CAP
1 *740:mem_wdata[17] 0.000439155
2 *739:mem_wdata_o[17] 0.00293255
3 *704:47 0.00915281
4 *704:45 0.00932711
5 *704:35 0.0462278
6 *704:33 0.0456144
7 *704:31 0.0164295
8 *704:29 0.0164953
9 *704:23 0.0111474
10 *704:21 0.0110815
11 *704:19 0.00706387
12 *704:17 0.00999642
13 *704:17 *705:7 0
14 *704:19 *707:11 0
15 *704:23 *706:15 0.0629209
16 *704:23 *710:23 0.0746264
17 *704:23 *716:15 4.43256e-05
18 *704:31 *710:23 0.00396268
19 *704:31 *710:31 0.0706224
20 *704:31 *719:13 0.0901246
21 *704:31 *734:23 0.00314532
22 *704:31 *734:31 0.00580485
23 *704:35 *716:27 0.0134936
24 *704:35 *717:27 0.0151071
25 *704:35 *733:43 0.175934
26 *704:35 *737:35 0.0923097
27 *704:35 *737:43 0.00756224
28 *704:45 *734:41 0.00307399
29 *704:47 *734:43 0.0483439
30 la_data_out[83] *704:19 0.0171907
31 *81:19 *704:35 0.000189354
32 *116:119 *704:35 0
33 *353:23 *704:19 0.0322113
34 *357:27 *704:19 9.74924e-05
35 *358:27 *704:19 0.000348476
36 *360:31 *704:17 0.000118506
37 *364:19 *704:17 4.55034e-05
38 *540:17 *704:45 0.000897538
39 *647:11 *704:31 0.00813257
40 *649:9 *704:29 2.69575e-05
41 *649:11 *704:23 0.0164424
42 *649:11 *704:31 0.000121508
43 *675:13 *704:45 0.00152687
44 *675:25 *704:31 5.46123e-05
45 *695:23 *704:23 0.000216208
46 *695:47 *704:47 0.0385118
*RES
1 *739:mem_wdata_o[17] *704:17 43.3511 
2 *704:17 *704:19 408.125 
3 *704:19 *704:21 4.5 
4 *704:21 *704:23 706.964 
5 *704:23 *704:29 9.0975 
6 *704:29 *704:31 156.432 
7 *704:31 *704:33 3.41 
8 *704:33 *704:35 2161.55 
9 *704:35 *704:45 17.212 
10 *704:45 *704:47 75.3567 
11 *704:47 *740:mem_wdata[17] 12.0529 
*END

*D_NET *705 0.269993
*CONN
*I *740:mem_wdata[18] I *D ntt_engine_256
*I *739:mem_wdata_o[18] O *D ntt_wb_bridge
*CAP
1 *740:mem_wdata[18] 0.00115103
2 *739:mem_wdata_o[18] 0.0149986
3 *705:23 0.0114785
4 *705:21 0.0144013
5 *705:17 0.0107916
6 *705:11 0.0295026
7 *705:9 0.0227849
8 *705:7 0.0149986
9 *705:23 *715:19 0.0444003
10 *705:23 *738:19 0.000261791
11 *78:129 *705:23 0.000588681
12 *115:113 *705:7 0.000334922
13 *282:23 *705:7 0.00935012
14 *651:15 *705:17 0.00213062
15 *651:15 *705:21 0.001778
16 *652:11 *740:mem_wdata[18] 0.000255549
17 *660:11 *705:17 0.0229247
18 *684:13 *705:17 0.012891
19 *690:11 *705:23 0.0512158
20 *699:15 *705:17 0
21 *699:15 *705:21 0
22 *699:19 *705:23 0.00375425
23 *704:17 *705:7 0
*RES
1 *739:mem_wdata_o[18] *705:7 49.8498 
2 *705:7 *705:9 3.41 
3 *705:9 *705:11 71.3178 
4 *705:11 *705:17 45.3716 
5 *705:17 *705:21 17.1136 
6 *705:21 *705:23 647.946 
7 *705:23 *740:mem_wdata[18] 5.65347 
*END

*D_NET *706 0.730731
*CONN
*I *740:mem_wdata[19] I *D ntt_engine_256
*I *739:mem_wdata_o[19] O *D ntt_wb_bridge
*CAP
1 *740:mem_wdata[19] 0.000709356
2 *739:mem_wdata_o[19] 0.00096977
3 *706:35 0.0137203
4 *706:33 0.013106
5 *706:27 0.0105967
6 *706:25 0.0105016
7 *706:23 0.0172593
8 *706:21 0.0174619
9 *706:15 0.0109879
10 *706:13 0.0107853
11 *706:11 0.00686874
12 *706:9 0.00783851
13 *706:11 *716:11 0.0135611
14 *706:11 *718:11 0
15 *706:11 *735:11 0.00706418
16 *706:11 *737:11 0.00104301
17 *706:15 *716:15 0.0442007
18 *706:23 *740:mem_wdata[9] 0.00421685
19 *706:23 *716:23 0.110124
20 *706:23 *727:15 0.0146624
21 *706:23 *734:31 0.0172653
22 *706:27 *717:19 0.045466
23 *706:27 *726:27 0.0312906
24 *706:27 *726:35 0.00333748
25 *706:27 *737:35 0.000164255
26 *706:35 *740:mem_wdata[8] 0.0010753
27 *706:35 *716:27 0.0161157
28 *706:35 *717:27 0.0467174
29 *706:35 *726:35 0.0295795
30 *706:35 *737:35 0.0149796
31 *739:mem_rdata_i[24] *706:11 0.00012022
32 *739:mem_rdata_i[25] *706:11 6.97631e-05
33 *739:mem_rdata_i[30] *706:11 6.97631e-05
34 *740:mem_wdata[14] *706:27 0.000495203
35 *118:27 *706:27 0
36 *649:11 *706:15 0.0132691
37 *689:11 *706:35 0.0316834
38 *689:19 *706:27 0.000242167
39 *689:19 *706:35 0.0100346
40 *689:27 *706:11 0.00323284
41 *691:23 *706:23 0
42 *695:33 *706:23 0.0100453
43 *697:15 *706:23 0.0396618
44 *701:11 *706:11 0.0309836
45 *701:27 *706:27 0.00623356
46 *704:23 *706:15 0.0629209
*RES
1 *739:mem_wdata_o[19] *706:9 5.65973 
2 *706:9 *706:11 396.438 
3 *706:11 *706:13 4.5 
4 *706:13 *706:15 591.143 
5 *706:15 *706:21 11.2225 
6 *706:21 *706:23 171.854 
7 *706:23 *706:25 3.41 
8 *706:25 *706:27 568.411 
9 *706:27 *706:33 6.9751 
10 *706:33 *706:35 131.935 
11 *706:35 *740:mem_wdata[19] 4.71817 
*END

*D_NET *707 0.067785
*CONN
*I *740:mem_wdata[1] I *D ntt_engine_256
*I *739:mem_wdata_o[1] O *D ntt_wb_bridge
*CAP
1 *740:mem_wdata[1] 1.3106e-05
2 *739:mem_wdata_o[1] 0.0033081
3 *707:11 0.0187161
4 *707:9 0.0220111
5 io_out[1] *707:9 0
6 la_data_out[83] *707:11 0
7 *362:27 *707:11 0.0236055
8 *695:19 *707:11 0.000131056
9 *704:19 *707:11 0
*RES
1 *739:mem_wdata_o[1] *707:9 11.5692 
2 *707:9 *707:11 541.696 
3 *707:11 *740:mem_wdata[1] 0.267857 
*END

*D_NET *708 0.386464
*CONN
*I *740:mem_wdata[20] I *D ntt_engine_256
*I *739:mem_wdata_o[20] O *D ntt_wb_bridge
*CAP
1 *740:mem_wdata[20] 0.000927358
2 *739:mem_wdata_o[20] 0.0142614
3 *708:27 0.0222679
4 *708:25 0.0300237
5 *708:15 0.0406142
6 *708:13 0.0319311
7 *708:11 0.0142614
8 *708:11 *733:11 0
9 *708:25 *724:23 0.0137662
10 *708:27 *730:19 0.0978829
11 *708:27 *738:19 0.0825344
12 *739:mem_rdata_i[19] *708:15 0.00360921
13 *77:127 *708:15 0
14 *115:219 *708:27 0.012037
15 *354:27 *708:11 0.00384568
16 *375:19 *708:11 0.00384568
17 *378:27 *708:11 0.00431078
18 *669:19 *708:15 0
19 *685:25 *708:27 0.0038096
20 *690:19 *708:11 0.00653529
*RES
1 *739:mem_wdata_o[20] *708:11 48.9452 
2 *708:11 *708:13 3.41 
3 *708:13 *708:15 98.4901 
4 *708:15 *708:25 39.3402 
5 *708:25 *708:27 1308.52 
6 *708:27 *740:mem_wdata[20] 5.3652 
*END

*D_NET *709 0.752002
*CONN
*I *740:mem_wdata[21] I *D ntt_engine_256
*I *739:mem_wdata_o[21] O *D ntt_wb_bridge
*CAP
1 *740:mem_wdata[21] 0.00122348
2 *739:mem_wdata_o[21] 0.000791701
3 *709:27 0.0538085
4 *709:25 0.0528219
5 *709:19 0.0120951
6 *709:17 0.0118582
7 *709:15 0.0250242
8 *709:13 0.0250242
9 *709:11 0.0133346
10 *709:9 0.0141263
11 *709:9 *710:17 0
12 *709:11 *718:11 0
13 *709:11 *722:15 4.84855e-05
14 *709:11 *727:11 0.0302645
15 *709:11 *731:11 0
16 *709:11 *737:21 0
17 *709:15 *736:22 0.00036483
18 *709:19 *718:19 0.0379893
19 *709:19 *729:27 0.000248009
20 *709:19 *736:34 0.010123
21 *709:25 *740:slot_c[0] 5.0027e-06
22 *709:27 *718:27 0.0170588
23 *709:27 *729:35 0.0155913
24 *656:35 *709:27 0.000128809
25 *676:17 *709:19 0.00160242
26 *677:11 *709:19 0.000111243
27 *689:23 *709:15 0.176209
28 *691:19 *709:19 0.0539985
29 *691:23 *709:15 0.176872
30 *702:12 *709:9 0.000237214
31 *702:30 *709:27 0.0210417
*RES
1 *739:mem_wdata_o[21] *709:9 5.3276 
2 *709:9 *709:11 386.875 
3 *709:11 *709:13 3.41 
4 *709:13 *709:15 275.702 
5 *709:15 *709:17 3.41 
6 *709:17 *709:19 661.911 
7 *709:19 *709:25 7.33543 
8 *709:25 *709:27 180.834 
9 *709:27 *740:mem_wdata[21] 6.1971 
*END

*D_NET *710 0.811181
*CONN
*I *740:mem_wdata[22] I *D ntt_engine_256
*I *739:mem_wdata_o[22] O *D ntt_wb_bridge
*CAP
1 *740:mem_wdata[22] 0.000473462
2 *739:mem_wdata_o[22] 0.00266619
3 *710:39 0.00689239
4 *710:37 0.00641892
5 *710:35 0.0393368
6 *710:33 0.0393368
7 *710:31 0.0140806
8 *710:29 0.014134
9 *710:23 0.0171552
10 *710:21 0.0171018
11 *710:19 0.00770239
12 *710:17 0.0103686
13 *710:23 *734:23 0.101872
14 *710:39 *740:slot_a[1] 0.0195155
15 *710:39 *734:41 0.00301112
16 *710:39 *734:43 1.53584e-05
17 *81:19 *710:35 0.068956
18 *119:57 *710:35 0.173543
19 *354:27 *710:19 0
20 *360:31 *710:17 9.25974e-05
21 *364:19 *710:17 3.24409e-05
22 *647:11 *710:23 0.0129391
23 *647:11 *710:31 0.0150371
24 *650:19 *710:19 0.0296419
25 *664:19 *710:31 0.0077593
26 *675:25 *710:31 0.000699979
27 *690:19 *710:19 0.00434778
28 *691:27 *710:19 0.0190361
29 *695:23 *710:23 0.000360406
30 *695:45 *710:39 0.00107982
31 *695:47 *710:39 0.0283631
32 *704:23 *710:23 0.0746264
33 *704:31 *710:23 0.00396268
34 *704:31 *710:31 0.0706224
35 *709:9 *710:17 0
*RES
1 *739:mem_wdata_o[22] *710:17 37.2975 
2 *710:17 *710:19 371.696 
3 *710:19 *710:21 4.5 
4 *710:21 *710:23 963.25 
5 *710:23 *710:29 8.79393 
6 *710:29 *710:31 110.093 
7 *710:31 *710:33 3.41 
8 *710:33 *710:35 2163.38 
9 *710:35 *710:37 3.41 
10 *710:37 *710:39 48.9803 
11 *710:39 *740:mem_wdata[22] 12.3207 
*END

*D_NET *711 0.196228
*CONN
*I *740:mem_wdata[23] I *D ntt_engine_256
*I *739:mem_wdata_o[23] O *D ntt_wb_bridge
*CAP
1 *740:mem_wdata[23] 0.00155707
2 *739:mem_wdata_o[23] 0.000171259
3 *711:15 0.0121957
4 *711:13 0.0106386
5 *711:11 0.00494791
6 *711:9 0.00511917
7 *711:11 *713:11 0.0276493
8 *711:11 *736:18 0.000251583
9 *711:15 *713:15 0.0346741
10 *711:15 *725:23 0.00106435
11 *711:15 *728:23 0.0114009
12 *739:mem_rdata_i[5] *711:11 0.000102907
13 *353:19 *711:15 0.0256949
14 *359:41 *711:11 0.000604434
15 *364:15 *711:15 0.00171593
16 *375:15 *711:15 0.000496979
17 *378:15 *711:15 0.00721106
18 *378:23 *711:15 0.000989521
19 *656:15 *711:15 0.0118388
20 *668:11 *711:15 4.1819e-05
21 *668:19 *711:15 0.00127225
22 *678:19 *711:15 0.00179513
23 *697:11 *711:11 0.0287386
24 *702:12 *711:9 0.000201414
25 *702:12 *711:11 0.000740795
26 *702:14 *711:11 0.00511325
*RES
1 *739:mem_wdata_o[23] *711:9 3.8894 
2 *711:9 *711:11 354.696 
3 *711:11 *711:13 3.41 
4 *711:13 *711:15 85.446 
5 *711:15 *740:mem_wdata[23] 29.9279 
*END

*D_NET *712 0.412635
*CONN
*I *740:mem_wdata[24] I *D ntt_engine_256
*I *739:mem_wdata_o[24] O *D ntt_wb_bridge
*CAP
1 *740:mem_wdata[24] 0.000618692
2 *739:mem_wdata_o[24] 0.00749889
3 *712:34 0.038292
4 *712:32 0.0378589
5 *712:26 0.00541077
6 *712:24 0.0150706
7 *712:12 0.0173442
8 *712:12 *713:11 0.00067802
9 *712:12 *714:13 0.000255549
10 *712:12 *716:9 0.000248304
11 *712:12 *719:9 0.00201482
12 *712:24 *713:11 0.00301083
13 *712:24 *719:9 0.000432834
14 *712:26 *716:15 0.00426242
15 *712:26 *719:13 0.0030911
16 *712:26 *733:39 0
17 *712:34 *716:23 0.129406
18 *712:34 *722:19 0.0169462
19 *712:34 *733:39 0.0645362
20 *739:mem_rdata_i[10] *712:12 0.000255549
21 *739:mem_rdata_i[17] *712:24 0.000100707
22 *739:mem_rdata_i[5] *712:12 0.000363819
23 *739:mem_rdata_i[6] *712:12 0.000255549
24 *739:mem_rdata_i[7] *712:12 0.000255549
25 *357:25 *712:34 0.00415593
26 *540:13 *740:mem_wdata[24] 0
27 *647:11 *712:24 0.000219842
28 *649:11 *712:24 0.00010713
29 *668:23 *712:24 0.00197466
30 *678:23 *712:24 0.000258184
31 *687:15 *712:24 0.00255945
32 *691:23 *712:34 0.030324
33 *697:11 *712:24 5.87083e-05
34 *702:12 *712:12 0.00572329
35 *702:14 *712:12 0.00263879
36 *702:14 *712:24 0.0164074
*RES
1 *739:mem_wdata_o[24] *712:12 32.5249 
2 *712:12 *712:24 49.1077 
3 *712:24 *712:26 135.661 
4 *712:26 *712:32 10.9189 
5 *712:32 *712:34 248.028 
6 *712:34 *740:mem_wdata[24] 14.7493 
*END

*D_NET *713 0.14147
*CONN
*I *740:mem_wdata[25] I *D ntt_engine_256
*I *739:mem_wdata_o[25] O *D ntt_wb_bridge
*CAP
1 *740:mem_wdata[25] 0.00150353
2 *739:mem_wdata_o[25] 0.0001225
3 *713:15 0.00675074
4 *713:13 0.00524722
5 *713:11 0.00629993
6 *713:9 0.00642243
7 *740:mem_wdata[25] *728:21 1.97563e-05
8 *713:11 *719:9 0
9 *713:11 *735:27 0.000319366
10 *352:17 *713:15 0.0256976
11 *353:19 *713:15 1.75318e-05
12 *359:41 *713:11 0.003279
13 *386:21 *713:15 0.00642462
14 *668:11 *713:15 0.00143132
15 *676:19 *713:15 1.20131e-05
16 *687:15 *713:11 0.0112224
17 *697:11 *713:11 1.74236e-05
18 *702:12 *713:11 0.000236935
19 *702:14 *713:11 0.000433067
20 *711:11 *713:11 0.0276493
21 *711:15 *713:15 0.0346741
22 *712:12 *713:11 0.00067802
23 *712:24 *713:11 0.00301083
*RES
1 *739:mem_wdata_o[25] *713:9 3.67633 
2 *713:9 *713:11 341.946 
3 *713:11 *713:13 3.41 
4 *713:13 *713:15 54.2411 
5 *713:15 *740:mem_wdata[25] 29.3207 
*END

*D_NET *714 0.771457
*CONN
*I *740:mem_wdata[26] I *D ntt_engine_256
*I *739:mem_wdata_o[26] O *D ntt_wb_bridge
*CAP
1 *740:mem_wdata[26] 0.000439417
2 *739:mem_wdata_o[26] 0.00143507
3 *714:39 0.0121351
4 *714:37 0.0117856
5 *714:31 0.0456051
6 *714:29 0.0455152
7 *714:27 0.03297
8 *714:25 0.0331673
9 *714:19 0.0141685
10 *714:17 0.0139712
11 *714:15 0.0299049
12 *714:13 0.0313399
13 *714:13 *715:7 0
14 *714:19 *715:11 0
15 *714:19 *724:23 0.00824357
16 *714:19 *730:19 0.0111255
17 *714:27 *715:11 0.000120565
18 *714:27 *720:21 5.94587e-05
19 *714:31 *720:23 0.00516206
20 *714:31 *732:27 0
21 *77:145 *714:27 0.153037
22 *114:37 *714:19 0
23 *114:37 *714:27 0
24 *114:45 *714:27 0.0266622
25 *115:233 *714:31 0.000563446
26 *360:31 *714:13 0.00019303
27 *364:19 *714:13 7.48268e-05
28 *540:17 *714:39 0.0111624
29 *646:11 *714:39 0.049495
30 *646:19 *714:31 0
31 *646:23 *714:19 0.00503727
32 *648:15 *714:31 0.00108843
33 *653:21 *714:27 8.61512e-05
34 *653:23 *714:31 0.00273587
35 *654:11 *714:27 0.00843051
36 *658:25 *714:25 0.000306914
37 *658:35 *714:27 0.138042
38 *658:39 *714:31 0
39 *658:47 *714:31 0.00471884
40 *663:11 *714:39 0.0293879
41 *663:19 *714:31 0.00379045
42 *666:9 *714:27 0.00343595
43 *673:11 *714:31 0.0201394
44 *673:15 *714:27 2.1059e-05
45 *679:15 *714:27 0.00863069
46 *682:23 *714:27 0
47 *685:21 *714:31 0
48 *685:33 *714:27 0
49 *685:49 *714:19 0
50 *700:19 *714:19 0.00701411
51 *712:12 *714:13 0.000255549
*RES
1 *739:mem_wdata_o[26] *714:13 13.5642 
2 *714:13 *714:15 580.054 
3 *714:15 *714:17 4.5 
4 *714:17 *714:19 437.875 
5 *714:19 *714:25 12.8214 
6 *714:25 *714:27 2067.14 
7 *714:27 *714:29 4.5 
8 *714:29 *714:31 982.554 
9 *714:31 *714:37 9.40107 
10 *714:37 *714:39 92.6527 
11 *714:39 *740:mem_wdata[26] 12.1243 
*END

*D_NET *715 0.700206
*CONN
*I *740:mem_wdata[27] I *D ntt_engine_256
*I *739:mem_wdata_o[27] O *D ntt_wb_bridge
*CAP
1 *740:mem_wdata[27] 0.000375328
2 *739:mem_wdata_o[27] 3.50553e-05
3 *715:23 0.0163576
4 *715:21 0.0159822
5 *715:19 0.0600754
6 *715:17 0.0606098
7 *715:11 0.0131475
8 *715:9 0.0126132
9 *715:7 0.0376572
10 *715:5 0.0376923
11 *715:23 *721:15 0.0607858
12 *715:23 *732:27 0.0022052
13 *74:31 *715:19 0
14 *78:161 *715:19 0.0443207
15 *114:37 *715:11 3.13234e-05
16 *115:127 *715:7 0.000518404
17 *115:219 *715:19 0.0053267
18 *646:11 *715:23 0.0499468
19 *646:19 *715:23 0.00199059
20 *648:15 *715:23 0.00203561
21 *653:23 *715:23 0.00599371
22 *654:11 *715:11 0.0108352
23 *658:19 *715:11 0.00629334
24 *658:39 *715:23 0.00355076
25 *663:11 *715:23 0.0898988
26 *663:19 *715:23 0.00432907
27 *663:23 *715:11 0
28 *667:15 *715:11 0
29 *671:15 *715:23 0.0205888
30 *673:11 *715:23 3.11358e-05
31 *673:15 *715:11 0
32 *679:11 *715:23 0.000168074
33 *679:15 *715:11 0.00632145
34 *682:29 *715:17 0.000354517
35 *685:25 *715:19 0
36 *685:47 *715:17 9.92651e-05
37 *685:49 *715:11 0.0135812
38 *690:11 *715:19 0.0121869
39 *699:19 *715:19 0.0597464
40 *705:23 *715:19 0.0444003
41 *714:13 *715:7 0
42 *714:19 *715:11 0
43 *714:27 *715:11 0.000120565
*RES
1 *739:mem_wdata_o[27] *715:5 0.0767667 
2 *715:5 *715:7 103.931 
3 *715:7 *715:9 3.41 
4 *715:9 *715:11 436.661 
5 *715:11 *715:17 8.09213 
6 *715:17 *715:19 2064.41 
7 *715:19 *715:21 3.41 
8 *715:21 *715:23 172.791 
9 *715:23 *740:mem_wdata[27] 10.4814 
*END

*D_NET *716 0.613584
*CONN
*I *740:mem_wdata[28] I *D ntt_engine_256
*I *739:mem_wdata_o[28] O *D ntt_wb_bridge
*CAP
1 *740:mem_wdata[28] 0.000483353
2 *739:mem_wdata_o[28] 0.00124164
3 *716:27 0.0194524
4 *716:25 0.018969
5 *716:23 0.0184227
6 *716:21 0.0186443
7 *716:15 0.0118421
8 *716:13 0.0116206
9 *716:11 0.00607924
10 *716:9 0.00732088
11 *716:9 *717:9 0
12 *716:11 *735:11 0.00153405
13 *716:11 *737:11 0.000372082
14 *716:23 *722:19 0.0196157
15 *716:27 *725:27 0.0477671
16 *716:27 *726:35 0.00834567
17 *716:27 *733:43 0.0150819
18 *716:27 *737:35 0.0095766
19 *739:mem_rdata_i[24] *716:11 0.000118506
20 *739:mem_rdata_i[25] *716:11 6.80962e-05
21 *739:mem_rdata_i[30] *716:11 6.80962e-05
22 *740:mem_wdata[14] *716:27 0.00206941
23 *81:19 *716:27 0.00355391
24 *364:19 *716:11 0.00230715
25 *649:11 *716:15 0.00924502
26 *688:27 *716:11 0.0205743
27 *689:19 *716:27 0.0107064
28 *689:27 *716:11 0.000721382
29 *691:23 *716:23 0
30 *697:15 *716:23 0.000117546
31 *701:27 *716:27 0.0162086
32 *704:23 *716:15 4.43256e-05
33 *704:35 *716:27 0.0134936
34 *706:11 *716:11 0.0135611
35 *706:15 *716:15 0.0442007
36 *706:23 *716:23 0.110124
37 *706:35 *716:27 0.0161157
38 *712:12 *716:9 0.000248304
39 *712:26 *716:15 0.00426242
40 *712:34 *716:23 0.129406
*RES
1 *739:mem_wdata_o[28] *716:9 6.23 
2 *716:9 *716:11 328.741 
3 *716:11 *716:13 4.5 
4 *716:13 *716:15 416.179 
5 *716:15 *716:21 11.5261 
6 *716:21 *716:23 202.446 
7 *716:23 *716:25 3.41 
8 *716:25 *716:27 133.214 
9 *716:27 *740:mem_wdata[28] 4.36097 
*END

*D_NET *717 0.755055
*CONN
*I *740:mem_wdata[29] I *D ntt_engine_256
*I *739:mem_wdata_o[29] O *D ntt_wb_bridge
*CAP
1 *740:mem_wdata[29] 0.000713592
2 *739:mem_wdata_o[29] 0.00127246
3 *717:27 0.019495
4 *717:25 0.0189207
5 *717:19 0.0130984
6 *717:17 0.0129591
7 *717:15 0.0256432
8 *717:13 0.0256432
9 *717:11 0.00706826
10 *717:9 0.00834072
11 *717:9 *719:7 0
12 *717:15 *718:15 0.176635
13 *717:19 *726:35 0.00771403
14 *717:27 *733:43 0.0130881
15 *717:27 *737:43 0.0238333
16 *739:mem_rdata_i[11] *717:11 0.000931333
17 *739:mem_rdata_i[12] *717:11 9.03692e-05
18 *739:mem_rdata_i[13] *717:11 6.57509e-05
19 *739:mem_rdata_i[23] *717:11 7.73407e-05
20 *739:mem_rdata_i[3] *717:11 3.64726e-05
21 *740:mem_wdata[14] *717:19 0.000442689
22 *81:19 *717:27 0.00682215
23 *118:27 *717:19 0
24 *360:31 *717:11 0.00923104
25 *364:19 *717:11 0.0249799
26 *649:15 *717:11 0
27 *662:41 *717:11 7.07131e-05
28 *688:23 *717:15 0.177172
29 *688:27 *717:11 0.000789544
30 *689:11 *717:27 0.00414034
31 *689:19 *717:19 0.0615169
32 *701:27 *717:19 0.00697301
33 *704:35 *717:27 0.0151071
34 *706:27 *717:19 0.045466
35 *706:35 *717:27 0.0467174
36 *716:9 *717:9 0
*RES
1 *739:mem_wdata_o[29] *717:9 6.3052 
2 *717:9 *717:11 336.482 
3 *717:11 *717:13 3.41 
4 *717:13 *717:15 275.918 
5 *717:15 *717:17 3.41 
6 *717:17 *717:19 754.196 
7 *717:19 *717:25 7.04717 
8 *717:25 *717:27 113.825 
9 *717:27 *740:mem_wdata[29] 4.68057 
*END

*D_NET *718 0.61114
*CONN
*I *740:mem_wdata[2] I *D ntt_engine_256
*I *739:mem_wdata_o[2] O *D ntt_wb_bridge
*CAP
1 *740:mem_wdata[2] 0.00102186
2 *739:mem_wdata_o[2] 0.000891267
3 *718:27 0.0160941
4 *718:25 0.0151327
5 *718:19 0.0111003
6 *718:17 0.0110399
7 *718:15 0.0581377
8 *718:13 0.0581377
9 *718:11 0.0111465
10 *718:9 0.0120377
11 *718:11 *725:11 0.0377278
12 *718:11 *731:11 0.0328379
13 *718:11 *735:11 0
14 *718:11 *737:11 0.00828191
15 *718:11 *737:21 4.74764e-05
16 *718:15 *736:22 0
17 *718:19 *729:27 0.0153657
18 *718:27 *729:35 0.0316942
19 *718:27 *736:34 0.0158878
20 io_out[1] *718:9 0
21 *120:29 *718:19 0
22 *656:35 *718:27 0.0160377
23 *664:13 *718:25 9.06484e-05
24 *664:15 *718:19 0.00940765
25 *677:11 *718:27 0.0169206
26 *688:23 *718:15 5.76148e-05
27 *688:27 *718:11 0
28 *689:23 *718:15 0
29 *689:27 *718:11 0.0001326
30 *701:11 *718:11 8.46498e-05
31 *702:18 *718:15 0.000143031
32 *702:28 *740:mem_wdata[2] 0
33 *706:11 *718:11 0
34 *709:11 *718:11 0
35 *709:19 *718:19 0.0379893
36 *709:27 *718:27 0.0170588
37 *717:15 *718:15 0.176635
*RES
1 *739:mem_wdata_o[2] *718:9 5.478 
2 *718:9 *718:11 533.196 
3 *718:11 *718:13 3.41 
4 *718:13 *718:15 276.351 
5 *718:15 *718:17 3.41 
6 *718:17 *718:19 465.804 
7 *718:19 *718:25 6.9751 
8 *718:25 *718:27 131.935 
9 *718:27 *740:mem_wdata[2] 5.69577 
*END

*D_NET *719 0.409011
*CONN
*I *740:mem_wdata[30] I *D ntt_engine_256
*I *739:mem_wdata_o[30] O *D ntt_wb_bridge
*CAP
1 *740:mem_wdata[30] 0.000792398
2 *739:mem_wdata_o[30] 0.000107473
3 *719:13 0.0249718
4 *719:11 0.0241794
5 *719:9 0.0123569
6 *719:7 0.0124644
7 *719:9 *735:27 0
8 *719:13 *740:mem_wdata[9] 0.00235514
9 *719:13 *727:15 0.130996
10 *719:13 *731:43 0.0432916
11 *719:13 *734:31 0.0300883
12 *356:31 *719:9 0
13 *359:41 *719:9 0
14 *649:11 *719:13 0.0180468
15 *668:23 *719:9 0.00284438
16 *678:23 *719:9 0.00804691
17 *687:15 *719:9 0.00280624
18 *695:33 *740:mem_wdata[30] 0
19 *697:11 *719:9 0
20 *704:31 *719:13 0.0901246
21 *712:12 *719:9 0.00201482
22 *712:24 *719:9 0.000432834
23 *712:26 *719:13 0.0030911
24 *713:11 *719:9 0
25 *717:9 *719:7 0
*RES
1 *739:mem_wdata_o[30] *719:7 3.68573 
2 *719:7 *719:9 317.964 
3 *719:9 *719:11 3.41 
4 *719:11 *719:13 257.397 
5 *719:13 *740:mem_wdata[30] 17.785 
*END

*D_NET *720 0.51371
*CONN
*I *740:mem_wdata[31] I *D ntt_engine_256
*I *739:mem_wdata_o[31] O *D ntt_wb_bridge
*CAP
1 *740:mem_wdata[31] 0.000529851
2 *739:mem_wdata_o[31] 4.70853e-05
3 *720:23 0.00193123
4 *720:21 0.00186547
5 *720:11 0.0371034
6 *720:9 0.0366393
7 *720:7 0.0364948
8 *720:5 0.0365419
9 *720:7 *735:27 5.7811e-07
10 *720:11 *723:11 0.0066088
11 *720:21 *732:25 0.00105059
12 *720:23 *721:15 0.00194134
13 *77:95 *720:7 0
14 *141:17 *720:11 0.00066984
15 *359:39 *720:7 5.7811e-07
16 *648:15 *720:23 4.20505e-05
17 *653:23 *720:23 8.40933e-05
18 *658:35 *720:21 2.04825e-05
19 *663:19 *720:23 0.00910526
20 *671:15 *720:21 0.0011913
21 *671:17 *720:11 0.200378
22 *674:13 *720:11 0.0113753
23 *681:11 *720:11 0.0117696
24 *694:11 *720:11 0.113097
25 *714:27 *720:21 5.94587e-05
26 *714:31 *720:23 0.00516206
*RES
1 *739:mem_wdata_o[31] *720:5 0.0767667 
2 *720:5 *720:7 105.877 
3 *720:7 *720:9 3.41 
4 *720:9 *720:11 2470.59 
5 *720:11 *720:21 15.3389 
6 *720:21 *720:23 88.4286 
7 *720:23 *740:mem_wdata[31] 13.5625 
*END

*D_NET *721 0.732227
*CONN
*I *740:mem_wdata[3] I *D ntt_engine_256
*I *739:mem_wdata_o[3] O *D ntt_wb_bridge
*CAP
1 *740:mem_wdata[3] 0.000523959
2 *739:mem_wdata_o[3] 2.28625e-05
3 *721:15 0.009506
4 *721:13 0.00898204
5 *721:11 0.0429451
6 *721:9 0.0429451
7 *721:7 0.0361842
8 *721:5 0.0362071
9 *73:24 *721:11 0
10 *77:71 *721:7 0
11 *78:83 *721:7 0.00140988
12 *113:19 *721:11 0.218384
13 *646:17 *740:mem_wdata[3] 0.000112246
14 *653:21 *721:15 0.00165618
15 *665:21 *721:11 0.000318935
16 *669:11 *721:11 0.0345539
17 *669:17 *721:11 0.00104694
18 *671:15 *721:15 0.000277844
19 *673:11 *721:15 0.0598562
20 *682:11 *721:15 2.29832e-05
21 *686:11 *721:11 0.174545
22 *715:23 *721:15 0.0607858
23 *720:23 *721:15 0.00194134
*RES
1 *739:mem_wdata_o[3] *721:5 0.0767667 
2 *721:5 *721:7 106.814 
3 *721:7 *721:9 3.41 
4 *721:9 *721:11 2676.41 
5 *721:11 *721:13 3.41 
6 *721:13 *721:15 96.4001 
7 *721:15 *740:mem_wdata[3] 13.5171 
*END

*D_NET *722 0.237607
*CONN
*I *740:mem_wdata[4] I *D ntt_engine_256
*I *739:mem_wdata_o[4] O *D ntt_wb_bridge
*CAP
1 *740:mem_wdata[4] 0.000687003
2 *739:mem_wdata_o[4] 0.00174785
3 *722:19 0.0109263
4 *722:17 0.0102393
5 *722:15 0.00877972
6 *722:13 0.0105276
7 *722:13 *723:7 0
8 *722:13 *725:9 0.000267185
9 *722:13 *731:11 0.00163525
10 *722:13 *737:11 0.0002652
11 *722:15 *727:11 0.0372562
12 *722:15 *731:11 0
13 *722:19 *740:slot_b[1] 0.014208
14 *722:19 *727:15 0.000462526
15 *79:20 *722:13 0.000437196
16 *356:31 *722:15 0
17 *357:25 *722:19 0.000731422
18 *657:11 *722:13 0
19 *657:11 *722:15 0.0379613
20 *697:15 *722:19 0.0648646
21 *709:11 *722:15 4.84855e-05
22 *712:34 *722:19 0.0169462
23 *716:23 *722:19 0.0196157
*RES
1 *739:mem_wdata_o[4] *722:13 29.3314 
2 *722:13 *722:15 485.839 
3 *722:15 *722:17 3.41 
4 *722:17 *722:19 102.382 
5 *722:19 *740:mem_wdata[4] 15.9636 
*END

*D_NET *723 0.542482
*CONN
*I *740:mem_wdata[5] I *D ntt_engine_256
*I *739:mem_wdata_o[5] O *D ntt_wb_bridge
*CAP
1 *740:mem_wdata[5] 0.00100043
2 *739:mem_wdata_o[5] 2.48797e-05
3 *723:11 0.110557
4 *723:9 0.109556
5 *723:7 0.0381706
6 *723:5 0.0381955
7 *723:11 *738:11 0.0278391
8 *74:31 *723:11 0.0404066
9 *659:15 *723:11 0
10 *671:17 *723:11 0.0066088
11 *674:13 *723:11 0.153325
12 *694:11 *723:11 0.01019
13 *720:11 *723:11 0.0066088
14 *722:13 *723:7 0
*RES
1 *739:mem_wdata_o[5] *723:5 0.0767667 
2 *723:5 *723:7 105.553 
3 *723:7 *723:9 3.41 
4 *723:9 *723:11 449.405 
5 *723:11 *740:mem_wdata[5] 5.69577 
*END

*D_NET *724 0.198347
*CONN
*I *740:mem_wdata[6] I *D ntt_engine_256
*I *739:mem_wdata_o[6] O *D ntt_wb_bridge
*CAP
1 *740:mem_wdata[6] 0.000856153
2 *739:mem_wdata_o[6] 0.00486667
3 *724:23 0.024072
4 *724:21 0.0291618
5 *724:15 0.038231
6 *724:13 0.0371517
7 *724:13 *733:11 0
8 *724:15 *730:17 2.29675e-05
9 *724:21 *730:11 0.000201745
10 *740:mem_wdata[16] *724:23 0.00698015
11 *77:87 *724:15 0.000228147
12 *114:37 *724:23 0.00146795
13 *354:27 *724:13 0.00066276
14 *375:19 *724:13 0.000716979
15 *378:27 *724:13 0.000640947
16 *646:23 *724:23 0.00254178
17 *654:11 *724:21 0
18 *654:11 *724:23 0.00547588
19 *672:6 *740:mem_wdata[6] 0.000437196
20 *682:23 *724:23 0.00153612
21 *685:41 *724:23 0.00731945
22 *698:9 *724:15 0.0137663
23 *708:25 *724:23 0.0137662
24 *714:19 *724:23 0.00824357
*RES
1 *739:mem_wdata_o[6] *724:13 19.687 
2 *724:13 *724:15 98.3459 
3 *724:15 *724:21 18.1899 
4 *724:21 *724:23 97.3652 
5 *724:23 *740:mem_wdata[6] 5.07537 
*END

*D_NET *725 0.508513
*CONN
*I *740:mem_wdata[7] I *D ntt_engine_256
*I *739:mem_wdata_o[7] O *D ntt_wb_bridge
*CAP
1 *740:mem_wdata[7] 0.000624787
2 *739:mem_wdata_o[7] 0.000970362
3 *725:27 0.0247106
4 *725:25 0.0240858
5 *725:23 0.0544014
6 *725:21 0.0545721
7 *725:15 0.00364636
8 *725:13 0.00347562
9 *725:11 0.00665623
10 *725:9 0.00762659
11 *725:11 *726:11 0.036993
12 *725:11 *735:11 0
13 *725:11 *737:11 0.00405637
14 *725:15 *729:15 0.00711979
15 *725:15 *737:23 0.0240603
16 *725:23 *726:23 0.0727921
17 *725:23 *728:23 0
18 *81:19 *725:27 0.0100456
19 *94:21 *725:27 4.08339e-05
20 *276:15 *725:15 6.47486e-05
21 *315:17 *725:23 0.00281453
22 *335:15 *725:23 0.031201
23 *336:15 *725:23 0
24 *343:25 *725:23 0.00150221
25 *349:31 *725:23 0.000230758
26 *360:27 *725:15 0.0111639
27 *364:15 *725:23 0.0225387
28 *374:15 *725:23 0
29 *376:15 *725:15 0.00487217
30 *376:15 *725:23 0.000201645
31 *379:15 *725:23 0.00291372
32 *656:23 *725:23 0
33 *689:27 *725:11 0.00348079
34 *701:11 *725:11 7.86614e-05
35 *701:15 *725:23 0.00434759
36 *701:27 *725:27 0.000398765
37 *711:15 *725:23 0.00106435
38 *716:27 *725:27 0.0477671
39 *718:11 *725:11 0.0377278
40 *722:13 *725:9 0.000267185
*RES
1 *739:mem_wdata_o[7] *725:9 5.6566 
2 *725:9 *725:11 465.955 
3 *725:11 *725:13 4.5 
4 *725:13 *725:15 229.304 
5 *725:15 *725:21 10.9189 
6 *725:21 *725:23 234.732 
7 *725:23 *725:25 3.41 
8 *725:25 *725:27 102.958 
9 *725:27 *740:mem_wdata[7] 4.53643 
*END

*D_NET *726 0.585723
*CONN
*I *740:mem_wdata[8] I *D ntt_engine_256
*I *739:mem_wdata_o[8] O *D ntt_wb_bridge
*CAP
1 *740:mem_wdata[8] 0.00131905
2 *739:mem_wdata_o[8] 0.000951878
3 *726:35 0.0127689
4 *726:33 0.0115007
5 *726:27 0.012171
6 *726:25 0.0121201
7 *726:23 0.0129689
8 *726:21 0.0132944
9 *726:15 0.0278885
10 *726:13 0.027563
11 *726:11 0.00649457
12 *726:9 0.00744645
13 *726:11 *735:11 0.00135357
14 *726:11 *737:11 0.00345608
15 *726:15 *737:23 0
16 *726:23 *729:23 0.0723543
17 *726:27 *737:35 0
18 *740:mem_wdata[14] *726:35 2.05803e-05
19 *94:21 *726:27 0.000725924
20 *118:27 *726:27 0
21 *273:15 *726:15 0.00143639
22 *280:15 *726:15 0.00395012
23 *296:15 *726:15 0.00143847
24 *300:15 *726:15 0.00541573
25 *315:17 *726:23 0.000165937
26 *326:15 *726:15 0
27 *339:21 *726:15 0.00494864
28 *340:29 *726:15 0.0011589
29 *342:39 *726:21 0
30 *345:27 *726:15 0.014072
31 *347:25 *726:15 0.000673275
32 *349:23 *726:15 0.00116286
33 *351:15 *726:15 0.000337787
34 *351:23 *726:15 0.0228911
35 *352:7 *726:15 0.00547417
36 *360:19 *726:15 0.000178911
37 *361:15 *726:15 0.0225153
38 *362:15 *726:15 1.39726e-05
39 *368:15 *726:15 0.00021505
40 *368:19 *726:15 0.0053953
41 *391:15 *726:15 0.00109481
42 *398:15 *726:15 0.00491652
43 *688:11 *740:mem_wdata[8] 0.00211879
44 *688:11 *726:27 0.000423043
45 *688:11 *726:35 0.0243095
46 *688:21 *726:27 0.00272194
47 *689:11 *740:mem_wdata[8] 6.40766e-05
48 *689:17 *740:mem_wdata[8] 0.000133908
49 *689:27 *726:11 0.0038937
50 *701:11 *726:11 0.0334926
51 *701:27 *726:27 0.00558462
52 *706:27 *726:27 0.0312906
53 *706:27 *726:35 0.00333748
54 *706:35 *740:mem_wdata[8] 0.0010753
55 *706:35 *726:35 0.0295795
56 *716:27 *726:35 0.00834567
57 *717:19 *726:35 0.00771403
58 *725:11 *726:11 0.036993
59 *725:23 *726:23 0.0727921
*RES
1 *739:mem_wdata_o[8] *726:9 5.62213 
2 *726:9 *726:11 456.545 
3 *726:11 *726:13 4.5 
4 *726:13 *726:15 907.393 
5 *726:15 *726:21 13.0439 
6 *726:21 *726:23 116.291 
7 *726:23 *726:25 3.41 
8 *726:25 *726:27 401.446 
9 *726:27 *726:33 6.90303 
10 *726:33 *726:35 94.0501 
11 *726:35 *740:mem_wdata[8] 9.46517 
*END

*D_NET *727 0.38773
*CONN
*I *740:mem_wdata[9] I *D ntt_engine_256
*I *739:mem_wdata_o[9] O *D ntt_wb_bridge
*CAP
1 *740:mem_wdata[9] 0.00146697
2 *739:mem_wdata_o[9] 0.000732085
3 *727:15 0.0208025
4 *727:13 0.0193355
5 *727:11 0.00956067
6 *727:9 0.0102928
7 *740:mem_wdata[9] *734:31 2.83129e-05
8 *727:11 *731:11 0
9 io_oeb[1] *727:9 0.000150004
10 *79:24 *727:9 0.000237214
11 *357:25 *727:15 3.79901e-06
12 *649:11 *727:15 0.000176702
13 *697:15 *727:15 0.10473
14 *706:23 *740:mem_wdata[9] 0.00421685
15 *706:23 *727:15 0.0146624
16 *709:11 *727:11 0.0302645
17 *719:13 *740:mem_wdata[9] 0.00235514
18 *719:13 *727:15 0.130996
19 *722:15 *727:11 0.0372562
20 *722:19 *727:15 0.000462526
*RES
1 *739:mem_wdata_o[9] *727:9 5.25553 
2 *727:9 *727:11 468.232 
3 *727:11 *727:13 3.41 
4 *727:13 *727:15 204.969 
5 *727:15 *740:mem_wdata[9] 22.8826 
*END

*D_NET *728 0.310121
*CONN
*I *740:mem_we I *D ntt_engine_256
*I *739:mem_we_o O *D ntt_wb_bridge
*CAP
1 *740:mem_we 0.00228391
2 *739:mem_we_o 0.000524866
3 *728:23 0.0181638
4 *728:21 0.0159977
5 *728:15 0.00458916
6 *728:13 0.00447135
7 *728:11 0.0117774
8 *728:9 0.0123023
9 *728:11 *729:11 0.0494664
10 *740:mem_wdata[25] *728:21 1.97563e-05
11 *335:15 *740:mem_we 8.31566e-05
12 *335:15 *728:23 0
13 *342:31 *740:mem_we 0.000330324
14 *343:25 *740:mem_we 0.000378438
15 *352:19 *728:11 9.96693e-05
16 *375:15 *728:15 0.000115479
17 *378:15 *728:15 0.00627657
18 *378:23 *728:15 0.000148651
19 *384:21 *728:15 0.0250484
20 *656:11 *728:11 0.0439347
21 *656:15 *740:mem_we 0.000559286
22 *656:15 *728:15 0.00019558
23 *656:15 *728:23 0.0073916
24 *668:11 *740:mem_we 0.00157402
25 *668:11 *728:23 0.0570173
26 *678:19 *728:15 0.0324913
27 *683:23 *728:15 0.00334884
28 *701:21 *740:mem_we 5.53997e-05
29 *701:23 *740:mem_we 7.4607e-05
30 *711:15 *728:23 0.0114009
31 *725:23 *728:23 0
*RES
1 *739:mem_we_o *728:9 4.54113 
2 *728:9 *728:11 624.723 
3 *728:11 *728:13 4.5 
4 *728:13 *728:15 315.964 
5 *728:15 *728:21 10.0082 
6 *728:21 *728:23 88.725 
7 *728:23 *740:mem_we 33.9533 
*END

*D_NET *729 0.579454
*CONN
*I *740:op[0] I *D ntt_engine_256
*I *739:op_o[0] O *D ntt_wb_bridge
*CAP
1 *740:op[0] 0.00137612
2 *739:op_o[0] 0.000630602
3 *729:35 0.0232822
4 *729:33 0.0220219
5 *729:27 0.00551016
6 *729:25 0.00539429
7 *729:23 0.0131739
8 *729:21 0.0132328
9 *729:15 0.0326488
10 *729:13 0.0325899
11 *729:11 0.0127919
12 *729:9 0.0134225
13 *729:9 *730:7 0
14 *729:15 *737:23 0.0268424
15 *729:21 *737:29 2.29917e-05
16 *729:23 *737:31 0.0720804
17 *729:27 *736:26 0.00812865
18 *729:35 *736:34 1.65282e-05
19 *77:47 *729:9 2.63501e-05
20 *79:20 *729:9 0.000437196
21 *115:35 *729:9 0.000118344
22 *118:27 *729:27 0
23 *120:29 *729:27 0
24 *143:19 *729:11 0
25 *315:17 *729:15 0.00263384
26 *315:17 *729:23 3.00158e-05
27 *336:15 *729:15 0.0013846
28 *350:27 *729:15 0
29 *352:19 *729:11 0.000419006
30 *359:41 *729:9 0.000270879
31 *360:27 *729:15 0.0105353
32 *361:23 *729:15 0
33 *363:11 *729:11 0.054154
34 *376:15 *729:15 0.000268481
35 *379:15 *729:15 0.00751863
36 *656:23 *729:23 0
37 *656:27 *729:27 0
38 *664:15 *729:27 0.00339939
39 *664:15 *729:35 0.0232161
40 *691:17 *740:op[0] 1.56905e-05
41 *691:19 *729:27 2.00751e-05
42 *701:15 *729:15 0
43 *709:19 *729:27 0.000248009
44 *709:27 *729:35 0.0155913
45 *718:19 *729:27 0.0153657
46 *718:27 *729:35 0.0316942
47 *725:15 *729:15 0.00711979
48 *726:23 *729:23 0.0723543
49 *728:11 *729:11 0.0494664
*RES
1 *739:op_o[0] *729:9 4.8952 
2 *729:9 *729:11 690.598 
3 *729:11 *729:13 4.5 
4 *729:13 *729:15 907.393 
5 *729:15 *729:21 9.0975 
6 *729:21 *729:23 116.218 
7 *729:23 *729:25 3.41 
8 *729:25 *729:27 216.875 
9 *729:27 *729:33 7.04717 
10 *729:33 *729:35 114.677 
11 *729:35 *740:op[0] 6.26603 
*END

*D_NET *730 0.422936
*CONN
*I *740:op[1] I *D ntt_engine_256
*I *739:op_o[1] O *D ntt_wb_bridge
*CAP
1 *740:op[1] 0.00062783
2 *739:op_o[1] 3.9923e-05
3 *730:19 0.0350217
4 *730:17 0.0345595
5 *730:11 0.0145614
6 *730:7 0.0372457
7 *730:5 0.0228898
8 *730:19 *738:19 0.00711433
9 io_out[0] *730:7 0.0665673
10 *77:47 *730:7 0
11 *78:129 *730:19 0
12 *114:25 *730:11 0
13 *652:11 *730:11 0
14 *654:11 *730:11 0.00126622
15 *658:27 *730:19 0.0298996
16 *682:15 *730:19 0.000133309
17 *685:25 *730:19 0.0598511
18 *700:19 *730:19 0.00392499
19 *708:27 *730:19 0.0978829
20 *714:19 *730:19 0.0111255
21 *724:15 *730:17 2.29675e-05
22 *724:21 *730:11 0.000201745
23 *729:9 *730:7 0
*RES
1 *739:op_o[1] *730:5 0.0767667 
2 *730:5 *730:7 104.4 
3 *730:7 *730:11 47.4553 
4 *730:11 *730:17 7.1913 
5 *730:17 *730:19 1670.38 
6 *730:19 *740:op[1] 4.867 
*END

*D_NET *731 0.20773
*CONN
*I *740:op[2] I *D ntt_engine_256
*I *739:op_o[2] O *D ntt_wb_bridge
*CAP
1 *740:op[2] 0.00083024
2 *739:op_o[2] 0.00100069
3 *731:43 0.00679944
4 *731:41 0.0100625
5 *731:23 0.00749411
6 *731:21 0.00484323
7 *731:11 0.022453
8 *731:9 0.0220113
9 *731:9 *732:7 0
10 *731:11 *735:11 0
11 *731:11 *737:11 0.00983915
12 *79:20 *731:9 0.000437196
13 *115:35 *731:9 0.000118344
14 *143:19 *731:11 0
15 *298:21 *731:41 0.000233756
16 *359:41 *731:9 0.000270879
17 *364:19 *731:11 0
18 *380:11 *731:41 7.88747e-05
19 *393:21 *731:41 0.000186878
20 *395:21 *731:41 1.08936e-05
21 *649:11 *731:43 0.0432944
22 *657:11 *731:11 0
23 *709:11 *731:11 0
24 *718:11 *731:11 0.0328379
25 *719:13 *731:43 0.0432916
26 *722:13 *731:11 0.00163525
27 *722:15 *731:11 0
28 *727:11 *731:11 0
*RES
1 *739:op_o[2] *731:9 5.83207 
2 *731:9 *731:11 576.455 
3 *731:11 *731:21 33.6161 
4 *731:21 *731:23 67.8929 
5 *731:23 *731:41 30.1418 
6 *731:41 *731:43 67.3933 
7 *731:43 *740:op[2] 18.3921 
*END

*D_NET *732 0.677654
*CONN
*I *740:slot_a[0] I *D ntt_engine_256
*I *739:slot_a_o[0] O *D ntt_wb_bridge
*CAP
1 *740:slot_a[0] 0.000428366
2 *739:slot_a_o[0] 3.13927e-05
3 *732:27 0.00763106
4 *732:25 0.00823296
5 *732:15 0.00212038
6 *732:13 0.00111632
7 *732:11 0.04246
8 *732:9 0.0424338
9 *732:7 0.0361134
10 *732:5 0.0361448
11 *732:11 *738:11 0.008079
12 *740:mem_slot[1] *732:25 2.11419e-05
13 *74:31 *732:11 0.226376
14 *74:31 *732:15 0.00339428
15 *77:47 *732:7 0.000501541
16 *78:39 *732:7 0
17 *78:175 *732:25 0
18 *115:39 *732:7 0.000222167
19 *141:17 *732:11 0
20 *646:19 *732:27 0.0469669
21 *648:15 *732:27 0.0374339
22 *663:11 *732:27 0.00401467
23 *663:23 *732:25 3.45423e-05
24 *671:15 *732:25 7.48846e-05
25 *671:15 *732:27 0.00393762
26 *674:13 *732:11 0.0369968
27 *679:11 *732:25 0.000245378
28 *694:11 *732:11 0.123338
29 *694:11 *732:15 0.00604941
30 *714:31 *732:27 0
31 *715:23 *732:27 0.0022052
32 *720:21 *732:25 0.00105059
33 *731:9 *732:7 0
*RES
1 *739:slot_a_o[0] *732:5 0.0767667 
2 *732:5 *732:7 105.589 
3 *732:7 *732:9 3.41 
4 *732:9 *732:11 2774.88 
5 *732:11 *732:13 0.535714 
6 *732:13 *732:15 74.0893 
7 *732:15 *732:25 15.1642 
8 *732:25 *732:27 441.232 
9 *732:27 *740:slot_a[0] 12.3482 
*END

*D_NET *733 0.868702
*CONN
*I *740:slot_a[1] I *D ntt_engine_256
*I *739:slot_a_o[1] O *D ntt_wb_bridge
*CAP
1 *740:slot_a[1] 0.00549103
2 *739:slot_a_o[1] 0.00204625
3 *733:53 0.00672883
4 *733:43 0.0281195
5 *733:41 0.0268817
6 *733:39 0.0829701
7 *733:37 0.0925634
8 *733:11 0.0412626
9 *733:9 0.0337156
10 *733:37 *734:19 0.000990968
11 *733:43 *737:43 0.00675233
12 la_data_out[82] *733:11 0.00980749
13 la_data_out[82] *733:37 0.00169135
14 *81:19 *733:43 0.175926
15 *105:19 *733:11 0.00485749
16 *105:19 *733:37 0.000527535
17 *354:25 *733:37 2.08716e-05
18 *357:25 *733:39 0.00408516
19 *361:27 *733:11 0.00948471
20 *361:27 *733:37 0.00181103
21 *368:23 *733:11 0.0106269
22 *368:23 *733:37 0.00184118
23 *376:19 *733:11 0.00894779
24 *376:19 *733:37 0.00119708
25 *379:19 *733:11 0.0098233
26 *379:19 *733:37 0.00125727
27 *382:17 *733:37 0.000470134
28 *383:37 *733:37 0.000470134
29 *540:17 *733:53 0.000716158
30 *662:17 *740:slot_a[1] 0.00697098
31 *675:31 *733:37 0.000841434
32 *677:27 *733:37 0.000527535
33 *690:19 *733:11 0
34 *690:19 *733:37 0
35 *695:45 *740:slot_a[1] 0.00112276
36 *704:35 *733:43 0.175934
37 *708:11 *733:11 0
38 *710:39 *740:slot_a[1] 0.0195155
39 *712:26 *733:39 0
40 *712:34 *733:39 0.0645362
41 *716:27 *733:43 0.0150819
42 *717:27 *733:43 0.0130881
43 *724:13 *733:11 0
*RES
1 *739:slot_a_o[1] *733:9 8.4343 
2 *733:9 *733:11 96.4847 
3 *733:11 *733:37 40.8697 
4 *733:37 *733:39 1584.25 
5 *733:39 *733:41 4.5 
6 *733:41 *733:43 2156.7 
7 *733:43 *733:53 34.4368 
8 *733:53 *740:slot_a[1] 42.9042 
*END

*D_NET *734 1.03719
*CONN
*I *740:slot_b[0] I *D ntt_engine_256
*I *739:slot_b_o[0] O *D ntt_wb_bridge
*CAP
1 *740:slot_b[0] 0.000402833
2 *739:slot_b_o[0] 0.00205036
3 *734:43 0.0103698
4 *734:41 0.0110123
5 *734:35 0.0343032
6 *734:33 0.0332579
7 *734:31 0.00768851
8 *734:29 0.0078696
9 *734:23 0.0206618
10 *734:21 0.0204807
11 *734:19 0.0118312
12 *734:17 0.0138815
13 *740:mem_wdata[9] *734:31 2.83129e-05
14 *82:25 *734:35 0
15 *105:19 *734:19 0.0171248
16 *360:31 *734:17 1.94879e-05
17 *361:27 *734:19 0
18 *364:19 *734:17 6.27272e-06
19 *376:19 *734:19 0.0533074
20 *379:19 *734:19 2.2355e-05
21 *540:17 *734:41 5.15883e-05
22 *540:17 *734:43 0.058158
23 *647:11 *734:23 0.0208749
24 *662:19 *734:35 2.38581e-05
25 *675:13 *734:41 0.000829045
26 *675:15 *734:35 0.173344
27 *675:25 *734:31 0
28 *675:31 *734:19 0.00994546
29 *677:27 *734:19 2.49484e-05
30 *695:23 *734:23 0.130735
31 *695:33 *734:31 0.0112714
32 *695:35 *734:35 0.17339
33 *695:45 *734:41 0.000611639
34 *704:31 *734:23 0.00314532
35 *704:31 *734:31 0.00580485
36 *704:45 *734:41 0.00307399
37 *704:47 *734:43 0.0483439
38 *706:23 *734:31 0.0172653
39 *710:23 *734:23 0.101872
40 *710:39 *734:41 0.00301112
41 *710:39 *734:43 1.53584e-05
42 *719:13 *734:31 0.0300883
43 *733:37 *734:19 0.000990968
*RES
1 *739:slot_b_o[0] *734:17 30.0131 
2 *734:17 *734:19 672.232 
3 *734:19 *734:21 4.5 
4 *734:21 *734:23 1228.16 
5 *734:23 *734:29 10.9189 
6 *734:29 *734:31 65.2673 
7 *734:31 *734:33 3.41 
8 *734:33 *734:35 2160.95 
9 *734:35 *734:41 11.1039 
10 *734:41 *734:43 90.5988 
11 *734:43 *740:slot_b[0] 11.4457 
*END

*D_NET *735 0.126318
*CONN
*I *740:slot_b[1] I *D ntt_engine_256
*I *739:slot_b_o[1] O *D ntt_wb_bridge
*CAP
1 *740:slot_b[1] 0.00300321
2 *739:slot_b_o[1] 0.00105138
3 *735:29 0.0150363
4 *735:27 0.0134185
5 *735:11 0.0157677
6 *735:9 0.0154337
7 *735:11 *737:11 0.00288064
8 *735:27 *736:16 0
9 *735:29 *736:16 0
10 *735:29 *736:18 0
11 *79:20 *735:9 0.000360771
12 *357:25 *740:slot_b[1] 0.00805699
13 *359:27 *735:29 0.0249754
14 *359:39 *735:27 9.0404e-05
15 *359:41 *735:9 0.000111764
16 *364:19 *735:11 0
17 *701:11 *735:11 0.00165138
18 *706:11 *735:11 0.00706418
19 *713:11 *735:27 0.000319366
20 *716:11 *735:11 0.00153405
21 *718:11 *735:11 0
22 *719:9 *735:27 0
23 *720:7 *735:27 5.7811e-07
24 *722:19 *740:slot_b[1] 0.014208
25 *725:11 *735:11 0
26 *726:11 *735:11 0.00135357
27 *731:11 *735:11 0
*RES
1 *739:slot_b_o[1] *735:9 6.15793 
2 *735:9 *735:11 353.938 
3 *735:11 *735:27 33.8078 
4 *735:27 *735:29 54.379 
5 *735:29 *740:slot_b[1] 39.6697 
*END

*D_NET *736 0.570885
*CONN
*I *740:slot_c[0] I *D ntt_engine_256
*I *739:slot_c_o[0] O *D ntt_wb_bridge
*CAP
1 *740:slot_c[0] 0.00129003
2 *739:slot_c_o[0] 0
3 *736:34 0.0107351
4 *736:32 0.00958439
5 *736:26 0.00326846
6 *736:24 0.00312919
7 *736:22 0.0576228
8 *736:20 0.0576228
9 *736:18 0.0122495
10 *736:16 0.0131777
11 *736:6 0.0155703
12 *736:4 0.014642
13 *79:20 *736:6 0.00501594
14 *79:24 *736:6 0
15 *120:29 *736:26 0
16 *359:27 *736:16 0
17 *359:39 *736:16 0.000310064
18 *359:41 *736:6 0.00121636
19 *664:15 *736:26 0.00179029
20 *664:15 *736:34 0.0310494
21 *677:11 *736:34 0.0469649
22 *689:23 *736:22 0.175156
23 *691:19 *736:34 0.0113328
24 *693:9 *736:6 0.000360771
25 *693:11 *736:6 0.00944451
26 *693:11 *736:18 0.00970763
27 *696:9 *736:6 0.000255549
28 *696:11 *736:6 0.00295222
29 *696:11 *736:16 0.000101822
30 *696:11 *736:18 0.00541867
31 *697:9 *736:6 0.000201414
32 *697:11 *736:16 0.000221395
33 *697:11 *736:18 0.000272226
34 *702:12 *736:6 0.0094106
35 *702:12 *736:16 0.00111324
36 *702:12 *736:18 0.000474709
37 *702:14 *736:18 0.0244448
38 *709:15 *736:22 0.00036483
39 *709:19 *736:34 0.010123
40 *709:25 *740:slot_c[0] 5.0027e-06
41 *711:11 *736:18 0.000251583
42 *718:15 *736:22 0
43 *718:27 *736:34 0.0158878
44 *729:27 *736:26 0.00812865
45 *729:35 *736:34 1.65282e-05
46 *735:27 *736:16 0
47 *735:29 *736:16 0
48 *735:29 *736:18 0
*RES
1 *739:slot_c_o[0] *736:4 3.41 
2 *736:4 *736:6 60.8243 
3 *736:6 *736:16 9.77473 
4 *736:16 *736:18 54.2725 
5 *736:18 *736:20 3.41 
6 *736:20 *736:22 274.225 
7 *736:22 *736:24 3.41 
8 *736:24 *736:26 99.6964 
9 *736:26 *736:32 7.04717 
10 *736:32 *736:34 97.9511 
11 *736:34 *740:slot_c[0] 5.97777 
*END

*D_NET *737 0.75438
*CONN
*I *740:slot_c[1] I *D ntt_engine_256
*I *739:slot_c_o[1] O *D ntt_wb_bridge
*CAP
1 *740:slot_c[1] 0.000624787
2 *739:slot_c_o[1] 0.00091109
3 *737:43 0.0385542
4 *737:41 0.0380562
5 *737:35 0.0184152
6 *737:33 0.0182884
7 *737:31 0.0264551
8 *737:29 0.0265331
9 *737:23 0.0276452
10 *737:21 0.0276881
11 *737:11 0.0343401
12 *737:9 0.0351303
13 *740:mem_wdata[14] *737:35 0.000503384
14 *79:20 *737:9 0.000360771
15 *81:19 *737:35 0.00045801
16 *81:19 *737:43 0.0135599
17 *101:19 *737:11 0
18 *273:15 *737:23 0.000146799
19 *274:15 *737:23 0.000753993
20 *276:15 *737:23 0.0208475
21 *315:17 *737:23 0.00402075
22 *315:17 *737:31 0.000253835
23 *336:15 *737:31 3.80106e-05
24 *339:25 *737:31 1.1397e-05
25 *345:35 *737:23 0.00228382
26 *346:27 *737:23 0.00118731
27 *351:23 *737:23 0
28 *359:41 *737:9 0.000111764
29 *364:15 *737:21 7.76075e-06
30 *374:15 *737:23 0.00867649
31 *379:15 *737:21 4.73953e-05
32 *650:17 *737:9 0
33 *688:9 *737:41 2.9988e-05
34 *689:11 *737:43 0.0029909
35 *689:19 *737:35 0.0765654
36 *689:27 *737:11 0.0192343
37 *691:11 *737:43 0
38 *701:11 *737:11 0.00122256
39 *704:35 *737:35 0.0923097
40 *704:35 *737:43 0.00756224
41 *706:11 *737:11 0.00104301
42 *706:27 *737:35 0.000164255
43 *706:35 *737:35 0.0149796
44 *709:11 *737:21 0
45 *716:11 *737:11 0.000372082
46 *716:27 *737:35 0.0095766
47 *717:27 *737:43 0.0238333
48 *718:11 *737:11 0.00828191
49 *718:11 *737:21 4.74764e-05
50 *722:13 *737:11 0.0002652
51 *725:11 *737:11 0.00405637
52 *725:15 *737:23 0.0240603
53 *726:11 *737:11 0.00345608
54 *726:15 *737:23 0
55 *726:27 *737:35 0
56 *729:15 *737:23 0.0268424
57 *729:21 *737:29 2.29917e-05
58 *729:23 *737:31 0.0720804
59 *731:11 *737:11 0.00983915
60 *733:43 *737:43 0.00675233
61 *735:11 *737:11 0.00288064
*RES
1 *739:slot_c_o[1] *737:9 5.6895 
2 *737:9 *737:11 111.161 
3 *737:11 *737:21 12.8941 
4 *737:21 *737:23 913.143 
5 *737:23 *737:29 9.40107 
6 *737:29 *737:31 114.705 
7 *737:31 *737:33 3.41 
8 *737:33 *737:35 1148.23 
9 *737:35 *737:41 7.04717 
10 *737:41 *737:43 131.935 
11 *737:43 *740:slot_c[1] 4.53643 
*END

*D_NET *738 0.390533
*CONN
*I *740:start I *D ntt_engine_256
*I *739:start_o O *D ntt_wb_bridge
*CAP
1 *740:start 0.00110853
2 *739:start_o 4.19402e-05
3 *738:19 0.025535
4 *738:17 0.0246933
5 *738:11 0.0320792
6 *738:9 0.0318124
7 *738:7 0.0378771
8 *738:5 0.037919
9 *74:31 *738:11 0.0201763
10 *78:129 *738:19 0
11 *115:219 *738:19 0.0148552
12 *659:15 *738:11 0
13 *669:19 *738:17 4.49449e-05
14 *682:31 *738:19 0.00629371
15 *690:11 *738:19 0.0322676
16 *705:23 *738:19 0.000261791
17 *708:27 *738:19 0.0825344
18 *723:11 *738:11 0.0278391
19 *730:19 *738:19 0.00711433
20 *732:11 *738:11 0.008079
*RES
1 *739:start_o *738:5 0.0767667 
2 *738:5 *738:7 105.408 
3 *738:7 *738:9 3.41 
4 *738:9 *738:11 97.7381 
5 *738:11 *738:17 7.4075 
6 *738:17 *738:19 1194.98 
7 *738:19 *740:start 5.5438 
*END
