*SPEF "ieee 1481-1999"
*DESIGN "user_project_wrapper"
*DATE "11:11:11 Fri 11 11, 1111"
*VENDOR "OpenRCX"
*PROGRAM "Parallel Extraction"
*VERSION "1.0"
*DESIGN_FLOW "NAME_SCOPE LOCAL" "PIN_CAP NONE"
*DIVIDER /
*DELIMITER :
*BUS_DELIMITER []
*T_UNIT 1 NS
*C_UNIT 1 PF
*R_UNIT 1 OHM
*L_UNIT 1 HENRY

*NAME_MAP
*1 analog_io[0]
*2 analog_io[10]
*3 analog_io[11]
*4 analog_io[12]
*5 analog_io[13]
*6 analog_io[14]
*7 analog_io[15]
*8 analog_io[16]
*9 analog_io[17]
*10 analog_io[18]
*11 analog_io[19]
*12 analog_io[1]
*13 analog_io[20]
*14 analog_io[21]
*15 analog_io[22]
*16 analog_io[23]
*17 analog_io[24]
*18 analog_io[25]
*19 analog_io[26]
*20 analog_io[27]
*21 analog_io[28]
*22 analog_io[2]
*23 analog_io[3]
*24 analog_io[4]
*25 analog_io[5]
*26 analog_io[6]
*27 analog_io[7]
*28 analog_io[8]
*29 analog_io[9]
*30 io_in[0]
*31 io_in[10]
*32 io_in[11]
*33 io_in[12]
*34 io_in[13]
*35 io_in[14]
*36 io_in[15]
*37 io_in[16]
*38 io_in[17]
*39 io_in[18]
*40 io_in[19]
*41 io_in[1]
*42 io_in[20]
*43 io_in[21]
*44 io_in[22]
*45 io_in[23]
*46 io_in[24]
*47 io_in[25]
*48 io_in[26]
*49 io_in[27]
*50 io_in[28]
*51 io_in[29]
*52 io_in[2]
*53 io_in[30]
*54 io_in[31]
*55 io_in[32]
*56 io_in[33]
*57 io_in[34]
*58 io_in[35]
*59 io_in[36]
*60 io_in[37]
*61 io_in[3]
*62 io_in[4]
*63 io_in[5]
*64 io_in[6]
*65 io_in[7]
*66 io_in[8]
*67 io_in[9]
*68 io_oeb[0]
*69 io_oeb[10]
*70 io_oeb[11]
*71 io_oeb[12]
*72 io_oeb[13]
*73 io_oeb[14]
*74 io_oeb[15]
*75 io_oeb[16]
*76 io_oeb[17]
*77 io_oeb[18]
*78 io_oeb[19]
*79 io_oeb[1]
*80 io_oeb[20]
*81 io_oeb[21]
*82 io_oeb[22]
*83 io_oeb[23]
*84 io_oeb[24]
*85 io_oeb[25]
*86 io_oeb[26]
*87 io_oeb[27]
*88 io_oeb[28]
*89 io_oeb[29]
*90 io_oeb[2]
*91 io_oeb[30]
*92 io_oeb[31]
*93 io_oeb[32]
*94 io_oeb[33]
*95 io_oeb[34]
*96 io_oeb[35]
*97 io_oeb[36]
*98 io_oeb[37]
*99 io_oeb[3]
*100 io_oeb[4]
*101 io_oeb[5]
*102 io_oeb[6]
*103 io_oeb[7]
*104 io_oeb[8]
*105 io_oeb[9]
*106 io_out[0]
*107 io_out[10]
*108 io_out[11]
*109 io_out[12]
*110 io_out[13]
*111 io_out[14]
*112 io_out[15]
*113 io_out[16]
*114 io_out[17]
*115 io_out[18]
*116 io_out[19]
*117 io_out[1]
*118 io_out[20]
*119 io_out[21]
*120 io_out[22]
*121 io_out[23]
*122 io_out[24]
*123 io_out[25]
*124 io_out[26]
*125 io_out[27]
*126 io_out[28]
*127 io_out[29]
*128 io_out[2]
*129 io_out[30]
*130 io_out[31]
*131 io_out[32]
*132 io_out[33]
*133 io_out[34]
*134 io_out[35]
*135 io_out[36]
*136 io_out[37]
*137 io_out[3]
*138 io_out[4]
*139 io_out[5]
*140 io_out[6]
*141 io_out[7]
*142 io_out[8]
*143 io_out[9]
*144 la_data_in[0]
*145 la_data_in[100]
*146 la_data_in[101]
*147 la_data_in[102]
*148 la_data_in[103]
*149 la_data_in[104]
*150 la_data_in[105]
*151 la_data_in[106]
*152 la_data_in[107]
*153 la_data_in[108]
*154 la_data_in[109]
*155 la_data_in[10]
*156 la_data_in[110]
*157 la_data_in[111]
*158 la_data_in[112]
*159 la_data_in[113]
*160 la_data_in[114]
*161 la_data_in[115]
*162 la_data_in[116]
*163 la_data_in[117]
*164 la_data_in[118]
*165 la_data_in[119]
*166 la_data_in[11]
*167 la_data_in[120]
*168 la_data_in[121]
*169 la_data_in[122]
*170 la_data_in[123]
*171 la_data_in[124]
*172 la_data_in[125]
*173 la_data_in[126]
*174 la_data_in[127]
*175 la_data_in[12]
*176 la_data_in[13]
*177 la_data_in[14]
*178 la_data_in[15]
*179 la_data_in[16]
*180 la_data_in[17]
*181 la_data_in[18]
*182 la_data_in[19]
*183 la_data_in[1]
*184 la_data_in[20]
*185 la_data_in[21]
*186 la_data_in[22]
*187 la_data_in[23]
*188 la_data_in[24]
*189 la_data_in[25]
*190 la_data_in[26]
*191 la_data_in[27]
*192 la_data_in[28]
*193 la_data_in[29]
*194 la_data_in[2]
*195 la_data_in[30]
*196 la_data_in[31]
*197 la_data_in[32]
*198 la_data_in[33]
*199 la_data_in[34]
*200 la_data_in[35]
*201 la_data_in[36]
*202 la_data_in[37]
*203 la_data_in[38]
*204 la_data_in[39]
*205 la_data_in[3]
*206 la_data_in[40]
*207 la_data_in[41]
*208 la_data_in[42]
*209 la_data_in[43]
*210 la_data_in[44]
*211 la_data_in[45]
*212 la_data_in[46]
*213 la_data_in[47]
*214 la_data_in[48]
*215 la_data_in[49]
*216 la_data_in[4]
*217 la_data_in[50]
*218 la_data_in[51]
*219 la_data_in[52]
*220 la_data_in[53]
*221 la_data_in[54]
*222 la_data_in[55]
*223 la_data_in[56]
*224 la_data_in[57]
*225 la_data_in[58]
*226 la_data_in[59]
*227 la_data_in[5]
*228 la_data_in[60]
*229 la_data_in[61]
*230 la_data_in[62]
*231 la_data_in[63]
*232 la_data_in[64]
*233 la_data_in[65]
*234 la_data_in[66]
*235 la_data_in[67]
*236 la_data_in[68]
*237 la_data_in[69]
*238 la_data_in[6]
*239 la_data_in[70]
*240 la_data_in[71]
*241 la_data_in[72]
*242 la_data_in[73]
*243 la_data_in[74]
*244 la_data_in[75]
*245 la_data_in[76]
*246 la_data_in[77]
*247 la_data_in[78]
*248 la_data_in[79]
*249 la_data_in[7]
*250 la_data_in[80]
*251 la_data_in[81]
*252 la_data_in[82]
*253 la_data_in[83]
*254 la_data_in[84]
*255 la_data_in[85]
*256 la_data_in[86]
*257 la_data_in[87]
*258 la_data_in[88]
*259 la_data_in[89]
*260 la_data_in[8]
*261 la_data_in[90]
*262 la_data_in[91]
*263 la_data_in[92]
*264 la_data_in[93]
*265 la_data_in[94]
*266 la_data_in[95]
*267 la_data_in[96]
*268 la_data_in[97]
*269 la_data_in[98]
*270 la_data_in[99]
*271 la_data_in[9]
*272 la_data_out[0]
*273 la_data_out[100]
*274 la_data_out[101]
*275 la_data_out[102]
*276 la_data_out[103]
*277 la_data_out[104]
*278 la_data_out[105]
*279 la_data_out[106]
*280 la_data_out[107]
*281 la_data_out[108]
*282 la_data_out[109]
*283 la_data_out[10]
*284 la_data_out[110]
*285 la_data_out[111]
*286 la_data_out[112]
*287 la_data_out[113]
*288 la_data_out[114]
*289 la_data_out[115]
*290 la_data_out[116]
*291 la_data_out[117]
*292 la_data_out[118]
*293 la_data_out[119]
*294 la_data_out[11]
*295 la_data_out[120]
*296 la_data_out[121]
*297 la_data_out[122]
*298 la_data_out[123]
*299 la_data_out[124]
*300 la_data_out[125]
*301 la_data_out[126]
*302 la_data_out[127]
*303 la_data_out[12]
*304 la_data_out[13]
*305 la_data_out[14]
*306 la_data_out[15]
*307 la_data_out[16]
*308 la_data_out[17]
*309 la_data_out[18]
*310 la_data_out[19]
*311 la_data_out[1]
*312 la_data_out[20]
*313 la_data_out[21]
*314 la_data_out[22]
*315 la_data_out[23]
*316 la_data_out[24]
*317 la_data_out[25]
*318 la_data_out[26]
*319 la_data_out[27]
*320 la_data_out[28]
*321 la_data_out[29]
*322 la_data_out[2]
*323 la_data_out[30]
*324 la_data_out[31]
*325 la_data_out[32]
*326 la_data_out[33]
*327 la_data_out[34]
*328 la_data_out[35]
*329 la_data_out[36]
*330 la_data_out[37]
*331 la_data_out[38]
*332 la_data_out[39]
*333 la_data_out[3]
*334 la_data_out[40]
*335 la_data_out[41]
*336 la_data_out[42]
*337 la_data_out[43]
*338 la_data_out[44]
*339 la_data_out[45]
*340 la_data_out[46]
*341 la_data_out[47]
*342 la_data_out[48]
*343 la_data_out[49]
*344 la_data_out[4]
*345 la_data_out[50]
*346 la_data_out[51]
*347 la_data_out[52]
*348 la_data_out[53]
*349 la_data_out[54]
*350 la_data_out[55]
*351 la_data_out[56]
*352 la_data_out[57]
*353 la_data_out[58]
*354 la_data_out[59]
*355 la_data_out[5]
*356 la_data_out[60]
*357 la_data_out[61]
*358 la_data_out[62]
*359 la_data_out[63]
*360 la_data_out[64]
*361 la_data_out[65]
*362 la_data_out[66]
*363 la_data_out[67]
*364 la_data_out[68]
*365 la_data_out[69]
*366 la_data_out[6]
*367 la_data_out[70]
*368 la_data_out[71]
*369 la_data_out[72]
*370 la_data_out[73]
*371 la_data_out[74]
*372 la_data_out[75]
*373 la_data_out[76]
*374 la_data_out[77]
*375 la_data_out[78]
*376 la_data_out[79]
*377 la_data_out[7]
*378 la_data_out[80]
*379 la_data_out[81]
*380 la_data_out[82]
*381 la_data_out[83]
*382 la_data_out[84]
*383 la_data_out[85]
*384 la_data_out[86]
*385 la_data_out[87]
*386 la_data_out[88]
*387 la_data_out[89]
*388 la_data_out[8]
*389 la_data_out[90]
*390 la_data_out[91]
*391 la_data_out[92]
*392 la_data_out[93]
*393 la_data_out[94]
*394 la_data_out[95]
*395 la_data_out[96]
*396 la_data_out[97]
*397 la_data_out[98]
*398 la_data_out[99]
*399 la_data_out[9]
*400 la_oenb[0]
*401 la_oenb[100]
*402 la_oenb[101]
*403 la_oenb[102]
*404 la_oenb[103]
*405 la_oenb[104]
*406 la_oenb[105]
*407 la_oenb[106]
*408 la_oenb[107]
*409 la_oenb[108]
*410 la_oenb[109]
*411 la_oenb[10]
*412 la_oenb[110]
*413 la_oenb[111]
*414 la_oenb[112]
*415 la_oenb[113]
*416 la_oenb[114]
*417 la_oenb[115]
*418 la_oenb[116]
*419 la_oenb[117]
*420 la_oenb[118]
*421 la_oenb[119]
*422 la_oenb[11]
*423 la_oenb[120]
*424 la_oenb[121]
*425 la_oenb[122]
*426 la_oenb[123]
*427 la_oenb[124]
*428 la_oenb[125]
*429 la_oenb[126]
*430 la_oenb[127]
*431 la_oenb[12]
*432 la_oenb[13]
*433 la_oenb[14]
*434 la_oenb[15]
*435 la_oenb[16]
*436 la_oenb[17]
*437 la_oenb[18]
*438 la_oenb[19]
*439 la_oenb[1]
*440 la_oenb[20]
*441 la_oenb[21]
*442 la_oenb[22]
*443 la_oenb[23]
*444 la_oenb[24]
*445 la_oenb[25]
*446 la_oenb[26]
*447 la_oenb[27]
*448 la_oenb[28]
*449 la_oenb[29]
*450 la_oenb[2]
*451 la_oenb[30]
*452 la_oenb[31]
*453 la_oenb[32]
*454 la_oenb[33]
*455 la_oenb[34]
*456 la_oenb[35]
*457 la_oenb[36]
*458 la_oenb[37]
*459 la_oenb[38]
*460 la_oenb[39]
*461 la_oenb[3]
*462 la_oenb[40]
*463 la_oenb[41]
*464 la_oenb[42]
*465 la_oenb[43]
*466 la_oenb[44]
*467 la_oenb[45]
*468 la_oenb[46]
*469 la_oenb[47]
*470 la_oenb[48]
*471 la_oenb[49]
*472 la_oenb[4]
*473 la_oenb[50]
*474 la_oenb[51]
*475 la_oenb[52]
*476 la_oenb[53]
*477 la_oenb[54]
*478 la_oenb[55]
*479 la_oenb[56]
*480 la_oenb[57]
*481 la_oenb[58]
*482 la_oenb[59]
*483 la_oenb[5]
*484 la_oenb[60]
*485 la_oenb[61]
*486 la_oenb[62]
*487 la_oenb[63]
*488 la_oenb[64]
*489 la_oenb[65]
*490 la_oenb[66]
*491 la_oenb[67]
*492 la_oenb[68]
*493 la_oenb[69]
*494 la_oenb[6]
*495 la_oenb[70]
*496 la_oenb[71]
*497 la_oenb[72]
*498 la_oenb[73]
*499 la_oenb[74]
*500 la_oenb[75]
*501 la_oenb[76]
*502 la_oenb[77]
*503 la_oenb[78]
*504 la_oenb[79]
*505 la_oenb[7]
*506 la_oenb[80]
*507 la_oenb[81]
*508 la_oenb[82]
*509 la_oenb[83]
*510 la_oenb[84]
*511 la_oenb[85]
*512 la_oenb[86]
*513 la_oenb[87]
*514 la_oenb[88]
*515 la_oenb[89]
*516 la_oenb[8]
*517 la_oenb[90]
*518 la_oenb[91]
*519 la_oenb[92]
*520 la_oenb[93]
*521 la_oenb[94]
*522 la_oenb[95]
*523 la_oenb[96]
*524 la_oenb[97]
*525 la_oenb[98]
*526 la_oenb[99]
*527 la_oenb[9]
*528 user_clock2
*529 user_irq[0]
*530 user_irq[1]
*531 user_irq[2]
*540 wb_clk_i
*541 wb_rst_i
*542 wbs_ack_o
*543 wbs_adr_i[0]
*544 wbs_adr_i[10]
*545 wbs_adr_i[11]
*546 wbs_adr_i[12]
*547 wbs_adr_i[13]
*548 wbs_adr_i[14]
*549 wbs_adr_i[15]
*550 wbs_adr_i[16]
*551 wbs_adr_i[17]
*552 wbs_adr_i[18]
*553 wbs_adr_i[19]
*554 wbs_adr_i[1]
*555 wbs_adr_i[20]
*556 wbs_adr_i[21]
*557 wbs_adr_i[22]
*558 wbs_adr_i[23]
*559 wbs_adr_i[24]
*560 wbs_adr_i[25]
*561 wbs_adr_i[26]
*562 wbs_adr_i[27]
*563 wbs_adr_i[28]
*564 wbs_adr_i[29]
*565 wbs_adr_i[2]
*566 wbs_adr_i[30]
*567 wbs_adr_i[31]
*568 wbs_adr_i[3]
*569 wbs_adr_i[4]
*570 wbs_adr_i[5]
*571 wbs_adr_i[6]
*572 wbs_adr_i[7]
*573 wbs_adr_i[8]
*574 wbs_adr_i[9]
*575 wbs_cyc_i
*576 wbs_dat_i[0]
*577 wbs_dat_i[10]
*578 wbs_dat_i[11]
*579 wbs_dat_i[12]
*580 wbs_dat_i[13]
*581 wbs_dat_i[14]
*582 wbs_dat_i[15]
*583 wbs_dat_i[16]
*584 wbs_dat_i[17]
*585 wbs_dat_i[18]
*586 wbs_dat_i[19]
*587 wbs_dat_i[1]
*588 wbs_dat_i[20]
*589 wbs_dat_i[21]
*590 wbs_dat_i[22]
*591 wbs_dat_i[23]
*592 wbs_dat_i[24]
*593 wbs_dat_i[25]
*594 wbs_dat_i[26]
*595 wbs_dat_i[27]
*596 wbs_dat_i[28]
*597 wbs_dat_i[29]
*598 wbs_dat_i[2]
*599 wbs_dat_i[30]
*600 wbs_dat_i[31]
*601 wbs_dat_i[3]
*602 wbs_dat_i[4]
*603 wbs_dat_i[5]
*604 wbs_dat_i[6]
*605 wbs_dat_i[7]
*606 wbs_dat_i[8]
*607 wbs_dat_i[9]
*608 wbs_dat_o[0]
*609 wbs_dat_o[10]
*610 wbs_dat_o[11]
*611 wbs_dat_o[12]
*612 wbs_dat_o[13]
*613 wbs_dat_o[14]
*614 wbs_dat_o[15]
*615 wbs_dat_o[16]
*616 wbs_dat_o[17]
*617 wbs_dat_o[18]
*618 wbs_dat_o[19]
*619 wbs_dat_o[1]
*620 wbs_dat_o[20]
*621 wbs_dat_o[21]
*622 wbs_dat_o[22]
*623 wbs_dat_o[23]
*624 wbs_dat_o[24]
*625 wbs_dat_o[25]
*626 wbs_dat_o[26]
*627 wbs_dat_o[27]
*628 wbs_dat_o[28]
*629 wbs_dat_o[29]
*630 wbs_dat_o[2]
*631 wbs_dat_o[30]
*632 wbs_dat_o[31]
*633 wbs_dat_o[3]
*634 wbs_dat_o[4]
*635 wbs_dat_o[5]
*636 wbs_dat_o[6]
*637 wbs_dat_o[7]
*638 wbs_dat_o[8]
*639 wbs_dat_o[9]
*640 wbs_sel_i[0]
*641 wbs_sel_i[1]
*642 wbs_sel_i[2]
*643 wbs_sel_i[3]
*644 wbs_stb_i
*645 wbs_we_i
*646 ntt\.busy
*647 ntt\.done
*648 ntt\.engine_rst_n
*649 ntt\.ext_rvalid_o
*650 ntt\.mac_init
*651 ntt\.mem_addr\[0\]
*652 ntt\.mem_addr\[1\]
*653 ntt\.mem_addr\[2\]
*654 ntt\.mem_addr\[3\]
*655 ntt\.mem_addr\[4\]
*656 ntt\.mem_addr\[5\]
*657 ntt\.mem_addr\[6\]
*658 ntt\.mem_addr\[7\]
*659 ntt\.mem_addr\[8\]
*660 ntt\.mem_rdata\[0\]
*661 ntt\.mem_rdata\[10\]
*662 ntt\.mem_rdata\[11\]
*663 ntt\.mem_rdata\[12\]
*664 ntt\.mem_rdata\[13\]
*665 ntt\.mem_rdata\[14\]
*666 ntt\.mem_rdata\[15\]
*667 ntt\.mem_rdata\[16\]
*668 ntt\.mem_rdata\[17\]
*669 ntt\.mem_rdata\[18\]
*670 ntt\.mem_rdata\[19\]
*671 ntt\.mem_rdata\[1\]
*672 ntt\.mem_rdata\[20\]
*673 ntt\.mem_rdata\[21\]
*674 ntt\.mem_rdata\[22\]
*675 ntt\.mem_rdata\[23\]
*676 ntt\.mem_rdata\[24\]
*677 ntt\.mem_rdata\[25\]
*678 ntt\.mem_rdata\[26\]
*679 ntt\.mem_rdata\[27\]
*680 ntt\.mem_rdata\[28\]
*681 ntt\.mem_rdata\[29\]
*682 ntt\.mem_rdata\[2\]
*683 ntt\.mem_rdata\[30\]
*684 ntt\.mem_rdata\[31\]
*685 ntt\.mem_rdata\[3\]
*686 ntt\.mem_rdata\[4\]
*687 ntt\.mem_rdata\[5\]
*688 ntt\.mem_rdata\[6\]
*689 ntt\.mem_rdata\[7\]
*690 ntt\.mem_rdata\[8\]
*691 ntt\.mem_rdata\[9\]
*692 ntt\.mem_re
*693 ntt\.mem_slot\[0\]
*694 ntt\.mem_slot\[1\]
*695 ntt\.mem_target
*696 ntt\.mem_wdata\[0\]
*697 ntt\.mem_wdata\[10\]
*698 ntt\.mem_wdata\[11\]
*699 ntt\.mem_wdata\[12\]
*700 ntt\.mem_wdata\[13\]
*701 ntt\.mem_wdata\[14\]
*702 ntt\.mem_wdata\[15\]
*703 ntt\.mem_wdata\[16\]
*704 ntt\.mem_wdata\[17\]
*705 ntt\.mem_wdata\[18\]
*706 ntt\.mem_wdata\[19\]
*707 ntt\.mem_wdata\[1\]
*708 ntt\.mem_wdata\[20\]
*709 ntt\.mem_wdata\[21\]
*710 ntt\.mem_wdata\[22\]
*711 ntt\.mem_wdata\[23\]
*712 ntt\.mem_wdata\[24\]
*713 ntt\.mem_wdata\[25\]
*714 ntt\.mem_wdata\[26\]
*715 ntt\.mem_wdata\[27\]
*716 ntt\.mem_wdata\[28\]
*717 ntt\.mem_wdata\[29\]
*718 ntt\.mem_wdata\[2\]
*719 ntt\.mem_wdata\[30\]
*720 ntt\.mem_wdata\[31\]
*721 ntt\.mem_wdata\[3\]
*722 ntt\.mem_wdata\[4\]
*723 ntt\.mem_wdata\[5\]
*724 ntt\.mem_wdata\[6\]
*725 ntt\.mem_wdata\[7\]
*726 ntt\.mem_wdata\[8\]
*727 ntt\.mem_wdata\[9\]
*728 ntt\.mem_we
*729 ntt\.op\[0\]
*730 ntt\.op\[1\]
*731 ntt\.op\[2\]
*732 ntt\.slot_a\[0\]
*733 ntt\.slot_a\[1\]
*734 ntt\.slot_b\[0\]
*735 ntt\.slot_b\[1\]
*736 ntt\.slot_c\[0\]
*737 ntt\.slot_c\[1\]
*738 ntt\.start
*739 ntt\.u_bridge
*740 ntt\.u_engine

*PORTS
analog_io[0] I
analog_io[10] I
analog_io[11] I
analog_io[12] I
analog_io[13] I
analog_io[14] I
analog_io[15] I
analog_io[16] I
analog_io[17] I
analog_io[18] I
analog_io[19] I
analog_io[1] I
analog_io[20] I
analog_io[21] I
analog_io[22] I
analog_io[23] I
analog_io[24] I
analog_io[25] I
analog_io[26] I
analog_io[27] I
analog_io[28] I
analog_io[2] I
analog_io[3] I
analog_io[4] I
analog_io[5] I
analog_io[6] I
analog_io[7] I
analog_io[8] I
analog_io[9] I
io_in[0] I
io_in[10] I
io_in[11] I
io_in[12] I
io_in[13] I
io_in[14] I
io_in[15] I
io_in[16] I
io_in[17] I
io_in[18] I
io_in[19] I
io_in[1] I
io_in[20] I
io_in[21] I
io_in[22] I
io_in[23] I
io_in[24] I
io_in[25] I
io_in[26] I
io_in[27] I
io_in[28] I
io_in[29] I
io_in[2] I
io_in[30] I
io_in[31] I
io_in[32] I
io_in[33] I
io_in[34] I
io_in[35] I
io_in[36] I
io_in[37] I
io_in[3] I
io_in[4] I
io_in[5] I
io_in[6] I
io_in[7] I
io_in[8] I
io_in[9] I
io_oeb[0] O
io_oeb[10] O
io_oeb[11] O
io_oeb[12] O
io_oeb[13] O
io_oeb[14] O
io_oeb[15] O
io_oeb[16] O
io_oeb[17] O
io_oeb[18] O
io_oeb[19] O
io_oeb[1] O
io_oeb[20] O
io_oeb[21] O
io_oeb[22] O
io_oeb[23] O
io_oeb[24] O
io_oeb[25] O
io_oeb[26] O
io_oeb[27] O
io_oeb[28] O
io_oeb[29] O
io_oeb[2] O
io_oeb[30] O
io_oeb[31] O
io_oeb[32] O
io_oeb[33] O
io_oeb[34] O
io_oeb[35] O
io_oeb[36] O
io_oeb[37] O
io_oeb[3] O
io_oeb[4] O
io_oeb[5] O
io_oeb[6] O
io_oeb[7] O
io_oeb[8] O
io_oeb[9] O
io_out[0] O
io_out[10] O
io_out[11] O
io_out[12] O
io_out[13] O
io_out[14] O
io_out[15] O
io_out[16] O
io_out[17] O
io_out[18] O
io_out[19] O
io_out[1] O
io_out[20] O
io_out[21] O
io_out[22] O
io_out[23] O
io_out[24] O
io_out[25] O
io_out[26] O
io_out[27] O
io_out[28] O
io_out[29] O
io_out[2] O
io_out[30] O
io_out[31] O
io_out[32] O
io_out[33] O
io_out[34] O
io_out[35] O
io_out[36] O
io_out[37] O
io_out[3] O
io_out[4] O
io_out[5] O
io_out[6] O
io_out[7] O
io_out[8] O
io_out[9] O
la_data_in[0] I
la_data_in[100] I
la_data_in[101] I
la_data_in[102] I
la_data_in[103] I
la_data_in[104] I
la_data_in[105] I
la_data_in[106] I
la_data_in[107] I
la_data_in[108] I
la_data_in[109] I
la_data_in[10] I
la_data_in[110] I
la_data_in[111] I
la_data_in[112] I
la_data_in[113] I
la_data_in[114] I
la_data_in[115] I
la_data_in[116] I
la_data_in[117] I
la_data_in[118] I
la_data_in[119] I
la_data_in[11] I
la_data_in[120] I
la_data_in[121] I
la_data_in[122] I
la_data_in[123] I
la_data_in[124] I
la_data_in[125] I
la_data_in[126] I
la_data_in[127] I
la_data_in[12] I
la_data_in[13] I
la_data_in[14] I
la_data_in[15] I
la_data_in[16] I
la_data_in[17] I
la_data_in[18] I
la_data_in[19] I
la_data_in[1] I
la_data_in[20] I
la_data_in[21] I
la_data_in[22] I
la_data_in[23] I
la_data_in[24] I
la_data_in[25] I
la_data_in[26] I
la_data_in[27] I
la_data_in[28] I
la_data_in[29] I
la_data_in[2] I
la_data_in[30] I
la_data_in[31] I
la_data_in[32] I
la_data_in[33] I
la_data_in[34] I
la_data_in[35] I
la_data_in[36] I
la_data_in[37] I
la_data_in[38] I
la_data_in[39] I
la_data_in[3] I
la_data_in[40] I
la_data_in[41] I
la_data_in[42] I
la_data_in[43] I
la_data_in[44] I
la_data_in[45] I
la_data_in[46] I
la_data_in[47] I
la_data_in[48] I
la_data_in[49] I
la_data_in[4] I
la_data_in[50] I
la_data_in[51] I
la_data_in[52] I
la_data_in[53] I
la_data_in[54] I
la_data_in[55] I
la_data_in[56] I
la_data_in[57] I
la_data_in[58] I
la_data_in[59] I
la_data_in[5] I
la_data_in[60] I
la_data_in[61] I
la_data_in[62] I
la_data_in[63] I
la_data_in[64] I
la_data_in[65] I
la_data_in[66] I
la_data_in[67] I
la_data_in[68] I
la_data_in[69] I
la_data_in[6] I
la_data_in[70] I
la_data_in[71] I
la_data_in[72] I
la_data_in[73] I
la_data_in[74] I
la_data_in[75] I
la_data_in[76] I
la_data_in[77] I
la_data_in[78] I
la_data_in[79] I
la_data_in[7] I
la_data_in[80] I
la_data_in[81] I
la_data_in[82] I
la_data_in[83] I
la_data_in[84] I
la_data_in[85] I
la_data_in[86] I
la_data_in[87] I
la_data_in[88] I
la_data_in[89] I
la_data_in[8] I
la_data_in[90] I
la_data_in[91] I
la_data_in[92] I
la_data_in[93] I
la_data_in[94] I
la_data_in[95] I
la_data_in[96] I
la_data_in[97] I
la_data_in[98] I
la_data_in[99] I
la_data_in[9] I
la_data_out[0] O
la_data_out[100] O
la_data_out[101] O
la_data_out[102] O
la_data_out[103] O
la_data_out[104] O
la_data_out[105] O
la_data_out[106] O
la_data_out[107] O
la_data_out[108] O
la_data_out[109] O
la_data_out[10] O
la_data_out[110] O
la_data_out[111] O
la_data_out[112] O
la_data_out[113] O
la_data_out[114] O
la_data_out[115] O
la_data_out[116] O
la_data_out[117] O
la_data_out[118] O
la_data_out[119] O
la_data_out[11] O
la_data_out[120] O
la_data_out[121] O
la_data_out[122] O
la_data_out[123] O
la_data_out[124] O
la_data_out[125] O
la_data_out[126] O
la_data_out[127] O
la_data_out[12] O
la_data_out[13] O
la_data_out[14] O
la_data_out[15] O
la_data_out[16] O
la_data_out[17] O
la_data_out[18] O
la_data_out[19] O
la_data_out[1] O
la_data_out[20] O
la_data_out[21] O
la_data_out[22] O
la_data_out[23] O
la_data_out[24] O
la_data_out[25] O
la_data_out[26] O
la_data_out[27] O
la_data_out[28] O
la_data_out[29] O
la_data_out[2] O
la_data_out[30] O
la_data_out[31] O
la_data_out[32] O
la_data_out[33] O
la_data_out[34] O
la_data_out[35] O
la_data_out[36] O
la_data_out[37] O
la_data_out[38] O
la_data_out[39] O
la_data_out[3] O
la_data_out[40] O
la_data_out[41] O
la_data_out[42] O
la_data_out[43] O
la_data_out[44] O
la_data_out[45] O
la_data_out[46] O
la_data_out[47] O
la_data_out[48] O
la_data_out[49] O
la_data_out[4] O
la_data_out[50] O
la_data_out[51] O
la_data_out[52] O
la_data_out[53] O
la_data_out[54] O
la_data_out[55] O
la_data_out[56] O
la_data_out[57] O
la_data_out[58] O
la_data_out[59] O
la_data_out[5] O
la_data_out[60] O
la_data_out[61] O
la_data_out[62] O
la_data_out[63] O
la_data_out[64] O
la_data_out[65] O
la_data_out[66] O
la_data_out[67] O
la_data_out[68] O
la_data_out[69] O
la_data_out[6] O
la_data_out[70] O
la_data_out[71] O
la_data_out[72] O
la_data_out[73] O
la_data_out[74] O
la_data_out[75] O
la_data_out[76] O
la_data_out[77] O
la_data_out[78] O
la_data_out[79] O
la_data_out[7] O
la_data_out[80] O
la_data_out[81] O
la_data_out[82] O
la_data_out[83] O
la_data_out[84] O
la_data_out[85] O
la_data_out[86] O
la_data_out[87] O
la_data_out[88] O
la_data_out[89] O
la_data_out[8] O
la_data_out[90] O
la_data_out[91] O
la_data_out[92] O
la_data_out[93] O
la_data_out[94] O
la_data_out[95] O
la_data_out[96] O
la_data_out[97] O
la_data_out[98] O
la_data_out[99] O
la_data_out[9] O
la_oenb[0] I
la_oenb[100] I
la_oenb[101] I
la_oenb[102] I
la_oenb[103] I
la_oenb[104] I
la_oenb[105] I
la_oenb[106] I
la_oenb[107] I
la_oenb[108] I
la_oenb[109] I
la_oenb[10] I
la_oenb[110] I
la_oenb[111] I
la_oenb[112] I
la_oenb[113] I
la_oenb[114] I
la_oenb[115] I
la_oenb[116] I
la_oenb[117] I
la_oenb[118] I
la_oenb[119] I
la_oenb[11] I
la_oenb[120] I
la_oenb[121] I
la_oenb[122] I
la_oenb[123] I
la_oenb[124] I
la_oenb[125] I
la_oenb[126] I
la_oenb[127] I
la_oenb[12] I
la_oenb[13] I
la_oenb[14] I
la_oenb[15] I
la_oenb[16] I
la_oenb[17] I
la_oenb[18] I
la_oenb[19] I
la_oenb[1] I
la_oenb[20] I
la_oenb[21] I
la_oenb[22] I
la_oenb[23] I
la_oenb[24] I
la_oenb[25] I
la_oenb[26] I
la_oenb[27] I
la_oenb[28] I
la_oenb[29] I
la_oenb[2] I
la_oenb[30] I
la_oenb[31] I
la_oenb[32] I
la_oenb[33] I
la_oenb[34] I
la_oenb[35] I
la_oenb[36] I
la_oenb[37] I
la_oenb[38] I
la_oenb[39] I
la_oenb[3] I
la_oenb[40] I
la_oenb[41] I
la_oenb[42] I
la_oenb[43] I
la_oenb[44] I
la_oenb[45] I
la_oenb[46] I
la_oenb[47] I
la_oenb[48] I
la_oenb[49] I
la_oenb[4] I
la_oenb[50] I
la_oenb[51] I
la_oenb[52] I
la_oenb[53] I
la_oenb[54] I
la_oenb[55] I
la_oenb[56] I
la_oenb[57] I
la_oenb[58] I
la_oenb[59] I
la_oenb[5] I
la_oenb[60] I
la_oenb[61] I
la_oenb[62] I
la_oenb[63] I
la_oenb[64] I
la_oenb[65] I
la_oenb[66] I
la_oenb[67] I
la_oenb[68] I
la_oenb[69] I
la_oenb[6] I
la_oenb[70] I
la_oenb[71] I
la_oenb[72] I
la_oenb[73] I
la_oenb[74] I
la_oenb[75] I
la_oenb[76] I
la_oenb[77] I
la_oenb[78] I
la_oenb[79] I
la_oenb[7] I
la_oenb[80] I
la_oenb[81] I
la_oenb[82] I
la_oenb[83] I
la_oenb[84] I
la_oenb[85] I
la_oenb[86] I
la_oenb[87] I
la_oenb[88] I
la_oenb[89] I
la_oenb[8] I
la_oenb[90] I
la_oenb[91] I
la_oenb[92] I
la_oenb[93] I
la_oenb[94] I
la_oenb[95] I
la_oenb[96] I
la_oenb[97] I
la_oenb[98] I
la_oenb[99] I
la_oenb[9] I
user_clock2 I
user_irq[0] O
user_irq[1] O
user_irq[2] O
wb_clk_i I
wb_rst_i I
wbs_ack_o O
wbs_adr_i[0] I
wbs_adr_i[10] I
wbs_adr_i[11] I
wbs_adr_i[12] I
wbs_adr_i[13] I
wbs_adr_i[14] I
wbs_adr_i[15] I
wbs_adr_i[16] I
wbs_adr_i[17] I
wbs_adr_i[18] I
wbs_adr_i[19] I
wbs_adr_i[1] I
wbs_adr_i[20] I
wbs_adr_i[21] I
wbs_adr_i[22] I
wbs_adr_i[23] I
wbs_adr_i[24] I
wbs_adr_i[25] I
wbs_adr_i[26] I
wbs_adr_i[27] I
wbs_adr_i[28] I
wbs_adr_i[29] I
wbs_adr_i[2] I
wbs_adr_i[30] I
wbs_adr_i[31] I
wbs_adr_i[3] I
wbs_adr_i[4] I
wbs_adr_i[5] I
wbs_adr_i[6] I
wbs_adr_i[7] I
wbs_adr_i[8] I
wbs_adr_i[9] I
wbs_cyc_i I
wbs_dat_i[0] I
wbs_dat_i[10] I
wbs_dat_i[11] I
wbs_dat_i[12] I
wbs_dat_i[13] I
wbs_dat_i[14] I
wbs_dat_i[15] I
wbs_dat_i[16] I
wbs_dat_i[17] I
wbs_dat_i[18] I
wbs_dat_i[19] I
wbs_dat_i[1] I
wbs_dat_i[20] I
wbs_dat_i[21] I
wbs_dat_i[22] I
wbs_dat_i[23] I
wbs_dat_i[24] I
wbs_dat_i[25] I
wbs_dat_i[26] I
wbs_dat_i[27] I
wbs_dat_i[28] I
wbs_dat_i[29] I
wbs_dat_i[2] I
wbs_dat_i[30] I
wbs_dat_i[31] I
wbs_dat_i[3] I
wbs_dat_i[4] I
wbs_dat_i[5] I
wbs_dat_i[6] I
wbs_dat_i[7] I
wbs_dat_i[8] I
wbs_dat_i[9] I
wbs_dat_o[0] O
wbs_dat_o[10] O
wbs_dat_o[11] O
wbs_dat_o[12] O
wbs_dat_o[13] O
wbs_dat_o[14] O
wbs_dat_o[15] O
wbs_dat_o[16] O
wbs_dat_o[17] O
wbs_dat_o[18] O
wbs_dat_o[19] O
wbs_dat_o[1] O
wbs_dat_o[20] O
wbs_dat_o[21] O
wbs_dat_o[22] O
wbs_dat_o[23] O
wbs_dat_o[24] O
wbs_dat_o[25] O
wbs_dat_o[26] O
wbs_dat_o[27] O
wbs_dat_o[28] O
wbs_dat_o[29] O
wbs_dat_o[2] O
wbs_dat_o[30] O
wbs_dat_o[31] O
wbs_dat_o[3] O
wbs_dat_o[4] O
wbs_dat_o[5] O
wbs_dat_o[6] O
wbs_dat_o[7] O
wbs_dat_o[8] O
wbs_dat_o[9] O
wbs_sel_i[0] I
wbs_sel_i[1] I
wbs_sel_i[2] I
wbs_sel_i[3] I
wbs_stb_i I
wbs_we_i I

*D_NET *68 0.289758
*CONN
*P io_oeb[0] O
*I *739:io_oeb_o[0] O *D ntt_wb_bridge
*CAP
1 io_oeb[0] 0.00427003
2 *739:io_oeb_o[0] 0.000800135
3 *68:27 0.0224179
4 *68:25 0.0186079
5 *68:19 0.00725039
6 *68:17 0.00759054
7 io_oeb[0] user_irq[0] 0.000127248
8 io_oeb[0] *90:31 0.00790611
9 io_oeb[0] *128:33 0.00196983
10 *68:17 *92:23 0.000115214
11 *68:17 *137:21 0.000119331
12 *68:17 *140:13 2.18953e-05
13 *68:19 *74:25 0.00123813
14 *68:19 *76:17 8.72438e-06
15 *68:19 *76:19 0.0218497
16 *68:19 *90:25 0.000373078
17 *68:19 *92:23 0.00273762
18 *68:19 *97:15 0.00372444
19 *68:19 *99:21 0.00702695
20 *68:19 *109:13 0.000460097
21 *68:19 *112:13 0.00825594
22 *68:19 *140:13 0.0395457
23 *68:19 *141:13 0.000501881
24 *68:25 *104:21 0.000769504
25 *68:27 *78:13 0.000256247
26 *68:27 *90:27 0
27 *68:27 *99:23 0.0305517
28 *68:27 *104:23 0.0710022
29 *68:27 *128:29 0
30 *68:27 *137:29 0.030259
*RES
1 *739:io_oeb_o[0] *68:17 7.56747 
2 *68:17 *68:19 58.6543 
3 *68:19 *68:25 2.50227 
4 *68:25 *68:27 109.113 
5 *68:27 io_oeb[0] 17.2754 
*END

*D_NET *69 0.426731
*CONN
*P io_oeb[10] O
*I *739:io_oeb_o[10] O *D ntt_wb_bridge
*CAP
1 io_oeb[10] 0.00779941
2 *739:io_oeb_o[10] 0.0014931
3 *69:21 0.0930474
4 *69:19 0.085248
5 *69:17 0.0312636
6 *69:15 0.0327567
7 *69:15 *99:21 0
8 *69:15 *99:23 6.92707e-05
9 *69:17 *70:20 0.00184608
10 *69:17 *98:14 0.0119207
11 *69:17 *138:13 0.0193731
12 *69:17 *353:27 0.000659845
13 *69:17 *358:33 0.0315812
14 *69:21 *103:37 0.109673
15 *69:21 *655:11 0
*RES
1 *739:io_oeb_o[10] *69:15 4.08687 
2 *69:15 *69:17 133.702 
3 *69:17 *69:19 0.5 
4 *69:19 *69:21 303.227 
5 *69:21 io_oeb[10] 21.0289 
*END

*D_NET *70 0.435733
*CONN
*P io_oeb[11] O
*I *739:io_oeb_o[11] O *D ntt_wb_bridge
*CAP
1 io_oeb[11] 0.00105062
2 *739:io_oeb_o[11] 0.00174601
3 *70:30 0.00647326
4 *70:28 0.00542264
5 *70:26 0.109278
6 *70:24 0.109278
7 *70:22 0.0119438
8 *70:20 0.0136899
9 *70:20 la_data_out[62] 4.55864e-06
10 *70:20 *71:19 0
11 *70:20 *353:27 0.00183881
12 *70:22 *71:21 0.0849724
13 *70:22 *73:20 0.0806649
14 *70:22 *79:14 0.00646262
15 *70:22 *95:13 0.000881326
16 *70:22 *357:31 0.000180279
17 *69:17 *70:20 0.00184608
*RES
1 *739:io_oeb_o[11] *70:20 11.4881 
2 *70:20 *70:22 782.565 
3 *70:22 *70:24 2 
4 *70:24 *70:26 1988.08 
5 *70:26 *70:28 2 
6 *70:28 *70:30 92.91 
7 *70:30 io_oeb[11] 8.44823 
*END

*D_NET *71 0.455776
*CONN
*P io_oeb[12] O
*I *739:io_oeb_o[12] O *D ntt_wb_bridge
*CAP
1 io_oeb[12] 0.000909511
2 *739:io_oeb_o[12] 0.00154069
3 *71:29 0.00558765
4 *71:27 0.00467814
5 *71:25 0.120345
6 *71:23 0.120345
7 *71:21 0.012136
8 *71:19 0.0136767
9 *71:19 *93:19 9.55623e-05
10 *71:19 *96:14 0.000190922
11 *71:19 *99:23 0.00016564
12 *71:21 *72:25 0.0857221
13 *71:21 *81:15 0
14 *71:21 *95:13 0.000368453
15 *71:21 *96:14 0.00487557
16 *71:21 *357:31 0.000166455
17 *70:20 *71:19 0
18 *70:22 *71:21 0.0849724
*RES
1 *739:io_oeb_o[12] *71:19 6.8983 
2 *71:19 *71:21 801.195 
3 *71:21 *71:23 2 
4 *71:23 *71:25 2189.79 
5 *71:25 *71:27 2 
6 *71:27 *71:29 82.56 
7 *71:29 io_oeb[12] 5.89823 
*END

*D_NET *72 0.424528
*CONN
*P io_oeb[13] O
*I *739:io_oeb_o[13] O *D ntt_wb_bridge
*CAP
1 io_oeb[13] 0.00103657
2 *739:io_oeb_o[13] 0.00136362
3 *72:33 0.0049323
4 *72:31 0.00389573
5 *72:29 0.131118
6 *72:27 0.131118
7 *72:25 0.0291428
8 *72:23 0.0305064
9 *72:23 *93:19 6.14924e-05
10 *72:23 *96:14 0.000121404
11 *72:23 *99:23 7.33588e-05
12 *72:25 *81:15 0
13 *72:25 *96:14 0.00531323
14 *72:25 *357:31 0.000123032
15 *72:29 la_data_out[123] 0
16 *71:21 *72:25 0.0857221
*RES
1 *739:io_oeb_o[13] *72:23 6.41023 
2 *72:23 *72:25 804.99 
3 *72:25 *72:27 2 
4 *72:27 *72:29 2386.14 
5 *72:29 *72:31 2 
6 *72:31 *72:33 67.035 
7 *72:33 io_oeb[13] 8.19323 
*END

*D_NET *73 0.52826
*CONN
*P io_oeb[14] O
*I *739:io_oeb_o[14] O *D ntt_wb_bridge
*CAP
1 io_oeb[14] 0.000896114
2 *739:io_oeb_o[14] 0.00112707
3 *73:28 0.00778869
4 *73:26 0.00689258
5 *73:24 0.106062
6 *73:22 0.106062
7 *73:20 0.022837
8 *73:18 0.0239641
9 *73:18 *93:19 0.000146901
10 *73:18 *96:14 0.000273161
11 *73:20 *79:14 0.00690382
12 *73:20 *95:13 0.0191772
13 *73:20 *357:31 0.000595159
14 *73:24 la_data_out[119] 0
15 *73:24 *75:17 0
16 *73:24 *78:145 0.0132252
17 *73:24 *112:17 0
18 *73:24 *113:19 0
19 *73:24 *115:203 0.0323707
20 *73:24 *665:11 0.0670912
21 *73:24 *665:21 0.00182799
22 *73:24 *669:11 0.00225359
23 *73:24 *680:11 0.0215926
24 *73:24 *686:11 0.00562612
25 *73:24 *686:21 0.000881681
26 *73:24 *721:11 0
27 *70:22 *73:20 0.0806649
*RES
1 *739:io_oeb_o[14] *73:18 7.08277 
2 *73:18 *73:20 742.89 
3 *73:20 *73:22 2 
4 *73:22 *73:24 2588.86 
5 *73:24 *73:26 2 
6 *73:26 *73:28 118.785 
7 *73:28 io_oeb[14] 5.64323 
*END

*D_NET *74 0.650821
*CONN
*P io_oeb[15] O
*I *739:io_oeb_o[15] O *D ntt_wb_bridge
*CAP
1 io_oeb[15] 0.000672175
2 *739:io_oeb_o[15] 0.00116383
3 *74:35 0.00326931
4 *74:33 0.00259714
5 *74:31 0.0960604
6 *74:29 0.0960604
7 *74:27 0.0207728
8 *74:25 0.0219366
9 *74:25 *75:11 1.84573e-05
10 *74:25 *92:23 0.000562278
11 *74:25 *99:23 0.00042503
12 *74:25 *109:13 0.000264133
13 *74:25 *110:13 0.000239554
14 *74:25 *115:29 5.8023e-05
15 *74:25 *141:13 0.000242102
16 *74:27 *75:13 0.078741
17 *74:27 *76:19 0.0184363
18 *74:27 *105:15 0.00129719
19 *74:27 *112:13 6.65725e-05
20 *74:27 *140:13 0.00538816
21 *74:27 *143:15 0.0237477
22 *74:31 *78:129 0
23 *74:31 *141:17 0
24 *74:31 *648:11 0
25 *74:31 *694:11 2.53191e-06
26 *74:31 *699:19 0
27 *74:31 *715:19 0
28 *74:31 *723:11 0.0386337
29 *74:31 *732:11 0.208383
30 *74:31 *732:15 0.0032381
31 *74:31 *738:11 0.0192835
32 *74:35 *113:23 0.0080228
33 *68:19 *74:25 0.00123813
*RES
1 *739:io_oeb_o[15] *74:25 13.5598 
2 *74:25 *74:27 714.6 
3 *74:27 *74:29 2 
4 *74:29 *74:31 2597.28 
5 *74:31 *74:33 2 
6 *74:33 *74:35 72.555 
7 *74:35 io_oeb[15] 13.91 
*END

*D_NET *75 0.835359
*CONN
*P io_oeb[16] O
*I *739:io_oeb_o[16] O *D ntt_wb_bridge
*CAP
1 io_oeb[16] 0.000712039
2 *739:io_oeb_o[16] 0.000836389
3 *75:21 0.0135502
4 *75:19 0.0128381
5 *75:17 0.0359899
6 *75:15 0.0359899
7 *75:13 0.0101873
8 *75:11 0.0110237
9 *75:11 *80:13 0.000149493
10 *75:11 *82:13 0.000137024
11 *75:11 *87:13 0.000137024
12 *75:11 *99:23 0.000397408
13 *75:11 *115:29 0
14 *75:13 *76:19 0.0102275
15 *75:13 *112:13 0.0793496
16 *75:13 *140:13 0.00576185
17 *75:17 *76:23 0.232069
18 *75:17 *102:27 0.00243238
19 *75:17 *113:19 0.231616
20 *75:17 *659:15 0.00545808
21 *75:17 *669:11 0.0295267
22 *75:17 *686:21 0.00170116
23 *75:21 io_out[15] 0
24 *75:21 *76:27 0.00137046
25 *75:21 *78:241 0.00632629
26 *75:21 *113:23 0.0288115
27 *73:24 *75:17 0
28 *74:25 *75:11 1.84573e-05
29 *74:27 *75:13 0.078741
*RES
1 *739:io_oeb_o[16] *75:11 11.8856 
2 *75:11 *75:13 719.085 
3 *75:13 *75:15 2 
4 *75:15 *75:17 2596.51 
5 *75:17 *75:19 2 
6 *75:19 *75:21 321.3 
7 *75:21 io_oeb[16] 14.42 
*END

*D_NET *76 0.809122
*CONN
*P io_oeb[17] O
*I *739:io_oeb_o[17] O *D ntt_wb_bridge
*CAP
1 io_oeb[17] 0.000624798
2 *739:io_oeb_o[17] 0.000645764
3 *76:27 0.0159627
4 *76:25 0.0153379
5 *76:23 0.0515654
6 *76:21 0.0515654
7 *76:19 0.0395082
8 *76:17 0.040154
9 *76:17 *92:23 4.60198e-05
10 *76:17 *99:23 0.000107496
11 *76:19 *92:23 0.0053957
12 *76:19 *106:13 1.93372e-05
13 *76:19 *109:13 0.0175375
14 *76:19 *110:13 0.0158409
15 *76:19 *112:13 0.0125069
16 *76:19 *117:13 0.00325376
17 *76:19 *128:29 0
18 *76:19 *140:13 0.00340709
19 *76:19 *141:13 0.0159817
20 *76:23 *102:27 0.00243238
21 *76:23 *113:19 1.07797e-05
22 *76:23 *141:17 0
23 *76:23 *648:11 0
24 *76:23 *653:11 0.0891783
25 *76:23 *659:15 0.00586756
26 *76:23 *669:11 0.0330243
27 *76:23 *686:21 0.00191075
28 *76:27 *77:241 0.0389329
29 *76:27 *78:241 0.00410167
30 *76:27 *113:23 0.00423572
31 *76:27 *114:49 0.0560048
32 *68:19 *76:17 8.72438e-06
33 *68:19 *76:19 0.0218497
34 *74:27 *76:19 0.0184363
35 *75:13 *76:19 0.0102275
36 *75:17 *76:23 0.232069
37 *75:21 *76:27 0.00137046
*RES
1 *739:io_oeb_o[17] *76:17 7.7684 
2 *76:17 *76:19 120.679 
3 *76:19 *76:21 0.5 
4 *76:21 *76:23 2597.02 
5 *76:23 *76:25 0.5 
6 *76:25 *76:27 95.304 
7 *76:27 io_oeb[17] 11.7725 
*END

*D_NET *77 0.781138
*CONN
*P io_oeb[18] O
*I *739:io_oeb_o[18] O *D ntt_wb_bridge
*CAP
1 io_oeb[18] 0.00065289
2 *739:io_oeb_o[18] 0.000851679
3 *77:241 0.0162925
4 *77:239 0.0215548
5 *77:219 0.00949443
6 *77:203 0.00666263
7 *77:191 0.00853808
8 *77:167 0.00946046
9 *77:145 0.0257038
10 *77:143 0.0305219
11 *77:135 0.0192228
12 *77:127 0.0134164
13 *77:119 0.00829681
14 *77:111 0.0121133
15 *77:99 0.00916911
16 *77:95 0.00647967
17 *77:89 0.0101475
18 *77:87 0.0103696
19 *77:73 0.00751575
20 *77:71 0.00932678
21 *77:59 0.0076617
22 *77:49 0.00420232
23 *77:47 0.0086432
24 *77:35 0.00856493
25 *77:21 0.00536853
26 *77:19 0.0033153
27 *77:13 0.00270242
28 *77:11 0.00296741
29 *77:11 *99:23 0.000133724
30 *77:13 *81:15 0.00111234
31 *77:13 *104:21 0.0029961
32 *77:13 *105:15 0.00773898
33 *77:21 *78:13 0
34 *77:21 *87:13 0
35 *77:21 *103:19 0.0016539
36 *77:21 *108:15 0.00831484
37 *77:35 *99:23 0.00597132
38 *77:35 *103:19 0.00340218
39 *77:35 *108:15 0.00124459
40 *77:35 *143:19 0
41 *77:35 *363:11 0.00286549
42 *77:47 *78:39 0.000355636
43 *77:47 *285:17 0
44 *77:47 *729:9 2.22315e-05
45 *77:47 *730:7 0
46 *77:47 *732:7 0.000487632
47 *77:49 la_data_out[86] 0
48 *77:49 *78:47 0.00307026
49 *77:59 la_data_out[87] 0.00393865
50 *77:59 *78:55 0.000280013
51 *77:59 *281:23 0.000211594
52 *77:59 *651:11 0.00308091
53 *77:59 *694:7 0
54 *77:71 io_out[1] 0
55 *77:71 *115:83 0.00231673
56 *77:71 *721:7 0
57 *77:87 la_data_out[93] 0.00066971
58 *77:87 *700:7 0.00273269
59 *77:87 *724:15 0.000229501
60 *77:89 *115:117 0
61 *77:95 *720:7 0
62 *77:111 la_data_out[107] 0.0022145
63 *77:111 *140:21 0
64 *77:119 *115:165 0.00142964
65 *77:119 *665:23 0
66 *77:119 *666:13 0.00127311
67 *77:127 la_data_out[115] 0
68 *77:127 *672:10 0
69 *77:127 *708:15 0
70 *77:135 *658:15 0.000610493
71 *77:143 *114:35 0.00054118
72 *77:143 *646:41 0.000433397
73 *77:143 *672:6 0.0198357
74 *77:145 *114:45 0.0202631
75 *77:145 *654:11 0.00812323
76 *77:145 *666:9 0.00364172
77 *77:145 *679:15 0.140872
78 *77:145 *714:27 0.140875
79 *77:167 *78:183 0.00140859
80 *77:167 *115:223 0.00122388
81 *77:191 *78:203 0.000695449
82 *77:219 *78:239 0
83 *77:239 *78:239 0
84 *77:239 *78:241 0
85 *77:241 *78:241 0.066719
86 *76:27 *77:241 0.0389329
*RES
1 *739:io_oeb_o[18] *77:11 12.252 
2 *77:11 *77:13 70.14 
3 *77:13 *77:19 11.755 
4 *77:19 *77:21 75.315 
5 *77:21 *77:35 45.9403 
6 *77:35 *77:47 32.5101 
7 *77:47 *77:49 61.815 
8 *77:49 *77:59 47.8193 
9 *77:59 *77:71 47.5187 
10 *77:71 *77:73 56.715 
11 *77:73 *77:87 23.815 
12 *77:87 *77:89 108.735 
13 *77:89 *77:95 11.526 
14 *77:95 *77:99 42.425 
15 *77:99 *77:111 42.0973 
16 *77:111 *77:119 43.1489 
17 *77:119 *77:127 34.0295 
18 *77:127 *77:135 29.3024 
19 *77:135 *77:143 37.8613 
20 *77:143 *77:145 1575.49 
21 *77:145 *77:167 42.9371 
22 *77:167 *77:191 39.5335 
23 *77:191 *77:203 32.9373 
24 *77:203 *77:219 36.7021 
25 *77:219 *77:239 48.1029 
26 *77:239 *77:241 98.8583 
27 *77:241 io_oeb[18] 12.2825 
*END

*D_NET *78 0.71657
*CONN
*P io_oeb[19] O
*I *739:io_oeb_o[19] O *D ntt_wb_bridge
*CAP
1 io_oeb[19] 0.000680981
2 *739:io_oeb_o[19] 0.000247398
3 *78:241 0.0425993
4 *78:239 0.0468065
5 *78:219 0.00912857
6 *78:203 0.00887925
7 *78:183 0.00911935
8 *78:161 0.02217
9 *78:159 0.0181326
10 *78:153 0.00783969
11 *78:151 0.00790469
12 *78:145 0.00559523
13 *78:143 0.00560806
14 *78:137 0.00629466
15 *78:135 0.0062005
16 *78:129 0.0120405
17 *78:127 0.0199079
18 *78:115 0.0148964
19 *78:105 0.00958924
20 *78:103 0.00592203
21 *78:89 0.00826657
22 *78:87 0.0100256
23 *78:79 0.0066209
24 *78:71 0.00616292
25 *78:63 0.00902497
26 *78:55 0.00621542
27 *78:47 0.00329964
28 *78:39 0.00438054
29 *78:31 0.0057608
30 *78:23 0.00565514
31 *78:13 0.00769327
32 *78:11 0.00553892
33 *78:11 *99:23 0.000139762
34 *78:13 *86:13 0.00623659
35 *78:13 *87:13 0.000477076
36 *78:13 *95:11 0.000123853
37 *78:13 *99:23 0.00190654
38 *78:13 *108:15 0
39 *78:13 *137:29 0.014152
40 *78:13 *139:21 0.00331022
41 *78:23 *104:23 0.000882361
42 *78:23 *359:41 0
43 *78:31 *357:27 0
44 *78:31 *378:27 0
45 *78:31 *732:7 0
46 *78:39 *732:7 0
47 *78:55 la_data_out[87] 0.00129506
48 *78:55 *694:7 0.00100212
49 *78:63 *653:7 0.00335954
50 *78:63 *654:7 0
51 *78:71 la_data_out[93] 0.00181494
52 *78:79 la_data_out[97] 0.00203085
53 *78:79 *721:7 0.00119838
54 *78:87 la_data_out[98] 0
55 *78:115 *115:157 0.00137959
56 *78:115 *115:165 0
57 *78:127 la_data_out[115] 0
58 *78:127 *140:21 0
59 *78:127 *296:19 0
60 *78:129 *699:19 0.000272003
61 *78:129 *705:23 0.000534368
62 *78:129 *730:19 0
63 *78:129 *738:19 0
64 *78:137 *141:17 0.0318709
65 *78:137 *648:11 0.0185496
66 *78:137 *681:11 0.0071417
67 *78:145 *112:17 0
68 *78:153 *115:211 0.0101213
69 *78:153 *648:11 0.00921556
70 *78:153 *671:17 0.0387224
71 *78:153 *674:13 0.00623787
72 *78:161 *115:219 0.0747729
73 *78:161 *685:25 0
74 *78:161 *715:19 0.0427251
75 *78:183 *679:11 0
76 *78:183 *682:11 0.000254718
77 *78:183 *732:25 0
78 *78:241 *116:181 0.00219705
79 *68:27 *78:13 0.000256247
80 *73:24 *78:145 0.0132252
81 *74:31 *78:129 0
82 *75:21 *78:241 0.00632629
83 *76:27 *78:241 0.00410167
84 *77:21 *78:13 0
85 *77:47 *78:39 0.000355636
86 *77:49 *78:47 0.00307026
87 *77:59 *78:55 0.000280013
88 *77:167 *78:183 0.00140859
89 *77:191 *78:203 0.000695449
90 *77:219 *78:239 0
91 *77:239 *78:239 0
92 *77:239 *78:241 0
93 *77:241 *78:241 0.066719
*RES
1 *739:io_oeb_o[19] *78:11 3.26957 
2 *78:11 *78:13 181.92 
3 *78:13 *78:23 11.1591 
4 *78:23 *78:31 43.5889 
5 *78:31 *78:39 16.0914 
6 *78:39 *78:47 37.0027 
7 *78:47 *78:55 30.6497 
8 *78:55 *78:63 33.6625 
9 *78:63 *78:71 31.2009 
10 *78:71 *78:79 42.161 
11 *78:79 *78:87 32.323 
12 *78:87 *78:89 96.495 
13 *78:89 *78:103 27.461 
14 *78:103 *78:105 53.655 
15 *78:105 *78:115 41.2291 
16 *78:115 *78:127 35.9177 
17 *78:127 *78:129 205.125 
18 *78:129 *78:135 1.79547 
19 *78:135 *78:137 356.595 
20 *78:137 *78:143 1.912 
21 *78:143 *78:145 148.005 
22 *78:145 *78:151 1.97027 
23 *78:151 *78:153 432.585 
24 *78:153 *78:159 1.85373 
25 *78:159 *78:161 866.085 
26 *78:161 *78:183 41.7461 
27 *78:183 *78:203 49.249 
28 *78:203 *78:219 48.3003 
29 *78:219 *78:239 46.043 
30 *78:239 *78:241 150.366 
31 *78:241 io_oeb[19] 12.7925 
*END

*D_NET *79 0.243848
*CONN
*P io_oeb[1] O
*I *739:io_oeb_o[1] O *D ntt_wb_bridge
*CAP
1 io_oeb[1] 0.042483
2 *739:io_oeb_o[1] 0.00100014
3 *79:24 0.0532457
4 *79:14 0.020108
5 *79:12 0.0103454
6 io_oeb[1] *727:9 0.000147863
7 *79:14 *83:17 0.00125165
8 *79:14 *84:17 0.00103315
9 *79:14 *85:13 0.0025383
10 *79:14 *95:13 0.00232807
11 *79:14 *96:14 0.0345348
12 *79:14 *98:14 0
13 *79:14 *101:15 0
14 *79:14 *104:21 0
15 *79:14 *350:35 0.000203278
16 *79:14 *352:23 0.00321716
17 *79:14 *357:31 0.0284185
18 *79:24 *115:35 0.000739592
19 *79:24 *117:19 0.0175029
20 *79:24 *359:41 0.00314617
21 *79:24 *693:11 0.000967696
22 *79:24 *695:17 0.000206859
23 *79:24 *696:11 0.000383938
24 *79:24 *722:13 0.000318057
25 *79:24 *727:9 0.000215324
26 *79:24 *729:9 0.000318057
27 *79:24 *731:9 0.000318057
28 *79:24 *735:9 0.000262458
29 *79:24 *736:6 0.00498486
30 *79:24 *737:9 0.000262458
31 *70:22 *79:14 0.00646262
32 *73:20 *79:14 0.00690382
*RES
1 *739:io_oeb_o[1] *79:12 3.37373 
2 *79:12 *79:14 59.47 
3 *79:14 *79:24 43.3801 
4 *79:24 io_oeb[1] 108.512 
*END

*D_NET *80 0.820548
*CONN
*P io_oeb[20] O
*I *739:io_oeb_o[20] O *D ntt_wb_bridge
*CAP
1 io_oeb[20] 0.00065289
2 *739:io_oeb_o[20] 8.97692e-05
3 *80:33 0.0141482
4 *80:31 0.0134953
5 *80:29 0.0655311
6 *80:27 0.0655311
7 *80:25 0.0142016
8 *80:23 0.0146669
9 *80:13 0.0144344
10 *80:11 0.0140589
11 *80:11 *99:23 4.80354e-05
12 *80:13 *87:13 0.0537529
13 *80:13 *97:23 0.0063154
14 *80:13 *99:23 0.00171486
15 *80:13 *103:17 0.000101753
16 *80:13 *120:13 0
17 *80:13 *122:11 0.000106223
18 *80:13 *126:13 0.000100912
19 *80:13 *136:25 0.000109416
20 *80:13 *136:53 0.00365002
21 *80:13 *137:21 0.00281382
22 *80:13 *139:19 0.00383931
23 *80:23 *91:23 0.00222819
24 *80:23 *97:45 2.87203e-05
25 *80:23 *136:53 0.00215002
26 *80:25 *91:23 0.0411421
27 *80:25 *97:45 0.000740127
28 *80:25 *119:51 0.00330767
29 *80:25 *123:25 9.23627e-05
30 *80:25 *136:65 8.22734e-05
31 *80:25 *136:67 0.0675359
32 *80:29 *120:29 0.224309
33 *80:29 *580:5 0
34 *80:29 *662:19 0.0899481
35 *80:33 io_oeb[22] 6.17086e-06
36 *80:33 io_out[22] 0.000506572
37 *80:33 *81:25 8.50023e-05
38 *80:33 *118:31 0.0602128
39 *80:33 *119:61 0.0386608
40 *75:11 *80:13 0.000149493
*RES
1 *739:io_oeb_o[20] *80:11 3.10657 
2 *80:11 *80:13 486.555 
3 *80:13 *80:23 7.65843 
4 *80:23 *80:25 107.045 
5 *80:25 *80:27 0.5 
6 *80:27 *80:29 2590.4 
7 *80:29 *80:31 0.5 
8 *80:31 *80:33 90.1183 
9 *80:33 io_oeb[20] 12.2825 
*END

*D_NET *81 0.674064
*CONN
*P io_oeb[21] O
*I *739:io_oeb_o[21] O *D ntt_wb_bridge
*CAP
1 io_oeb[21] 0.000596707
2 *739:io_oeb_o[21] 0.000830421
3 *81:25 0.00964596
4 *81:19 0.0795122
5 *81:17 0.070463
6 *81:15 0.0536025
7 *81:13 0.0544329
8 *81:13 *99:23 0.000116186
9 *81:15 *93:19 0.00581437
10 *81:15 *100:21 0.00549307
11 *81:15 *105:15 0.00286035
12 *81:15 *124:15 0.0140904
13 *81:15 *129:15 0.0242491
14 *81:15 *129:23 0.0106103
15 *81:15 *131:15 0.000379859
16 *81:15 *132:17 0.00010983
17 *81:15 *132:19 0.0129821
18 *81:15 *133:25 0.000361233
19 *81:15 *143:15 0.0020241
20 *81:15 *345:43 0
21 *81:15 *346:35 0
22 *81:19 wbs_dat_o[14] 0
23 *81:19 *82:23 0.000256115
24 *81:19 *119:57 0
25 *81:19 *581:5 0.0165224
26 *81:19 *704:35 0.000185636
27 *81:19 *710:35 0.0700602
28 *81:19 *716:27 0.00341932
29 *81:19 *717:27 0.0065638
30 *81:19 *725:27 0.00960484
31 *81:19 *733:43 0.161932
32 *81:19 *737:35 0.000471967
33 *81:19 *737:43 0.0129649
34 *81:25 io_out[22] 0.0110312
35 *81:25 *119:61 0.0316792
36 *71:21 *81:15 0
37 *72:25 *81:15 0
38 *77:13 *81:15 0.00111234
39 *80:33 *81:25 8.50023e-05
*RES
1 *739:io_oeb_o[21] *81:13 12.4462 
2 *81:13 *81:15 1137.57 
3 *81:15 *81:17 2 
4 *81:17 *81:19 2599.96 
5 *81:19 *81:25 48.1757 
6 *81:25 io_oeb[21] 10.7625 
*END

*D_NET *82 0.610116
*CONN
*P io_oeb[22] O
*I *739:io_oeb_o[22] O *D ntt_wb_bridge
*CAP
1 io_oeb[22] 0.00270697
2 *739:io_oeb_o[22] 0.000283026
3 *82:25 0.119178
4 *82:23 0.117471
5 *82:13 0.0420669
6 *82:11 0.0413505
7 io_oeb[22] io_out[22] 0.00533265
8 *82:11 *99:23 0.000226051
9 *82:13 *86:13 0.0646509
10 *82:13 *87:13 0.0646526
11 *82:13 *87:21 0.0117872
12 *82:13 *97:45 0.000332784
13 *82:13 *99:23 0.00168213
14 *82:13 *103:17 0.000109434
15 *82:13 *117:11 0.000116651
16 *82:13 *119:51 0.000516678
17 *82:13 *119:53 0.000477801
18 *82:13 *136:53 0.00298451
19 *82:13 *137:21 0.0014158
20 *82:13 *139:19 0.000194707
21 *82:23 wbs_dat_o[14] 0
22 *82:23 *86:21 0.000938916
23 *82:23 *119:57 8.16955e-05
24 *82:25 *84:29 0.112327
25 *82:25 *91:27 0.00282803
26 *82:25 *92:27 0.00391874
27 *82:25 *93:23 0.0120856
28 *82:25 *580:5 0
29 *82:25 *675:15 0
30 *82:25 *734:35 0
31 *75:11 *82:13 0.000137024
32 *80:33 io_oeb[22] 6.17086e-06
33 *81:19 *82:23 0.000256115
*RES
1 *739:io_oeb_o[22] *82:11 3.33037 
2 *82:11 *82:13 1143.78 
3 *82:13 *82:23 8.75577 
4 *82:23 *82:25 2587.84 
5 *82:25 io_oeb[22] 19.4622 
*END

*D_NET *83 0.624426
*CONN
*P io_oeb[23] O
*I *739:io_oeb_o[23] O *D ntt_wb_bridge
*CAP
1 io_oeb[23] 0.0104067
2 *739:io_oeb_o[23] 0.00112024
3 *83:29 0.153621
4 *83:27 0.143215
5 *83:25 0.0133474
6 *83:23 0.0134024
7 *83:17 0.0123251
8 *83:15 0.0133904
9 io_oeb[23] io_out[23] 0.0070589
10 *83:15 *99:23 3.86753e-05
11 *83:17 *84:17 0.0654858
12 *83:17 *96:14 0.000978139
13 *83:17 *342:45 0.00775737
14 *83:17 *343:39 0.000321648
15 *83:17 *349:39 0.043733
16 *83:17 *350:35 0.000859251
17 *83:17 *351:39 0.000584264
18 *83:17 *352:23 0.0077911
19 *83:23 *84:23 6.14702e-05
20 *83:23 *85:19 7.9414e-05
21 *83:23 *317:19 3.03625e-05
22 *83:23 *325:19 1.38283e-05
23 *83:25 *84:25 0.0627876
24 *83:25 *85:21 0.064751
25 *83:25 *95:27 5.18735e-06
26 *83:25 *98:14 0
27 *83:25 *343:39 8.9459e-06
28 *83:29 wbs_dat_o[11] 0
29 *83:29 *546:5 0
30 *79:14 *83:17 0.00125165
*RES
1 *739:io_oeb_o[23] *83:15 17.4164 
2 *83:15 *83:17 602.475 
3 *83:17 *83:23 4.0075 
4 *83:23 *83:25 99.3244 
5 *83:25 *83:27 0.5 
6 *83:27 *83:29 2601.1 
7 *83:29 io_oeb[23] 42.6969 
*END

*D_NET *84 0.751699
*CONN
*P io_oeb[24] O
*I *739:io_oeb_o[24] O *D ntt_wb_bridge
*CAP
1 io_oeb[24] 0.0139902
2 *739:io_oeb_o[24] 0.00114597
3 *84:37 0.0699262
4 *84:35 0.0562834
5 *84:29 0.023039
6 *84:27 0.0226917
7 *84:25 0.024893
8 *84:23 0.0249097
9 *84:17 0.00883281
10 *84:15 0.00996207
11 *84:15 *99:23 4.78735e-05
12 *84:17 *85:13 0.0664267
13 *84:17 *96:14 0.00132337
14 *84:17 *342:45 0.00847092
15 *84:17 *343:39 0.000297881
16 *84:17 *348:51 2.52029e-05
17 *84:17 *349:39 2.21074e-05
18 *84:17 *352:23 0.00471858
19 *84:23 *317:19 6.28913e-05
20 *84:25 *98:14 0
21 *84:25 *343:39 0.000583872
22 *84:29 *86:25 0.0944004
23 *84:29 *87:25 9.36926e-05
24 *84:29 *93:23 0.0133199
25 *84:29 *121:23 4.04634e-05
26 *84:29 *547:5 0
27 *84:29 *580:5 0
28 *84:35 io_oeb[30] 0
29 *84:37 *86:33 0.0104573
30 *84:37 *87:33 0.0540384
31 *79:14 *84:17 0.00103315
32 *82:25 *84:29 0.112327
33 *83:17 *84:17 0.0654858
34 *83:23 *84:23 6.14702e-05
35 *83:25 *84:25 0.0627876
*RES
1 *739:io_oeb_o[24] *84:15 17.5292 
2 *84:15 *84:17 611.79 
3 *84:17 *84:23 3.2425 
4 *84:23 *84:25 96.2945 
5 *84:25 *84:27 0.5 
6 *84:27 *84:29 1274.08 
7 *84:29 *84:35 1.76633 
8 *84:35 *84:37 197.542 
9 *84:37 io_oeb[24] 37.1105 
*END

*D_NET *85 0.614573
*CONN
*P io_oeb[25] O
*I *739:io_oeb_o[25] O *D ntt_wb_bridge
*CAP
1 io_oeb[25] 0.012422
2 *739:io_oeb_o[25] 0.00135497
3 *85:25 0.154607
4 *85:23 0.142185
5 *85:21 0.0165673
6 *85:19 0.0166356
7 *85:13 0.00913647
8 *85:11 0.0104232
9 *85:11 *99:23 0.000191906
10 *85:11 *137:27 0
11 *85:13 *95:13 0.0673396
12 *85:13 *96:14 0.00173115
13 *85:13 *341:53 0.00743628
14 *85:13 *342:45 0.000330151
15 *85:13 *348:51 0.000236761
16 *85:13 *357:31 0.00340539
17 *85:19 *317:19 1.05678e-05
18 *85:19 *325:19 5.89198e-05
19 *85:21 *93:19 0.034302
20 *85:21 *95:27 1.57264e-05
21 *85:21 *98:14 0
22 *85:21 *131:15 0.00115623
23 *85:25 *89:25 0
24 *85:25 *545:5 0.00123131
25 *79:14 *85:13 0.0025383
26 *83:23 *85:19 7.9414e-05
27 *83:25 *85:21 0.064751
28 *84:17 *85:13 0.0664267
*RES
1 *739:io_oeb_o[25] *85:11 16.8048 
2 *85:11 *85:13 623.52 
3 *85:13 *85:19 4.0075 
4 *85:19 *85:21 101.218 
5 *85:21 *85:23 0.5 
6 *85:23 *85:25 379.541 
7 *85:25 io_oeb[25] 33.0318 
*END

*D_NET *86 0.692234
*CONN
*P io_oeb[26] O
*I *739:io_oeb_o[26] O *D ntt_wb_bridge
*CAP
1 io_oeb[26] 0.0150489
2 *739:io_oeb_o[26] 0.000243146
3 *86:33 0.0494812
4 *86:31 0.0346524
5 *86:25 0.0190114
6 *86:23 0.0187912
7 *86:21 0.0270184
8 *86:19 0.0270678
9 *86:13 0.0117496
10 *86:11 0.0119434
11 *86:11 *99:23 0.000204075
12 *86:11 *137:29 0.000107826
13 *86:13 *87:13 0.00237488
14 *86:13 *97:45 0.000246901
15 *86:13 *99:23 0.00189507
16 *86:13 *119:13 0.0139658
17 *86:13 *119:31 0.00402371
18 *86:13 *136:53 0.00114109
19 *86:13 *137:21 0.00368082
20 *86:13 *139:19 0.000220061
21 *86:13 *139:21 0.0150278
22 *86:19 *323:23 8.01857e-05
23 *86:19 *327:39 0.000146945
24 *86:21 *97:59 0.00796931
25 *86:21 *132:27 0.0486055
26 *86:25 *87:25 0.0772406
27 *86:25 *92:27 0.0280251
28 *86:31 io_oeb[31] 5.82605e-05
29 *86:33 *87:33 0.0726586
30 *86:33 *129:27 0.0228703
31 *86:33 *661:11 0
32 *78:13 *86:13 0.00623659
33 *82:13 *86:13 0.0646509
34 *82:23 *86:21 0.000938916
35 *84:29 *86:25 0.0944004
36 *84:37 *86:33 0.0104573
*RES
1 *739:io_oeb_o[26] *86:11 3.41397 
2 *86:11 *86:13 621.105 
3 *86:13 *86:19 4.2625 
4 *86:19 *86:21 97.2268 
5 *86:21 *86:23 0.5 
6 *86:23 *86:25 1057.33 
7 *86:25 *86:31 1.475 
8 *86:31 *86:33 165.5 
9 *86:33 io_oeb[26] 37.3435 
*END

*D_NET *87 0.681658
*CONN
*P io_oeb[27] O
*I *739:io_oeb_o[27] O *D ntt_wb_bridge
*CAP
1 io_oeb[27] 0.0141307
2 *739:io_oeb_o[27] 0.000219589
3 *87:33 0.0409464
4 *87:31 0.0270319
5 *87:25 0.0303483
6 *87:23 0.0301322
7 *87:21 0.0135631
8 *87:19 0.0135728
9 *87:13 0.0113766
10 *87:11 0.0115864
11 *87:11 *99:23 0.000187164
12 *87:13 *97:23 0
13 *87:13 *97:45 0.000360423
14 *87:13 *99:23 0.00270762
15 *87:13 *103:17 0.000118649
16 *87:13 *108:15 0
17 *87:13 *117:11 0.000116651
18 *87:13 *119:51 0.00044205
19 *87:13 *120:13 0
20 *87:13 *136:25 0.000100867
21 *87:13 *136:53 0.00350094
22 *87:13 *136:65 0.00335001
23 *87:13 *136:67 0.000569689
24 *87:13 *137:21 0.0015796
25 *87:13 *139:19 0.000194707
26 *87:19 *323:23 9.5799e-06
27 *87:19 *327:39 1.7635e-05
28 *87:21 *97:59 0.00111868
29 *87:21 *119:53 0.063241
30 *87:21 *136:67 0.0373997
31 *87:25 *92:27 0.0260947
32 *87:25 *547:5 0
33 *87:31 io_oeb[32] 0.000120295
34 *87:33 *129:27 0.0103073
35 *75:11 *87:13 0.000137024
36 *77:21 *87:13 0
37 *78:13 *87:13 0.000477076
38 *80:13 *87:13 0.0537529
39 *82:13 *87:13 0.0646526
40 *82:13 *87:21 0.0117872
41 *84:29 *87:25 9.36926e-05
42 *84:37 *87:33 0.0540384
43 *86:13 *87:13 0.00237488
44 *86:25 *87:25 0.0772406
45 *86:33 *87:33 0.0726586
*RES
1 *739:io_oeb_o[27] *87:11 3.21637 
2 *87:11 *87:13 631.455 
3 *87:13 *87:19 2.7325 
4 *87:19 *87:21 97.2851 
5 *87:21 *87:23 0.5 
6 *87:23 *87:25 867.615 
7 *87:25 *87:31 1.53327 
8 *87:31 *87:33 164.897 
9 *87:33 io_oeb[27] 37.227 
*END

*D_NET *88 0.564337
*CONN
*P io_oeb[28] O
*I *739:io_oeb_o[28] O *D ntt_wb_bridge
*CAP
1 io_oeb[28] 0.0122393
2 *739:io_oeb_o[28] 0.000299618
3 *88:27 0.116824
4 *88:25 0.104585
5 *88:23 0.0123937
6 *88:21 0.0124522
7 *88:15 0.00896525
8 *88:13 0.00920639
9 *88:13 *99:23 8.18721e-05
10 *88:15 *89:13 0.0658779
11 *88:15 *91:23 0.00013827
12 *88:15 *102:19 0.00455157
13 *88:15 *113:15 0.0143277
14 *88:15 *118:23 0.00173223
15 *88:15 *120:13 0.0217967
16 *88:15 *121:13 0.000364606
17 *88:15 *142:17 0.000242991
18 *88:15 *142:19 0.00741775
19 *88:15 *142:27 0.0206984
20 *88:23 *91:23 0.00062443
21 *88:23 *118:23 0.0686576
22 *88:23 *121:23 0.00496361
23 *88:23 *133:27 0.0747496
24 *88:27 *544:5 0.00114586
*RES
1 *739:io_oeb_o[28] *88:13 5.2631 
2 *88:13 *88:15 601.785 
3 *88:15 *88:21 3.2425 
4 *88:21 *88:23 111.473 
5 *88:23 *88:25 0.5 
6 *88:25 *88:27 278.938 
7 *88:27 io_oeb[28] 30.4681 
*END

*D_NET *89 0.538178
*CONN
*P io_oeb[29] O
*I *739:io_oeb_o[29] O *D ntt_wb_bridge
*CAP
1 io_oeb[29] 0.0122381
2 *739:io_oeb_o[29] 0.000282477
3 *89:25 0.103175
4 *89:23 0.0909368
5 *89:21 0.0126006
6 *89:19 0.0127127
7 *89:13 0.0108744
8 *89:11 0.0110448
9 *89:11 *99:23 4.68515e-05
10 *89:13 *102:19 0.00454608
11 *89:13 *114:13 0.0101421
12 *89:13 *115:31 0.00533001
13 *89:13 *118:23 0.00159702
14 *89:13 *121:13 0.0224079
15 *89:13 *122:13 0.000296856
16 *89:13 *123:15 0.000596043
17 *89:13 *133:27 0.000360559
18 *89:13 *142:19 0.0083249
19 *89:13 *142:27 0.000680133
20 *89:21 *92:23 0.00245049
21 *89:21 *106:13 0.000680598
22 *89:21 *120:21 0.0616769
23 *89:21 *120:27 0.00098283
24 *89:21 *122:23 0.00412433
25 *89:21 *133:27 0.0742257
26 *89:25 wbs_dat_o[10] 0.0199664
27 *85:25 *89:25 0
28 *88:15 *89:13 0.0658779
*RES
1 *739:io_oeb_o[29] *89:11 5.91663 
2 *89:11 *89:13 606.615 
3 *89:13 *89:19 4.0075 
4 *89:19 *89:21 110.657 
5 *89:21 *89:23 0.5 
6 *89:23 *89:25 246.121 
7 *89:25 io_oeb[29] 32.2161 
*END

*D_NET *90 0.337894
*CONN
*P io_oeb[2] O
*I *739:io_oeb_o[2] O *D ntt_wb_bridge
*CAP
1 io_oeb[2] 0.00076842
2 *739:io_oeb_o[2] 0.00212918
3 *90:31 0.0144598
4 *90:29 0.0136914
5 *90:27 0.0174464
6 *90:25 0.0195756
7 *90:25 *92:23 0.00311073
8 *90:25 *99:21 0.00474417
9 *90:25 *109:13 0.000121226
10 *90:25 *110:13 0.00112108
11 *90:25 *137:21 0.000472181
12 *90:25 *141:13 0.000141276
13 *90:27 *99:23 0
14 *90:27 *100:27 0.0820528
15 *90:27 *102:19 0.0131405
16 *90:27 *115:31 0.00472905
17 *90:27 *128:29 0.105044
18 *90:27 *142:19 5.56205e-06
19 *90:31 *99:27 0.0358217
20 *90:31 *100:31 0.000139166
21 *90:31 *128:33 0.00297739
22 *90:31 *137:33 0.00792324
23 io_oeb[0] *90:31 0.00790611
24 *68:19 *90:25 0.000373078
25 *68:27 *90:27 0
*RES
1 *739:io_oeb_o[2] *90:25 17.3075 
2 *90:25 *90:27 156.193 
3 *90:27 *90:29 0.5 
4 *90:29 *90:31 65.7577 
5 *90:31 io_oeb[2] 2.38353 
*END

*D_NET *91 0.57182
*CONN
*P io_oeb[30] O
*I *739:io_oeb_o[30] O *D ntt_wb_bridge
*CAP
1 io_oeb[30] 0.0143723
2 *739:io_oeb_o[30] 0.000410958
3 *91:27 0.0420119
4 *91:25 0.0276396
5 *91:23 0.0152829
6 *91:21 0.0154581
7 *91:15 0.0197264
8 *91:13 0.0199621
9 *91:13 *99:23 9.53468e-05
10 *91:15 *106:13 0.0148239
11 *91:15 *107:35 0.0478699
12 *91:15 *109:13 0
13 *91:15 *110:13 0
14 *91:15 *114:13 0.000475259
15 *91:15 *118:15 0.0112234
16 *91:21 *143:13 0
17 *91:23 *97:45 0.000948144
18 *91:23 *118:23 0.0769549
19 *91:23 *119:31 0.000391438
20 *91:23 *121:23 0.000226857
21 *91:23 *123:25 0.000826344
22 *91:23 *133:27 0.000275243
23 *91:23 *136:53 0.000713055
24 *91:23 *142:17 0.000662338
25 *91:27 *92:27 0.098192
26 *91:27 *129:27 0.116317
27 *91:27 *661:11 0
28 *80:23 *91:23 0.00222819
29 *80:25 *91:23 0.0411421
30 *82:25 *91:27 0.00282803
31 *84:35 io_oeb[30] 0
32 *88:15 *91:23 0.00013827
33 *88:23 *91:23 0.00062443
*RES
1 *739:io_oeb_o[30] *91:13 7.06077 
2 *91:13 *91:15 542.1 
3 *91:15 *91:21 4.7725 
4 *91:21 *91:23 117.533 
5 *91:23 *91:25 0.5 
6 *91:25 *91:27 212.787 
7 *91:27 io_oeb[30] 37.5766 
*END

*D_NET *92 0.588204
*CONN
*P io_oeb[31] O
*I *739:io_oeb_o[31] O *D ntt_wb_bridge
*CAP
1 io_oeb[31] 0.014427
2 *739:io_oeb_o[31] 0.000914579
3 *92:27 0.0417185
4 *92:25 0.0272915
5 *92:23 0.028853
6 *92:21 0.0297675
7 *92:21 *99:23 0.000399251
8 *92:21 *100:27 0.000285759
9 *92:21 *115:31 0.000521639
10 *92:21 *142:27 0.000747797
11 *92:23 *99:21 0.000959396
12 *92:23 *106:13 0.000669928
13 *92:23 *110:13 0.00193979
14 *92:23 *116:27 0.00510299
15 *92:23 *117:13 0.0690357
16 *92:23 *120:21 0.0354325
17 *92:23 *120:27 0.00177792
18 *92:23 *122:23 0.000260051
19 *92:23 *124:23 0.0288277
20 *92:23 *126:25 0.000611025
21 *92:23 *130:15 0.00392725
22 *92:23 *134:15 0.0422914
23 *92:23 *136:25 0.000780575
24 *92:23 *140:13 0.00036438
25 *92:27 *740:mac_init 2.86023e-05
26 *92:27 *93:23 0.0803871
27 *92:27 *129:27 0.000174021
28 *92:27 *661:11 0
29 *68:17 *92:23 0.000115214
30 *68:19 *92:23 0.00273762
31 *74:25 *92:23 0.000562278
32 *76:17 *92:23 4.60198e-05
33 *76:19 *92:23 0.0053957
34 *82:25 *92:27 0.00391874
35 *86:25 *92:27 0.0280251
36 *86:31 io_oeb[31] 5.82605e-05
37 *87:25 *92:27 0.0260947
38 *89:21 *92:23 0.00245049
39 *90:25 *92:23 0.00311073
40 *91:27 *92:27 0.098192
*RES
1 *739:io_oeb_o[31] *92:21 23.0016 
2 *92:21 *92:23 208.137 
3 *92:23 *92:25 0.5 
4 *92:25 *92:27 180.315 
5 *92:27 io_oeb[31] 37.6931 
*END

*D_NET *93 0.488832
*CONN
*P io_oeb[32] O
*I *739:io_oeb_o[32] O *D ntt_wb_bridge
*CAP
1 io_oeb[32] 0.0153462
2 *739:io_oeb_o[32] 0.000938211
3 *93:23 0.0505722
4 *93:21 0.035226
5 *93:19 0.0390818
6 *93:17 0.04002
7 *93:17 *96:14 2.49125e-05
8 *93:17 *99:23 0.000143972
9 *93:17 *104:21 0.000159918
10 *93:19 *95:27 8.20523e-05
11 *93:19 *96:14 0.0255392
12 *93:19 *100:21 0.0140918
13 *93:19 *104:21 0.000886885
14 *93:19 *131:15 0.100098
15 *93:19 *132:17 0.000175021
16 *93:19 *132:19 4.77409e-05
17 *93:19 *133:25 0.000306104
18 *93:19 *137:19 0.00708369
19 *93:19 *140:13 0.00154445
20 *93:23 *740:mac_init 0.00900354
21 *93:23 *129:27 0.000119077
22 *93:23 *580:5 0.00198103
23 *93:23 *661:11 2.73219e-05
24 *71:19 *93:19 9.55623e-05
25 *72:23 *93:19 6.14924e-05
26 *73:18 *93:19 0.000146901
27 *81:15 *93:19 0.00581437
28 *82:25 *93:23 0.0120856
29 *84:29 *93:23 0.0133199
30 *85:21 *93:19 0.034302
31 *87:31 io_oeb[32] 0.000120295
32 *92:27 *93:23 0.0803871
*RES
1 *739:io_oeb_o[32] *93:17 11.5664 
2 *93:17 *93:19 211.663 
3 *93:19 *93:21 0.5 
4 *93:21 *93:23 148.187 
5 *93:23 io_oeb[32] 37.8097 
*END

*D_NET *94 0.349355
*CONN
*P io_oeb[33] O
*I *739:io_oeb_o[33] O *D ntt_wb_bridge
*CAP
1 io_oeb[33] 0.0157013
2 *739:io_oeb_o[33] 0.00167259
3 *94:21 0.0581964
4 *94:19 0.0424951
5 *94:17 0.0492488
6 *94:15 0.0509214
7 *94:15 *99:23 7.54125e-05
8 *94:17 *98:14 0.0415721
9 *94:17 *138:13 0.0702662
10 *94:17 *334:45 0
11 *94:17 *337:65 0
12 *94:17 *344:25 0.0121582
13 *94:21 *683:13 0.000547286
14 *94:21 *688:11 0.000404558
15 *94:21 *688:21 0.000528309
16 *94:21 *701:27 0.00483206
17 *94:21 *725:27 4.14132e-05
18 *94:21 *726:27 0.000693804
*RES
1 *739:io_oeb_o[33] *94:15 4.53273 
2 *94:15 *94:17 211.313 
3 *94:17 *94:19 0.5 
4 *94:19 *94:21 116.318 
5 *94:21 io_oeb[33] 40.0238 
*END

*D_NET *95 0.411809
*CONN
*P io_oeb[34] O
*I *739:io_oeb_o[34] O *D ntt_wb_bridge
*CAP
1 io_oeb[34] 0.0402287
2 *739:io_oeb_o[34] 0.00124338
3 *95:31 0.0402287
4 *95:29 0.0119449
5 *95:27 0.0136839
6 *95:13 0.0154546
7 *95:11 0.014959
8 io_oeb[34] *611:7 0
9 io_oeb[34] *612:7 0.0621769
10 *95:11 *99:23 0.000295067
11 *95:11 *137:29 0.000114176
12 *95:13 *96:14 0.00187787
13 *95:13 *341:53 0.00812061
14 *95:13 *342:45 0.00030572
15 *95:13 *348:51 0.0418361
16 *95:13 *357:31 0.00736451
17 *95:27 *96:14 4.12831e-05
18 *95:27 *272:25 0.00184746
19 *95:27 *283:25 0.00183455
20 *95:27 *323:23 1.88602e-05
21 *95:27 *327:39 7.96104e-06
22 *95:27 *341:53 0.000206793
23 *95:27 *343:39 8.94614e-05
24 *95:29 *272:25 0.0163369
25 *95:29 *283:25 0.0412699
26 *70:22 *95:13 0.000881326
27 *71:21 *95:13 0.000368453
28 *73:20 *95:13 0.0191772
29 *78:13 *95:11 0.000123853
30 *79:14 *95:13 0.00232807
31 *83:25 *95:27 5.18735e-06
32 *85:13 *95:13 0.0673396
33 *85:21 *95:27 1.57264e-05
34 *93:19 *95:27 8.20523e-05
*RES
1 *739:io_oeb_o[34] *95:11 16.8412 
2 *95:11 *95:13 693.9 
3 *95:13 *95:27 10.5019 
4 *95:27 *95:29 76.1571 
5 *95:29 *95:31 0.5 
6 *95:31 io_oeb[34] 133.566 
*END

*D_NET *96 0.345672
*CONN
*P io_oeb[35] O
*I *739:io_oeb_o[35] O *D ntt_wb_bridge
*CAP
1 io_oeb[35] 0.0398784
2 *739:io_oeb_o[35] 0.00111134
3 *96:24 0.0427874
4 *96:18 0.0170321
5 *96:14 0.037487
6 *96:12 0.0244751
7 io_oeb[35] *605:9 0
8 io_oeb[35] *606:9 0.0210395
9 *96:14 *98:14 0
10 *96:14 *104:21 0
11 *96:14 *135:14 0
12 *96:14 *137:19 0.00392753
13 *96:14 *341:53 0.0186519
14 *96:14 *342:45 0.000559198
15 *96:14 *343:39 0.000386977
16 *96:14 *345:43 0.00918242
17 *96:14 *346:35 0.00873761
18 *96:14 *347:43 0.00905026
19 *96:14 *348:51 0.0102241
20 *96:18 *311:25 0.0105046
21 *96:18 *327:39 0.00597805
22 *96:18 *342:41 0.00639209
23 *96:24 *605:9 0.00144159
24 *96:24 *606:9 0
25 *71:19 *96:14 0.000190922
26 *71:21 *96:14 0.00487557
27 *72:23 *96:14 0.000121404
28 *72:25 *96:14 0.00531323
29 *73:18 *96:14 0.000273161
30 *79:14 *96:14 0.0345348
31 *83:17 *96:14 0.000978139
32 *84:17 *96:14 0.00132337
33 *85:13 *96:14 0.00173115
34 *93:17 *96:14 2.49125e-05
35 *93:19 *96:14 0.0255392
36 *95:13 *96:14 0.00187787
37 *95:27 *96:14 4.12831e-05
*RES
1 *739:io_oeb_o[35] *96:12 3.2876 
2 *96:12 *96:14 119.601 
3 *96:14 *96:18 49.7201 
4 *96:18 *96:24 8.556 
5 *96:24 io_oeb[35] 126.574 
*END

*D_NET *97 0.38023
*CONN
*P io_oeb[36] O
*I *739:io_oeb_o[36] O *D ntt_wb_bridge
*CAP
1 io_oeb[36] 0.00647225
2 *739:io_oeb_o[36] 0.000603536
3 *97:59 0.026966
4 *97:57 0.021079
5 *97:45 0.00344172
6 *97:23 0.0163385
7 *97:21 0.0139455
8 *97:15 0.00241794
9 *97:13 0.00255804
10 io_oeb[36] *123:27 0.00418878
11 io_oeb[36] *123:33 0
12 io_oeb[36] *124:33 0.00127535
13 io_oeb[36] *125:27 0
14 io_oeb[36] *132:31 0.012146
15 io_oeb[36] *133:31 2.26286e-05
16 *97:13 *99:23 8.14541e-05
17 *97:15 *112:13 0.0157088
18 *97:15 *141:13 0.015706
19 *97:23 *103:17 0.000119831
20 *97:23 *108:15 0.0480656
21 *97:23 *120:13 0.000561903
22 *97:23 *137:21 0.0102329
23 *97:23 *139:19 2.65814e-06
24 *97:23 *142:17 0.000193586
25 *97:45 *119:31 0.000785831
26 *97:45 *119:51 0.000696911
27 *97:45 *120:13 0
28 *97:45 *136:53 0.00774154
29 *97:45 *136:65 0.00197306
30 *97:45 *137:19 0.00011635
31 *97:45 *138:11 4.06539e-05
32 *97:45 *139:19 0.000699364
33 *97:45 *140:11 4.43252e-05
34 *97:45 *142:17 0.00125812
35 *97:57 *119:51 0.000948396
36 *97:57 *136:65 1.79483e-05
37 *97:59 *119:53 0.0634503
38 *97:59 *132:27 0.0713653
39 *97:59 *136:67 0.00717908
40 *68:19 *97:15 0.00372444
41 *80:13 *97:23 0.0063154
42 *80:23 *97:45 2.87203e-05
43 *80:25 *97:45 0.000740127
44 *82:13 *97:45 0.000332784
45 *86:13 *97:45 0.000246901
46 *86:21 *97:59 0.00796931
47 *87:13 *97:23 0
48 *87:13 *97:45 0.000360423
49 *87:21 *97:59 0.00111868
50 *91:23 *97:45 0.000948144
*RES
1 *739:io_oeb_o[36] *97:13 10.1005 
2 *97:13 *97:15 142.245 
3 *97:15 *97:21 10.225 
4 *97:21 *97:23 449.985 
5 *97:23 *97:45 49.0889 
6 *97:45 *97:57 6.32237 
7 *97:57 *97:59 135.362 
8 *97:59 io_oeb[36] 25.4935 
*END

*D_NET *98 0.273649
*CONN
*P io_oeb[37] O
*I *739:io_oeb_o[37] O *D ntt_wb_bridge
*CAP
1 io_oeb[37] 0.00102103
2 *739:io_oeb_o[37] 0.00150936
3 *98:14 0.0581249
4 *98:12 0.0586132
5 *98:14 *135:14 0.0256331
6 *98:14 *138:13 0.074485
7 *98:14 *343:39 5.31774e-05
8 *98:14 *352:23 0
9 *98:14 *353:27 0.000716043
10 *69:17 *98:14 0.0119207
11 *79:14 *98:14 0
12 *83:25 *98:14 0
13 *84:25 *98:14 0
14 *85:21 *98:14 0
15 *94:17 *98:14 0.0415721
16 *96:14 *98:14 0
*RES
1 *739:io_oeb_o[37] *98:12 4.06787 
2 *98:12 *98:14 255.479 
3 *98:14 io_oeb[37] 2.90953 
*END

*D_NET *99 0.323735
*CONN
*P io_oeb[3] O
*I *739:io_oeb_o[3] O *D ntt_wb_bridge
*CAP
1 io_oeb[3] 0.000837063
2 *739:io_oeb_o[3] 0.00234377
3 *99:27 0.0113225
4 *99:25 0.0104854
5 *99:23 0.0310418
6 *99:21 0.0333856
7 *99:21 *109:13 0.00160709
8 *99:21 *110:13 0.000376901
9 *99:21 *137:21 4.84515e-05
10 *99:21 *141:13 0.00147304
11 *99:23 *100:27 0.00280681
12 *99:23 *102:19 1.12032e-05
13 *99:23 *102:25 0.0023396
14 *99:23 *103:19 0.0255172
15 *99:23 *103:35 0.00167153
16 *99:23 *108:15 0.00212165
17 *99:23 *137:21 0.0159361
18 *99:23 *137:29 0.00114273
19 *99:27 *100:31 0.0496322
20 *99:27 *104:27 0.0111489
21 *99:27 *140:25 0.0101886
22 *99:27 *143:27 0.00952407
23 *68:19 *99:21 0.00702695
24 *68:27 *99:23 0.0305517
25 *69:15 *99:21 0
26 *69:15 *99:23 6.92707e-05
27 *71:19 *99:23 0.00016564
28 *72:23 *99:23 7.33588e-05
29 *74:25 *99:23 0.00042503
30 *75:11 *99:23 0.000397408
31 *76:17 *99:23 0.000107496
32 *77:11 *99:23 0.000133724
33 *77:35 *99:23 0.00597132
34 *78:11 *99:23 0.000139762
35 *78:13 *99:23 0.00190654
36 *80:11 *99:23 4.80354e-05
37 *80:13 *99:23 0.00171486
38 *81:13 *99:23 0.000116186
39 *82:11 *99:23 0.000226051
40 *82:13 *99:23 0.00168213
41 *83:15 *99:23 3.86753e-05
42 *84:15 *99:23 4.78735e-05
43 *85:11 *99:23 0.000191906
44 *86:11 *99:23 0.000204075
45 *86:13 *99:23 0.00189507
46 *87:11 *99:23 0.000187164
47 *87:13 *99:23 0.00270762
48 *88:13 *99:23 8.18721e-05
49 *89:11 *99:23 4.68515e-05
50 *90:25 *99:21 0.00474417
51 *90:27 *99:23 0
52 *90:31 *99:27 0.0358217
53 *91:13 *99:23 9.53468e-05
54 *92:21 *99:23 0.000399251
55 *92:23 *99:21 0.000959396
56 *93:17 *99:23 0.000143972
57 *94:15 *99:23 7.54125e-05
58 *95:11 *99:23 0.000295067
59 *97:13 *99:23 8.14541e-05
*RES
1 *739:io_oeb_o[3] *99:21 20.5973 
2 *99:21 *99:23 152.697 
3 *99:23 *99:25 0.5 
4 *99:25 *99:27 90.478 
5 *99:27 io_oeb[3] 2.50007 
*END

*D_NET *100 0.402891
*CONN
*P io_oeb[4] O
*I *739:io_oeb_o[4] O *D ntt_wb_bridge
*CAP
1 io_oeb[4] 0.000910436
2 *739:io_oeb_o[4] 0.0070617
3 *100:31 0.0288352
4 *100:29 0.0279247
5 *100:27 0.0145604
6 *100:25 0.0151843
7 *100:21 0.00768567
8 *100:21 *101:15 0.00153948
9 *100:21 *104:21 0.0217399
10 *100:21 *137:21 0.000104023
11 *100:21 *140:13 0.000492712
12 *100:27 *102:19 0.0644179
13 *100:27 *102:25 1.47935e-05
14 *100:27 *103:35 0.0026818
15 *100:27 *111:15 0.000417255
16 *100:27 *114:23 0.000560439
17 *100:27 *142:27 0.0016643
18 *100:31 io_oeb[5] 0.00580517
19 *100:31 *107:39 0.0140761
20 *100:31 *108:19 0.0281277
21 *100:31 *140:25 0.00458531
22 *81:15 *100:21 0.00549307
23 *90:27 *100:27 0.0820528
24 *90:31 *100:31 0.000139166
25 *92:21 *100:27 0.000285759
26 *93:19 *100:21 0.0140918
27 *99:23 *100:27 0.00280681
28 *99:27 *100:31 0.0496322
*RES
1 *739:io_oeb_o[4] *100:21 49.6992 
2 *100:21 *100:25 1.65773 
3 *100:25 *100:27 122.048 
4 *100:27 *100:29 0.5 
5 *100:29 *100:31 116.146 
6 *100:31 io_oeb[4] 2.6166 
*END

*D_NET *101 0.373463
*CONN
*P io_oeb[5] O
*I *739:io_oeb_o[5] O *D ntt_wb_bridge
*CAP
1 io_oeb[5] 0.00795446
2 *739:io_oeb_o[5] 0.000833973
3 *101:23 0.048302
4 *101:21 0.0403475
5 *101:19 0.0415594
6 *101:17 0.0415594
7 *101:15 0.00687571
8 *101:13 0.00770968
9 io_oeb[5] *104:27 0.00486455
10 io_oeb[5] *107:39 0.00103256
11 io_oeb[5] *108:19 0.00230921
12 io_oeb[5] *140:25 0.0196104
13 io_oeb[5] *143:27 0.00434276
14 *101:13 *137:21 0.000279419
15 *101:15 *104:21 0.0314263
16 *101:15 *105:15 0.010067
17 *101:15 *140:13 0.0373221
18 *101:15 *143:15 0.00825387
19 *101:15 *357:31 0
20 *101:19 *739:mem_rdata_i[11] 0.0093647
21 *101:19 *739:mem_rdata_i[7] 0
22 *101:19 *284:17 0.0130433
23 *101:19 *360:31 0.00472791
24 *101:19 *367:27 0.00887528
25 *101:19 *369:19 0.00472791
26 *101:19 *373:17 0.00825646
27 *101:19 *649:15 0.000788275
28 *101:19 *737:11 0
29 *101:23 *358:25 0.00119931
30 *101:23 *362:23 0.000195558
31 *101:23 *651:15 0
32 *101:23 *664:27 0.000123032
33 *101:23 *670:13 0
34 *101:23 *676:27 0.000166455
35 *79:14 *101:15 0
36 *100:21 *101:15 0.00153948
37 *100:31 io_oeb[5] 0.00580517
*RES
1 *739:io_oeb_o[5] *101:13 9.86793 
2 *101:13 *101:15 55.4787 
3 *101:15 *101:17 0.5 
4 *101:17 *101:19 106.585 
5 *101:19 *101:21 0.5 
6 *101:21 *101:23 104.219 
7 *101:23 io_oeb[5] 38.7834 
*END

*D_NET *102 0.421052
*CONN
*P io_oeb[6] O
*I *739:io_oeb_o[6] O *D ntt_wb_bridge
*CAP
1 io_oeb[6] 0.00864044
2 *739:io_oeb_o[6] 0.000543465
3 *102:27 0.0542206
4 *102:25 0.0466125
5 *102:19 0.0164002
6 *102:17 0.0159114
7 *102:17 *137:21 0.000283041
8 *102:19 *103:17 0.000352922
9 *102:19 *103:19 0.0846309
10 *102:19 *103:35 0.00117539
11 *102:19 *111:15 0.000230057
12 *102:19 *113:15 0.000249554
13 *102:19 *137:21 0.000477645
14 *102:19 *142:19 0.00125709
15 *102:19 *142:27 0.0190064
16 *102:25 *103:35 0.00403361
17 *102:25 *108:15 0.000592957
18 *102:27 *113:19 0.00402102
19 *102:27 *115:203 0.00731044
20 *102:27 *659:15 0.00274458
21 *102:27 *665:21 0.00823893
22 *102:27 *669:11 0.000630957
23 *102:27 *669:17 0.00458741
24 *102:27 *680:11 0.0406206
25 *102:27 *686:21 0.00439392
26 *75:17 *102:27 0.00243238
27 *76:23 *102:27 0.00243238
28 *88:15 *102:19 0.00455157
29 *89:13 *102:19 0.00454608
30 *90:27 *102:19 0.0131405
31 *99:23 *102:19 1.12032e-05
32 *99:23 *102:25 0.0023396
33 *100:27 *102:19 0.0644179
34 *100:27 *102:25 1.47935e-05
*RES
1 *739:io_oeb_o[6] *102:17 3.6268 
2 *102:17 *102:19 131.604 
3 *102:19 *102:25 6.808 
4 *102:25 *102:27 166.361 
5 *102:27 io_oeb[6] 22.7769 
*END

*D_NET *103 0.452193
*CONN
*P io_oeb[7] O
*I *739:io_oeb_o[7] O *D ntt_wb_bridge
*CAP
1 io_oeb[7] 0.00780388
2 *739:io_oeb_o[7] 0.000613322
3 *103:37 0.0551524
4 *103:35 0.0497047
5 *103:19 0.0208628
6 *103:17 0.0191199
7 *103:17 *108:15 0.000109836
8 *103:17 *111:15 0.000116817
9 *103:17 *113:15 0.000127447
10 *103:17 *137:21 0.000925142
11 *103:19 *108:15 0.0130903
12 *103:19 *111:15 0.0185639
13 *103:19 *113:15 0.0168297
14 *103:19 *137:21 0.0101576
15 *103:35 la_data_out[116] 1.4813e-05
16 *103:35 *108:15 0.000494022
17 *103:35 *111:15 0.00115372
18 *103:35 *113:15 0.000921872
19 *103:35 *114:23 0.000555942
20 *103:35 *142:27 0.000632269
21 *69:21 *103:37 0.109673
22 *77:21 *103:19 0.0016539
23 *77:35 *103:19 0.00340218
24 *80:13 *103:17 0.000101753
25 *82:13 *103:17 0.000109434
26 *87:13 *103:17 0.000118649
27 *97:23 *103:17 0.000119831
28 *99:23 *103:19 0.0255172
29 *99:23 *103:35 0.00167153
30 *100:27 *103:35 0.0026818
31 *102:19 *103:17 0.000352922
32 *102:19 *103:19 0.0846309
33 *102:19 *103:35 0.00117539
34 *102:25 *103:35 0.00403361
*RES
1 *739:io_oeb_o[7] *103:17 4.61227 
2 *103:17 *103:19 125.894 
3 *103:19 *103:35 14.2345 
4 *103:35 *103:37 200.04 
5 *103:37 io_oeb[7] 20.9123 
*END

*D_NET *104 0.511143
*CONN
*P io_oeb[8] O
*I *739:io_oeb_o[8] O *D ntt_wb_bridge
*CAP
1 io_oeb[8] 0.000805961
2 *739:io_oeb_o[8] 0.000733656
3 *104:27 0.0227171
4 *104:25 0.0219111
5 *104:23 0.029466
6 *104:21 0.037024
7 *104:13 0.00829166
8 *104:13 *137:21 4.67149e-05
9 *104:23 *139:21 0.0118326
10 *104:27 *105:27 0.0683873
11 *104:27 *107:39 0.0037272
12 *104:27 *137:33 0.043235
13 *104:27 *140:25 0.000107063
14 *104:27 *143:27 0.116981
15 io_oeb[5] *104:27 0.00486455
16 *68:25 *104:21 0.000769504
17 *68:27 *104:23 0.0710022
18 *77:13 *104:21 0.0029961
19 *78:23 *104:23 0.000882361
20 *79:14 *104:21 0
21 *93:17 *104:21 0.000159918
22 *93:19 *104:21 0.000886885
23 *96:14 *104:21 0
24 *99:27 *104:27 0.0111489
25 *100:21 *104:21 0.0217399
26 *101:15 *104:21 0.0314263
*RES
1 *739:io_oeb_o[8] *104:13 10.0385 
2 *104:13 *104:21 49.469 
3 *104:21 *104:23 108.851 
4 *104:23 *104:25 0.5 
5 *104:25 *104:27 1380.17 
6 *104:27 io_oeb[8] 2.41267 
*END

*D_NET *105 0.40966
*CONN
*P io_oeb[9] O
*I *739:io_oeb_o[9] O *D ntt_wb_bridge
*CAP
1 io_oeb[9] 0.000732677
2 *739:io_oeb_o[9] 0.00081327
3 *105:27 0.034426
4 *105:25 0.0336933
5 *105:23 0.0336799
6 *105:21 0.0336799
7 *105:19 0.0132558
8 *105:17 0.0132558
9 *105:15 0.00828492
10 *105:13 0.00909819
11 *105:13 *137:21 0.000179449
12 *105:15 *143:15 0.0312248
13 *105:19 *292:19 0.0534701
14 *105:19 *354:27 0
15 *105:19 *376:19 0
16 *105:19 *675:31 0.000544894
17 *105:19 *677:27 0.00794648
18 *105:19 *733:11 0.00471082
19 *105:19 *733:37 0.000511606
20 *105:19 *734:19 0.0174141
21 *105:23 *115:197 0.00253121
22 *105:23 *378:23 0.00038879
23 *105:23 *384:21 0.00225227
24 *105:23 *386:23 0.000979732
25 *105:23 *390:15 0
26 *105:23 *394:15 0
27 *105:27 *107:39 0.00195106
28 *105:27 *140:25 0.00650732
29 *105:27 *143:27 0.00777692
30 *74:27 *105:15 0.00129719
31 *77:13 *105:15 0.00773898
32 *81:15 *105:15 0.00286035
33 *101:15 *105:15 0.010067
34 *104:27 *105:27 0.0683873
*RES
1 *739:io_oeb_o[9] *105:13 11.0986 
2 *105:13 *105:15 303.36 
3 *105:15 *105:17 2 
4 *105:17 *105:19 625.62 
5 *105:19 *105:21 2 
6 *105:21 *105:23 606.96 
7 *105:23 *105:25 2 
8 *105:25 *105:27 964.133 
9 *105:27 io_oeb[9] 2.3544 
*END

*D_NET *106 0.323866
*CONN
*P io_out[0] O
*I *739:io_out_o[0] O *D ntt_wb_bridge
*CAP
1 io_out[0] 0.0304113
2 *739:io_out_o[0] 0.000689809
3 *106:19 0.0325212
4 *106:13 0.014449
5 *106:11 0.0130289
6 io_out[0] *730:7 0.0565927
7 *106:11 *119:51 0.000238928
8 *106:13 *117:13 0.0794622
9 *106:13 *128:29 0.0717608
10 *106:13 *133:27 0.00480258
11 *106:19 *117:19 0.00371484
12 *76:19 *106:13 1.93372e-05
13 *89:21 *106:13 0.000680598
14 *91:15 *106:13 0.0148239
15 *92:23 *106:13 0.000669928
*RES
1 *739:io_out_o[0] *106:11 2.50607 
2 *106:11 *106:13 119.601 
3 *106:13 *106:19 8.0148 
4 *106:19 io_out[0] 108.512 
*END

*D_NET *107 0.650769
*CONN
*P io_out[10] O
*I *739:io_out_o[10] O *D ntt_wb_bridge
*CAP
1 io_out[10] 0.000841343
2 *739:io_out_o[10] 0.00278983
3 *107:39 0.0283593
4 *107:37 0.0275179
5 *107:35 0.0353129
6 *107:33 0.035942
7 *107:25 0.00341895
8 *107:25 *115:21 0
9 *107:25 *124:15 0.00164229
10 *107:25 *125:15 0.00179173
11 *107:25 *132:19 0.00764416
12 *107:25 *136:53 0.000322834
13 *107:25 *140:13 0.00475967
14 *107:33 *112:13 0.00287856
15 *107:33 *126:15 0.00288023
16 *107:33 *140:13 0.000608455
17 *107:35 *108:15 0
18 *107:35 *110:13 0
19 *107:35 *114:13 0.111392
20 *107:35 *128:29 0.0266371
21 *107:35 *142:27 0
22 *107:39 *108:19 0.154874
23 *107:39 *128:33 0
24 *107:39 *137:33 2.53191e-06
25 *107:39 *140:25 0.00214397
26 *107:39 *143:27 0.130353
27 io_oeb[5] *107:39 0.00103256
28 *91:15 *107:35 0.0478699
29 *100:31 *107:39 0.0140761
30 *104:27 *107:39 0.0037272
31 *105:27 *107:39 0.00195106
*RES
1 *739:io_out_o[10] *107:25 26.3909 
2 *107:25 *107:33 33.91 
3 *107:33 *107:35 1151.71 
4 *107:35 *107:37 2 
5 *107:37 *107:39 1734.49 
6 *107:39 io_out[10] 2.5292 
*END

*D_NET *108 0.617449
*CONN
*P io_out[11] O
*I *739:io_out_o[11] O *D ntt_wb_bridge
*CAP
1 io_out[11] 0.000813776
2 *739:io_out_o[11] 0.000222413
3 *108:19 0.0710934
4 *108:17 0.0702797
5 *108:15 0.0344151
6 *108:13 0.0346375
7 *108:13 *136:53 9.88127e-05
8 *108:15 *111:15 0.128068
9 *108:15 *120:13 0.00127871
10 *108:15 *137:21 0.0111398
11 *108:15 *142:27 0.00142526
12 *108:19 io_out[5] 0.000331002
13 *108:19 io_out[7] 6.32345e-05
14 *108:19 io_out[8] 0.000247872
15 *108:19 *140:25 0.00399036
16 io_oeb[5] *108:19 0.00230921
17 *77:21 *108:15 0.00831484
18 *77:35 *108:15 0.00124459
19 *78:13 *108:15 0
20 *87:13 *108:15 0
21 *97:23 *108:15 0.0480656
22 *99:23 *108:15 0.00212165
23 *100:31 *108:19 0.0281277
24 *102:25 *108:15 0.000592957
25 *103:17 *108:15 0.000109836
26 *103:19 *108:15 0.0130903
27 *103:35 *108:15 0.000494022
28 *107:35 *108:15 0
29 *107:39 *108:19 0.154874
*RES
1 *739:io_out_o[11] *108:13 4.26083 
2 *108:13 *108:15 1240.04 
3 *108:15 *108:17 2 
4 *108:17 *108:19 1930.84 
5 *108:19 io_out[11] 2.58747 
*END

*D_NET *109 0.5575
*CONN
*P io_out[12] O
*I *739:io_out_o[12] O *D ntt_wb_bridge
*CAP
1 io_out[12] 0.000834051
2 *739:io_out_o[12] 0.000754871
3 *109:27 0.00340554
4 *109:17 0.119763
5 *109:15 0.117192
6 *109:13 0.0184673
7 *109:11 0.0192222
8 *109:11 *136:53 0.000152121
9 *109:13 *110:13 0.129985
10 *109:13 *112:13 0.00035599
11 *109:13 *116:25 0.00120753
12 *109:13 *130:15 0.00168415
13 *109:13 *136:25 0.00226458
14 *109:13 *140:13 0.000215152
15 *109:13 *141:13 0.122007
16 *68:19 *109:13 0.000460097
17 *74:25 *109:13 0.000264133
18 *76:19 *109:13 0.0175375
19 *90:25 *109:13 0.000121226
20 *91:15 *109:13 0
21 *99:21 *109:13 0.00160709
*RES
1 *739:io_out_o[12] *109:11 10.2576 
2 *109:11 *109:13 1187.94 
3 *109:13 *109:15 2 
4 *109:15 *109:17 2132.67 
5 *109:17 *109:27 48.6975 
6 *109:27 io_out[12] 2.14573 
*END

*D_NET *110 0.505312
*CONN
*P io_out[13] O
*I *739:io_out_o[13] O *D ntt_wb_bridge
*CAP
1 io_out[13] 0.00267285
2 *739:io_out_o[13] 0.000872622
3 *110:17 0.130914
4 *110:15 0.128242
5 *110:13 0.0432929
6 *110:11 0.0441655
7 *110:11 *136:53 0.000226671
8 *110:13 *116:25 0.000923971
9 *110:13 *134:15 0.00411781
10 *110:13 *136:25 0.000381356
11 *74:25 *110:13 0.000239554
12 *76:19 *110:13 0.0158409
13 *90:25 *110:13 0.00112108
14 *91:15 *110:13 0
15 *92:23 *110:13 0.00193979
16 *99:21 *110:13 0.000376901
17 *107:35 *110:13 0
18 *109:13 *110:13 0.129985
*RES
1 *739:io_out_o[13] *110:11 10.2002 
2 *110:11 *110:13 1187.94 
3 *110:13 *110:15 2 
4 *110:15 *110:17 2334.12 
5 *110:17 io_out[13] 38.1982 
*END

*D_NET *111 0.598478
*CONN
*P io_out[14] O
*I *739:io_out_o[14] O *D ntt_wb_bridge
*CAP
1 io_out[14] 0.000994434
2 *739:io_out_o[14] 0.000250177
3 *111:23 0.00398395
4 *111:21 0.00298952
5 *111:19 0.138761
6 *111:17 0.138761
7 *111:15 0.0165111
8 *111:13 0.0167613
9 *111:13 *136:53 0.000105759
10 *111:15 *113:15 0.118456
11 *111:15 *120:13 0.00119989
12 *111:15 *137:21 0.00662398
13 *111:15 *142:27 0.00452975
14 *111:19 la_data_out[124] 0
15 *100:27 *111:15 0.000417255
16 *102:19 *111:15 0.000230057
17 *103:17 *111:15 0.000116817
18 *103:19 *111:15 0.0185639
19 *103:35 *111:15 0.00115372
20 *108:15 *111:15 0.128068
*RES
1 *739:io_out_o[14] *111:13 4.52597 
2 *111:13 *111:15 1160.69 
3 *111:15 *111:17 2 
4 *111:17 *111:19 2526.14 
5 *111:19 *111:21 2 
6 *111:21 *111:23 51.51 
7 *111:23 io_out[14] 7.42823 
*END

*D_NET *112 0.562611
*CONN
*P io_out[15] O
*I *739:io_out_o[15] O *D ntt_wb_bridge
*CAP
1 io_out[15] 0.00214307
2 *739:io_out_o[15] 0.000653333
3 *112:17 0.137988
4 *112:15 0.135845
5 *112:13 0.0181727
6 *112:11 0.018826
7 *112:11 *136:53 3.86753e-05
8 *112:13 *115:23 0.0265393
9 *112:13 *126:15 0.00588328
10 *112:13 *136:25 0.00227082
11 *112:13 *140:13 0.00301602
12 *112:13 *141:13 0.0617483
13 *112:13 *143:15 0.000338706
14 *112:17 la_data_out[119] 0.0300245
15 *68:19 *112:13 0.00825594
16 *73:24 *112:17 0
17 *74:27 *112:13 6.65725e-05
18 *75:13 *112:13 0.0793496
19 *75:21 io_out[15] 0
20 *76:19 *112:13 0.0125069
21 *78:145 *112:17 0
22 *97:15 *112:13 0.0157088
23 *107:33 *112:13 0.00287856
24 *109:13 *112:13 0.00035599
*RES
1 *739:io_out_o[15] *112:11 10.7414 
2 *112:11 *112:13 1087.2 
3 *112:13 *112:15 2 
4 *112:15 *112:17 2593.97 
5 *112:17 io_out[15] 40.555 
*END

*D_NET *113 0.89546
*CONN
*P io_out[16] O
*I *739:io_out_o[16] O *D ntt_wb_bridge
*CAP
1 io_out[16] 0.000694755
2 *739:io_out_o[16] 0.000299118
3 *113:23 0.00842287
4 *113:21 0.00772812
5 *113:19 0.0427909
6 *113:17 0.0427909
7 *113:15 0.0156276
8 *113:13 0.0159267
9 *113:13 *136:53 8.9263e-05
10 *113:15 *120:13 0.00589014
11 *113:15 *137:21 0.00561266
12 *113:15 *142:27 0.0885754
13 *113:19 *669:11 0.0295267
14 *113:19 *669:17 0.00111931
15 *113:19 *686:21 0.00170116
16 *113:19 *721:11 0.201034
17 *73:24 *113:19 0
18 *74:35 *113:23 0.0080228
19 *75:17 *113:19 0.231616
20 *75:21 *113:23 0.0288115
21 *76:23 *113:19 1.07797e-05
22 *76:27 *113:23 0.00423572
23 *88:15 *113:15 0.0143277
24 *102:19 *113:15 0.000249554
25 *102:27 *113:19 0.00402102
26 *103:17 *113:15 0.000127447
27 *103:19 *113:15 0.0168297
28 *103:35 *113:15 0.000921872
29 *111:15 *113:15 0.118456
*RES
1 *739:io_out_o[16] *113:13 4.7683 
2 *113:13 *113:15 1073.4 
3 *113:15 *113:17 2 
4 *113:17 *113:19 2590.91 
5 *113:19 *113:21 2 
6 *113:21 *113:23 260.925 
7 *113:23 io_out[16] 14.165 
*END

*D_NET *114 0.830587
*CONN
*P io_out[17] O
*I *739:io_out_o[17] O *D ntt_wb_bridge
*CAP
1 io_out[17] 0.000596707
2 *739:io_out_o[17] 0.000645599
3 *114:49 0.0203652
4 *114:47 0.0197685
5 *114:45 0.092324
6 *114:43 0.0924086
7 *114:37 0.00805444
8 *114:35 0.00877616
9 *114:25 0.028049
10 *114:23 0.0274087
11 *114:13 0.0273714
12 *114:11 0.027851
13 *114:11 *136:53 0.000190461
14 *114:13 *115:31 0.023208
15 *114:13 *118:15 0.0026793
16 *114:13 *123:15 0.00777171
17 *114:13 *128:29 0.0261999
18 *114:13 *142:27 0
19 *114:23 la_data_out[117] 0
20 *114:23 *142:27 0.000130473
21 *114:25 *646:41 0.00616984
22 *114:25 *652:11 0.0195881
23 *114:25 *672:6 0.0135567
24 *114:25 *700:11 0.00375885
25 *114:25 *730:17 0
26 *114:35 *646:41 0.000786284
27 *114:35 *672:6 0.000119374
28 *114:37 *646:23 0
29 *114:37 *654:11 0.00185588
30 *114:37 *658:19 5.38986e-06
31 *114:37 *682:23 0.00596307
32 *114:37 *685:49 0.00509323
33 *114:37 *714:19 0
34 *114:37 *714:27 0
35 *114:37 *715:11 3.20938e-05
36 *114:37 *724:23 0.00142219
37 *114:45 *740:mem_addr[3] 0.00568241
38 *114:45 *654:11 0.051265
39 *114:45 *658:35 0.0290433
40 *114:45 *667:15 0.013573
41 *114:45 *673:15 0.013573
42 *114:45 *679:15 0.0188568
43 *114:45 *685:47 0.00102648
44 *114:45 *714:27 0.0254825
45 *76:27 *114:49 0.0560048
46 *77:143 *114:35 0.00054118
47 *77:145 *114:45 0.0202631
48 *89:13 *114:13 0.0101421
49 *91:15 *114:13 0.000475259
50 *100:27 *114:23 0.000560439
51 *103:35 *114:23 0.000555942
52 *107:35 *114:13 0.111392
*RES
1 *739:io_out_o[17] *114:11 7.31157 
2 *114:11 *114:13 1040.62 
3 *114:13 *114:23 5.0771 
4 *114:23 *114:25 108.911 
5 *114:25 *114:35 3.53967 
6 *114:35 *114:37 212.265 
7 *114:37 *114:43 1.18367 
8 *114:43 *114:45 291.772 
9 *114:45 *114:47 0.5 
10 *114:47 *114:49 82.9223 
11 *114:49 io_out[17] 11.2625 
*END

*D_NET *115 0.714064
*CONN
*P io_out[18] O
*I *739:io_out_o[18] O *D ntt_wb_bridge
*CAP
1 io_out[18] 0.00618086
2 *739:io_out_o[18] 0.0028842
3 *115:249 0.00863891
4 *115:237 0.00450366
5 *115:233 0.00285575
6 *115:223 0.0403885
7 *115:221 0.0395784
8 *115:219 0.0347617
9 *115:217 0.0351809
10 *115:211 0.00594543
11 *115:209 0.00583698
12 *115:203 0.00529808
13 *115:201 0.00652819
14 *115:197 0.00312637
15 *115:189 0.00347453
16 *115:181 0.00434557
17 *115:177 0.00306562
18 *115:171 0.00593793
19 *115:169 0.00532879
20 *115:167 0.00303384
21 *115:165 0.0052388
22 *115:161 0.00328577
23 *115:157 0.00361533
24 *115:149 0.00416386
25 *115:137 0.0039098
26 *115:129 0.00464759
27 *115:125 0.00409498
28 *115:121 0.00370289
29 *115:117 0.0032851
30 *115:113 0.002665
31 *115:107 0.00340599
32 *115:105 0.00431317
33 *115:93 0.00443421
34 *115:87 0.00492705
35 *115:83 0.00494129
36 *115:81 0.00343711
37 *115:71 0.00514159
38 *115:69 0.00564842
39 *115:59 0.00396086
40 *115:49 0.0035964
41 *115:41 0.00393594
42 *115:35 0.00440621
43 *115:33 0.00186342
44 *115:31 0.00485103
45 *115:29 0.00516008
46 *115:23 0.0042525
47 *115:21 0.00682765
48 *115:21 *124:15 0.00188834
49 *115:21 *125:15 0.00196742
50 *115:21 *127:15 0.00224773
51 *115:21 *132:19 0.00573183
52 *115:21 *133:25 5.56205e-06
53 *115:21 *136:53 0.00024816
54 *115:21 *140:13 0.0107221
55 *115:21 *143:15 0.0022647
56 *115:23 *140:13 0.00623847
57 *115:23 *143:15 0.0158614
58 *115:31 *142:27 0.00117591
59 *115:35 *356:31 0
60 *115:35 *359:41 0.0045351
61 *115:35 *729:9 0.000101735
62 *115:35 *731:9 0.000101735
63 *115:41 *732:7 0.000204043
64 *115:49 *143:23 0
65 *115:49 *362:27 0.00208984
66 *115:59 *285:17 0.0013888
67 *115:69 *530:19 0
68 *115:81 *653:7 0.000497763
69 *115:93 la_data_out[95] 0
70 *115:105 la_data_out[96] 0
71 *115:107 la_data_out[97] 0.00280465
72 *115:113 *705:9 0.000374457
73 *115:129 *715:7 0.000476113
74 *115:149 *279:19 0
75 *115:149 *671:21 0.000387171
76 *115:167 *663:27 0
77 *115:171 la_data_out[114] 0
78 *115:189 *296:19 0.00215855
79 *115:203 *665:11 0.0323707
80 *115:211 *141:17 0.00727987
81 *115:211 *648:11 0.0305734
82 *115:211 *659:15 0.00684198
83 *115:211 *671:17 0.000288455
84 *115:219 *685:25 0
85 *115:219 *690:11 0.00675476
86 *115:219 *708:27 0.0116028
87 *115:219 *715:19 0.00550361
88 *115:219 *738:19 0.0134711
89 *115:233 *646:11 0.000185889
90 *115:233 *685:21 0
91 *115:233 *714:31 0.000531642
92 *73:24 *115:203 0.0323707
93 *74:25 *115:29 5.8023e-05
94 *75:11 *115:29 0
95 *77:71 *115:83 0.00231673
96 *77:89 *115:117 0
97 *77:119 *115:165 0.00142964
98 *77:167 *115:223 0.00122388
99 *78:115 *115:157 0.00137959
100 *78:115 *115:165 0
101 *78:153 *115:211 0.0101213
102 *78:161 *115:219 0.0747729
103 *79:24 *115:35 0.000739592
104 *89:13 *115:31 0.00533001
105 *90:27 *115:31 0.00472905
106 *92:21 *115:31 0.000521639
107 *102:27 *115:203 0.00731044
108 *105:23 *115:197 0.00253121
109 *107:25 *115:21 0
110 *112:13 *115:23 0.0265393
111 *114:13 *115:31 0.023208
*RES
1 *739:io_out_o[18] *115:21 29.4554 
2 *115:21 *115:23 240.225 
3 *115:23 *115:29 8.44 
4 *115:29 *115:31 210.21 
5 *115:31 *115:33 2 
6 *115:33 *115:35 51.36 
7 *115:35 *115:41 43.435 
8 *115:41 *115:49 37.42 
9 *115:49 *115:59 48.535 
10 *115:59 *115:69 37.005 
11 *115:69 *115:71 67.38 
12 *115:71 *115:81 27.39 
13 *115:81 *115:83 48.81 
14 *115:83 *115:87 48.68 
15 *115:87 *115:93 43.12 
16 *115:93 *115:105 44.94 
17 *115:105 *115:107 54.42 
18 *115:107 *115:113 27.565 
19 *115:113 *115:117 25.31 
20 *115:117 *115:121 35.57 
21 *115:121 *115:125 33.215 
22 *115:125 *115:129 43.505 
23 *115:129 *115:137 44.26 
24 *115:137 *115:149 34.77 
25 *115:149 *115:157 47.755 
26 *115:157 *115:161 20.39 
27 *115:161 *115:165 47.75 
28 *115:165 *115:167 51.855 
29 *115:167 *115:169 2 
30 *115:169 *115:171 95.73 
31 *115:171 *115:177 14.455 
32 *115:177 *115:181 46.22 
33 *115:181 *115:189 46.015 
34 *115:189 *115:197 39.985 
35 *115:197 *115:201 25.22 
36 *115:201 *115:203 362.205 
37 *115:203 *115:209 8.245 
38 *115:209 *115:211 341.55 
39 *115:211 *115:217 9.97 
40 *115:217 *115:219 1101.7 
41 *115:219 *115:221 2 
42 *115:221 *115:223 701.145 
43 *115:223 *115:233 22.305 
44 *115:233 *115:237 38.825 
45 *115:237 *115:249 48.735 
46 *115:249 io_out[18] 108.045 
*END

*D_NET *116 0.64211
*CONN
*P io_out[19] O
*I *739:io_out_o[19] O *D ntt_wb_bridge
*CAP
1 io_out[19] 0.000692609
2 *739:io_out_o[19] 0.00271415
3 *116:181 0.00332479
4 *116:177 0.00320469
5 *116:173 0.00328479
6 *116:169 0.00342496
7 *116:165 0.00262674
8 *116:157 0.00372563
9 *116:153 0.0041258
10 *116:145 0.00445604
11 *116:133 0.00471382
12 *116:127 0.00675186
13 *116:125 0.00417984
14 *116:123 0.034146
15 *116:121 0.034146
16 *116:119 0.0383391
17 *116:117 0.0385411
18 *116:111 0.0168004
19 *116:109 0.019215
20 *116:95 0.00699317
21 *116:93 0.00437652
22 *116:91 0.0030124
23 *116:89 0.0030124
24 *116:87 0.00376923
25 *116:85 0.00526085
26 *116:79 0.00505597
27 *116:77 0.00555072
28 *116:73 0.00344373
29 *116:69 0.00372926
30 *116:63 0.00635593
31 *116:61 0.00408403
32 *116:59 0.00301605
33 *116:57 0.00301605
34 *116:55 0.00215068
35 *116:53 0.00274573
36 *116:47 0.00859024
37 *116:45 0.00799519
38 *116:43 0.00303105
39 *116:41 0.00303105
40 *116:39 0.0056864
41 *116:37 0.00628903
42 *116:33 0.00271112
43 *116:27 0.0236361
44 *116:25 0.0242417
45 *116:25 *128:27 6.07809e-06
46 *116:25 *130:15 0.00847744
47 *116:25 *134:15 0.00786984
48 *116:25 *136:53 0.000302002
49 *116:25 *141:13 0.00152269
50 *116:27 *118:15 0
51 *116:27 *124:15 0
52 *116:27 *124:23 0.00281387
53 *116:27 *125:15 0
54 *116:27 *126:15 0
55 *116:27 *128:27 0.000493022
56 *116:27 *134:15 0.00255403
57 *116:27 *141:13 0.00106131
58 *116:33 la_data_out[5] 0
59 *116:43 *544:9 0.00135328
60 *116:53 *603:9 0.000405289
61 *116:55 *578:13 0.00262424
62 *116:59 *582:9 0.00142656
63 *116:63 *596:5 0
64 *116:77 *619:7 0.00161552
65 *116:79 wbs_dat_o[22] 0
66 *116:85 *612:7 0.000707389
67 *116:87 wbs_dat_o[20] 0
68 *116:109 *662:29 0.00267604
69 *116:109 *677:15 0.00267155
70 *116:109 *702:18 0.000699837
71 *116:111 *118:27 0.0980905
72 *116:111 *677:11 0.0118852
73 *116:111 *683:13 0.00308537
74 *116:111 *691:11 0.00957429
75 *116:111 *702:22 0.0915654
76 *116:119 *118:27 0
77 *116:119 *704:35 0
78 *78:241 *116:181 0.00219705
79 *92:23 *116:27 0.00510299
80 *109:13 *116:25 0.00120753
81 *110:13 *116:25 0.000923971
*RES
1 *739:io_out_o[19] *116:25 26.9932 
2 *116:25 *116:27 370.29 
3 *116:27 *116:33 40.315 
4 *116:33 *116:37 12.455 
5 *116:37 *116:39 101.085 
6 *116:39 *116:41 2 
7 *116:41 *116:43 51.855 
8 *116:43 *116:45 2 
9 *116:45 *116:47 137.295 
10 *116:47 *116:53 14.11 
11 *116:53 *116:55 49.065 
12 *116:55 *116:57 2 
13 *116:57 *116:59 52.2 
14 *116:59 *116:61 2 
15 *116:61 *116:63 72.525 
16 *116:63 *116:69 42.745 
17 *116:69 *116:73 28.115 
18 *116:73 *116:77 35.915 
19 *116:77 *116:79 62.325 
20 *116:79 *116:85 29.98 
21 *116:85 *116:87 67.17 
22 *116:87 *116:89 2 
23 *116:89 *116:91 51.855 
24 *116:91 *116:93 2 
25 *116:93 *116:95 78.2625 
26 *116:95 *116:109 11.7711 
27 *116:109 *116:111 1096.99 
28 *116:111 *116:117 7.21 
29 *116:117 *116:119 698.04 
30 *116:119 *116:121 2 
31 *116:121 *116:123 605.58 
32 *116:123 *116:125 2 
33 *116:125 *116:127 75.84 
34 *116:127 *116:133 48.265 
35 *116:133 *116:145 43.815 
36 *116:145 *116:153 44.32 
37 *116:153 *116:157 33.155 
38 *116:157 *116:165 37.75 
39 *116:165 *116:169 14.855 
40 *116:169 *116:173 48.68 
41 *116:173 *116:177 12.305 
42 *116:177 *116:181 47.3 
43 *116:181 io_out[19] 12.42 
*END

*D_NET *117 0.302947
*CONN
*P io_out[1] O
*I *739:io_out_o[1] O *D ntt_wb_bridge
*CAP
1 io_out[1] 0.0424895
2 *739:io_out_o[1] 0.00074025
3 *117:19 0.0499021
4 *117:13 0.0199451
5 *117:11 0.0132728
6 io_out[1] *707:9 0
7 io_out[1] *718:9 0
8 *117:11 *119:51 0.000283373
9 *117:11 *136:65 0.000127267
10 *117:19 *359:41 0.00298361
11 *76:19 *117:13 0.00325376
12 *77:71 io_out[1] 0
13 *79:24 *117:19 0.0175029
14 *82:13 *117:11 0.000116651
15 *87:13 *117:11 0.000116651
16 *92:23 *117:13 0.0690357
17 *106:13 *117:13 0.0794622
18 *106:19 *117:19 0.00371484
*RES
1 *739:io_out_o[1] *117:11 2.7898 
2 *117:11 *117:13 117.737 
3 *117:13 *117:19 33.338 
4 *117:19 io_out[1] 108.628 
*END

*D_NET *118 0.71292
*CONN
*P io_out[20] O
*I *739:io_out_o[20] O *D ntt_wb_bridge
*CAP
1 io_out[20] 0.000680981
2 *739:io_out_o[20] 0.00041427
3 *118:31 0.0258286
4 *118:29 0.0251476
5 *118:27 0.116784
6 *118:25 0.116784
7 *118:23 0.012517
8 *118:21 0.0126322
9 *118:15 0.00193877
10 *118:13 0.00223782
11 *118:13 *136:53 8.66639e-05
12 *118:15 *123:15 0.00547015
13 *118:15 *128:29 0.00238287
14 *118:15 *133:27 0.000135283
15 *118:23 *121:13 0.00174235
16 *118:23 *133:27 0.00482476
17 *118:27 *548:9 0.0135006
18 *118:27 *656:27 0.000775337
19 *118:27 *656:35 0.00111315
20 *118:27 *677:11 0.014181
21 *118:27 *683:13 0.00336265
22 *118:27 *688:21 0
23 *118:27 *691:11 0.0291542
24 *118:27 *702:22 7.77713e-05
25 *118:27 *706:27 0
26 *118:27 *717:19 0
27 *118:27 *726:27 0
28 *118:27 *729:27 0
29 *80:33 *118:31 0.0602128
30 *88:15 *118:23 0.00173223
31 *88:23 *118:23 0.0686576
32 *89:13 *118:23 0.00159702
33 *91:15 *118:15 0.0112234
34 *91:23 *118:23 0.0769549
35 *114:13 *118:15 0.0026793
36 *116:27 *118:15 0
37 *116:111 *118:27 0.0980905
38 *116:119 *118:27 0
*RES
1 *739:io_out_o[20] *118:13 6.7931 
2 *118:13 *118:15 107.055 
3 *118:15 *118:21 4.0075 
4 *118:21 *118:23 114.532 
5 *118:23 *118:25 0.5 
6 *118:25 *118:27 2591.42 
7 *118:27 *118:29 0.5 
8 *118:29 *118:31 99.4409 
9 *118:31 io_out[20] 12.7925 
*END

*D_NET *119 0.776561
*CONN
*P io_out[21] O
*I *739:io_out_o[21] O *D ntt_wb_bridge
*CAP
1 io_out[21] 0.000624798
2 *739:io_out_o[21] 0.000168256
3 *119:61 0.00774737
4 *119:59 0.00712257
5 *119:57 0.0630509
6 *119:55 0.0630509
7 *119:53 0.0116521
8 *119:51 0.0134272
9 *119:31 0.0034816
10 *119:13 0.00431297
11 *119:11 0.00277476
12 *119:11 *136:53 0.000131245
13 *119:13 *136:53 0.00107262
14 *119:13 *139:21 0.00663131
15 *119:31 *139:19 0.000202971
16 *119:31 *140:11 6.75956e-05
17 *119:51 *128:27 0.000106722
18 *119:51 *136:53 1.93765e-05
19 *119:51 *136:65 0.000605033
20 *119:51 *136:67 0.000262995
21 *119:53 *136:67 0.000920847
22 *119:57 wbs_dat_o[14] 0
23 *119:57 *540:13 0.208559
24 *119:57 *710:35 0.157376
25 *80:25 *119:51 0.00330767
26 *80:33 *119:61 0.0386608
27 *81:19 *119:57 0
28 *81:25 *119:61 0.0316792
29 *82:13 *119:51 0.000516678
30 *82:13 *119:53 0.000477801
31 *82:23 *119:57 8.16955e-05
32 *86:13 *119:13 0.0139658
33 *86:13 *119:31 0.00402371
34 *87:13 *119:51 0.00044205
35 *87:21 *119:53 0.063241
36 *91:23 *119:31 0.000391438
37 *97:45 *119:31 0.000785831
38 *97:45 *119:51 0.000696911
39 *97:57 *119:51 0.000948396
40 *97:59 *119:53 0.0634503
41 *106:11 *119:51 0.000238928
42 *117:11 *119:51 0.000283373
*RES
1 *739:io_out_o[21] *119:11 3.17077 
2 *119:11 *119:13 128.445 
3 *119:13 *119:31 49.5353 
4 *119:31 *119:51 11.9094 
5 *119:51 *119:53 97.3433 
6 *119:53 *119:55 0.5 
7 *119:55 *119:57 2588.86 
8 *119:57 *119:59 0.5 
9 *119:59 *119:61 57.2559 
10 *119:61 io_out[21] 11.7725 
*END

*D_NET *120 0.627422
*CONN
*P io_out[22] O
*I *739:io_out_o[22] O *D ntt_wb_bridge
*CAP
1 io_out[22] 0.00389712
2 *739:io_out_o[22] 0.00030688
3 *120:29 0.0926655
4 *120:27 0.0892456
5 *120:21 0.0123527
6 *120:19 0.0119553
7 *120:13 0.00718361
8 *120:11 0.00741076
9 *120:11 *136:53 9.38734e-05
10 *120:13 *121:13 0.00231164
11 *120:13 *133:27 0.00168443
12 *120:13 *136:65 0
13 *120:13 *139:19 0
14 *120:13 *142:17 0.000318653
15 *120:13 *142:19 0.00219205
16 *120:19 *326:19 0.000204197
17 *120:19 *338:51 0.000202847
18 *120:29 wbs_dat_o[13] 0.0234535
19 *120:29 *123:25 0.000165619
20 *120:29 *718:19 0
21 *120:29 *729:27 0
22 *120:29 *736:26 0
23 io_oeb[22] io_out[22] 0.00533265
24 *80:13 *120:13 0
25 *80:29 *120:29 0.224309
26 *80:33 io_out[22] 0.000506572
27 *81:25 io_out[22] 0.0110312
28 *87:13 *120:13 0
29 *88:15 *120:13 0.0217967
30 *89:21 *120:21 0.0616769
31 *89:21 *120:27 0.00098283
32 *92:23 *120:21 0.0354325
33 *92:23 *120:27 0.00177792
34 *97:23 *120:13 0.000561903
35 *97:45 *120:13 0
36 *108:15 *120:13 0.00127871
37 *111:15 *120:13 0.00119989
38 *113:15 *120:13 0.00589014
*RES
1 *739:io_out_o[22] *120:11 5.52317 
2 *120:11 *120:13 248.85 
3 *120:13 *120:19 5.0275 
4 *120:19 *120:21 91.7789 
5 *120:21 *120:27 3.31327 
6 *120:27 *120:29 2596 
7 *120:29 io_out[22] 29.3532 
*END

*D_NET *121 0.502901
*CONN
*P io_out[23] O
*I *739:io_out_o[23] O *D ntt_wb_bridge
*CAP
1 io_out[23] 0.00308123
2 *739:io_out_o[23] 0.000301786
3 *121:25 0.143175
4 *121:23 0.141978
5 *121:13 0.0266231
6 *121:11 0.0250398
7 *121:11 *136:53 4.17413e-05
8 *121:13 *122:13 0.0905486
9 *121:13 *133:27 0.0134851
10 *121:13 *142:19 0.0027407
11 *121:23 *123:25 0.00432884
12 *121:23 *133:27 0.00164058
13 *121:25 *573:9 0.0108005
14 io_oeb[23] io_out[23] 0.0070589
15 *84:29 *121:23 4.04634e-05
16 *88:15 *121:13 0.000364606
17 *88:23 *121:23 0.00496361
18 *89:13 *121:13 0.0224079
19 *91:23 *121:23 0.000226857
20 *118:23 *121:13 0.00174235
21 *120:13 *121:13 0.00231164
*RES
1 *739:io_out_o[23] *121:11 6.15897 
2 *121:11 *121:13 823.965 
3 *121:13 *121:23 15.2954 
4 *121:23 *121:25 2591.93 
5 *121:25 io_out[23] 23.192 
*END

*D_NET *122 0.574496
*CONN
*P io_out[24] O
*I *739:io_out_o[24] O *D ntt_wb_bridge
*CAP
1 io_out[24] 0.00809981
2 *739:io_out_o[24] 0.000540933
3 *122:25 0.162569
4 *122:23 0.157571
5 *122:13 0.0149403
6 *122:11 0.01238
7 *122:11 *136:53 0.000287037
8 *122:13 *123:15 0.0907514
9 *122:13 *133:27 0.0201919
10 *122:23 *124:23 0.00330117
11 *122:23 *133:27 0.00401395
12 *122:25 *571:5 0.00451284
13 *80:13 *122:11 0.000106223
14 *89:13 *122:13 0.000296856
15 *89:21 *122:23 0.00412433
16 *92:23 *122:23 0.000260051
17 *121:13 *122:13 0.0905486
*RES
1 *739:io_out_o[24] *122:11 7.02197 
2 *122:11 *122:13 825.69 
3 *122:13 *122:23 21.1806 
4 *122:23 *122:25 419.593 
5 *122:25 io_out[24] 21.7281 
*END

*D_NET *123 0.637377
*CONN
*P io_out[25] O
*I *739:io_out_o[25] O *D ntt_wb_bridge
*CAP
1 io_out[25] 0.000718036
2 *739:io_out_o[25] 0.000342008
3 *123:35 0.102161
4 *123:33 0.101831
5 *123:27 0.00671962
6 *123:25 0.0129503
7 *123:15 0.0340659
8 *123:13 0.0277896
9 *123:13 *136:53 8.84005e-05
10 *123:15 *133:27 0.0328523
11 *123:25 wbs_dat_o[13] 0.000164394
12 *123:25 *133:27 0.00481295
13 *123:25 *136:67 0.0136173
14 *123:27 *124:33 0.00367737
15 *123:27 *542:11 0
16 *123:35 *124:35 0.181395
17 io_oeb[36] *123:27 0.00418878
18 io_oeb[36] *123:33 0
19 *80:25 *123:25 9.23627e-05
20 *89:13 *123:15 0.000596043
21 *91:23 *123:25 0.000826344
22 *114:13 *123:15 0.00777171
23 *118:15 *123:15 0.00547015
24 *120:29 *123:25 0.000165619
25 *121:23 *123:25 0.00432884
26 *122:13 *123:15 0.0907514
*RES
1 *739:io_out_o[25] *123:13 6.28563 
2 *123:13 *123:15 835.695 
3 *123:15 *123:25 40.9478 
4 *123:25 *123:27 130.155 
5 *123:27 *123:33 1.8246 
6 *123:33 *123:35 364.124 
7 *123:35 io_out[25] 2.15047 
*END

*D_NET *124 0.599493
*CONN
*P io_out[26] O
*I *739:io_out_o[26] O *D ntt_wb_bridge
*CAP
1 io_out[26] 0.000748113
2 *739:io_out_o[26] 0.000772441
3 *124:35 0.0546352
4 *124:33 0.0558966
5 *124:23 0.0218926
6 *124:21 0.0199973
7 *124:15 0.00909423
8 *124:13 0.00975234
9 *124:13 *136:53 0.000112713
10 *124:15 *125:15 0.0327428
11 *124:15 *129:15 0.0207777
12 *124:15 *129:23 0.00212945
13 *124:15 *132:19 0.00377685
14 *124:21 la_data_out[14] 0.000213184
15 *124:23 *125:23 0.00431958
16 *124:23 *130:15 0.0360016
17 *124:23 *133:27 0
18 *124:33 *541:9 8.29304e-05
19 *124:33 *542:11 0
20 *124:35 *125:27 0
21 *124:35 *126:35 0.0591872
22 *124:35 *132:31 0.00239671
23 *124:35 *133:31 0.0260513
24 io_oeb[36] *124:33 0.00127535
25 *81:15 *124:15 0.0140904
26 *92:23 *124:23 0.0288277
27 *107:25 *124:15 0.00164229
28 *115:21 *124:15 0.00188834
29 *116:27 *124:15 0
30 *116:27 *124:23 0.00281387
31 *122:23 *124:23 0.00330117
32 *123:27 *124:33 0.00367737
33 *123:35 *124:35 0.181395
*RES
1 *739:io_out_o[26] *124:13 11.9311 
2 *124:13 *124:15 409.62 
3 *124:15 *124:21 5.0275 
4 *124:21 *124:23 109.463 
5 *124:23 *124:33 48.6648 
6 *124:33 *124:35 346.036 
7 *124:35 io_out[26] 2.267 
*END

*D_NET *125 0.51963
*CONN
*P io_out[27] O
*I *739:io_out_o[27] O *D ntt_wb_bridge
*CAP
1 io_out[27] 0.0011922
2 *739:io_out_o[27] 0.000704518
3 *125:27 0.119343
4 *125:25 0.11815
5 *125:23 0.0172576
6 *125:21 0.0172784
7 *125:15 0.00603792
8 *125:13 0.00672168
9 *125:13 *137:21 2.9422e-05
10 *125:15 *126:15 0.000700296
11 *125:15 *127:15 0.0242183
12 *125:15 *129:15 0.000667847
13 *125:15 *129:23 0.000566787
14 *125:15 *132:19 0.00248767
15 *125:21 *343:37 6.02846e-05
16 *125:21 *348:47 6.16289e-05
17 *125:23 *127:23 0.0696416
18 *125:23 *130:15 0.0755377
19 *125:23 *131:15 0.00195764
20 *125:27 *126:35 0
21 *125:27 *132:31 0
22 *125:27 *133:31 0
23 *125:27 *542:11 0.0156008
24 *125:27 *575:13 0.000593423
25 io_oeb[36] *125:27 0
26 *107:25 *125:15 0.00179173
27 *115:21 *125:15 0.00196742
28 *116:27 *125:15 0
29 *124:15 *125:15 0.0327428
30 *124:23 *125:23 0.00431958
31 *124:35 *125:27 0
*RES
1 *739:io_out_o[27] *125:13 11.1306 
2 *125:13 *125:15 306.465 
3 *125:15 *125:21 3.2425 
4 *125:21 *125:23 128.137 
5 *125:23 *125:25 0.5 
6 *125:25 *125:27 321.143 
7 *125:27 io_out[27] 3.3158 
*END

*D_NET *126 0.449269
*CONN
*P io_out[28] O
*I *739:io_out_o[28] O *D ntt_wb_bridge
*CAP
1 io_out[28] 0.000849193
2 *739:io_out_o[28] 0.000946202
3 *126:35 0.0463806
4 *126:33 0.0455314
5 *126:31 0.0460245
6 *126:29 0.0460245
7 *126:27 0.056508
8 *126:25 0.0586792
9 *126:15 0.00740786
10 *126:13 0.00618287
11 *126:13 *137:21 0.000498335
12 *126:15 *127:15 0.00358799
13 *126:15 *130:15 0.00108784
14 *126:15 *140:13 0.00470673
15 *126:15 *141:13 0.0027604
16 *126:15 *143:15 0.0187715
17 *126:25 *130:15 0.00479811
18 *126:25 *134:15 0.00736957
19 *126:27 *135:20 0
20 *126:27 *345:39 0.00104574
21 *126:27 *346:31 0.00052287
22 *126:27 *347:39 0.00052287
23 *126:27 *348:47 0.00052287
24 *126:31 *333:33 0
25 *126:31 *377:33 0.00727034
26 *126:35 *132:31 0.0119068
27 *80:13 *126:13 0.000100912
28 *92:23 *126:25 0.000611025
29 *107:33 *126:15 0.00288023
30 *112:13 *126:15 0.00588328
31 *116:27 *126:15 0
32 *124:35 *126:35 0.0591872
33 *125:15 *126:15 0.000700296
34 *125:27 *126:35 0
*RES
1 *739:io_out_o[28] *126:13 11.0826 
2 *126:13 *126:15 238.5 
3 *126:15 *126:25 17.335 
4 *126:25 *126:27 100.986 
5 *126:27 *126:29 0.5 
6 *126:29 *126:31 128.458 
7 *126:31 *126:33 0.5 
8 *126:33 *126:35 186.861 
9 *126:35 io_out[28] 2.50007 
*END

*D_NET *127 0.470781
*CONN
*P io_out[29] O
*I *739:io_out_o[29] O *D ntt_wb_bridge
*CAP
1 io_out[29] 0.0111421
2 *739:io_out_o[29] 0.000927441
3 *127:27 0.108323
4 *127:25 0.0971812
5 *127:23 0.0139708
6 *127:21 0.0139841
7 *127:15 0.00332362
8 *127:13 0.00423777
9 *127:13 *137:21 0.000382336
10 *127:15 *129:15 0.000700687
11 *127:15 *129:23 0.000517224
12 *127:15 *130:15 0.000112472
13 *127:15 *140:13 0.00282267
14 *127:15 *143:15 0.0199109
15 *127:21 *137:19 1.88656e-05
16 *127:23 *129:23 0.0730629
17 *127:23 *130:15 0.00559694
18 *127:23 *131:15 0.00233618
19 *127:27 wbs_dat_o[8] 0.0125337
20 *115:21 *127:15 0.00224773
21 *125:15 *127:15 0.0242183
22 *125:23 *127:23 0.0696416
23 *126:15 *127:15 0.00358799
*RES
1 *739:io_out_o[29] *127:13 11.395 
2 *127:13 *127:15 233.67 
3 *127:15 *127:21 2.7325 
4 *127:21 *127:23 118.523 
5 *127:23 *127:25 0.5 
6 *127:25 *127:27 255.165 
7 *127:27 io_out[29] 27.7878 
*END

*D_NET *128 0.402451
*CONN
*P io_out[2] O
*I *739:io_out_o[2] O *D ntt_wb_bridge
*CAP
1 io_out[2] 0.000680841
2 *739:io_out_o[2] 0.00197132
3 *128:33 0.0136842
4 *128:31 0.0130033
5 *128:29 0.0387097
6 *128:27 0.040681
7 *128:27 *130:15 0.0059723
8 *128:27 *134:15 0.00550226
9 *128:29 *133:27 0.0204987
10 *128:29 *142:19 0.0103026
11 *128:33 user_irq[0] 0.000968042
12 *128:33 *137:33 0.0128996
13 io_oeb[0] *128:33 0.00196983
14 *68:27 *128:29 0
15 *76:19 *128:29 0
16 *90:27 *128:29 0.105044
17 *90:31 *128:33 0.00297739
18 *106:13 *128:29 0.0717608
19 *107:35 *128:29 0.0266371
20 *107:39 *128:33 0
21 *114:13 *128:29 0.0261999
22 *116:25 *128:27 6.07809e-06
23 *116:27 *128:27 0.000493022
24 *118:15 *128:29 0.00238287
25 *119:51 *128:27 0.000106722
*RES
1 *739:io_out_o[2] *128:27 20.7501 
2 *128:27 *128:29 213.265 
3 *128:29 *128:31 0.5 
4 *128:31 *128:33 339.765 
5 *128:33 io_out[2] 2.1796 
*END

*D_NET *129 0.507648
*CONN
*P io_out[30] O
*I *739:io_out_o[30] O *D ntt_wb_bridge
*CAP
1 io_out[30] 0.0143318
2 *739:io_out_o[30] 0.000853279
3 *129:27 0.0599534
4 *129:25 0.0456216
5 *129:23 0.0159
6 *129:21 0.0159197
7 *129:15 0.00319593
8 *129:13 0.00402951
9 *129:13 *137:21 0.000249904
10 *129:15 *132:19 0.00593439
11 *129:15 *143:15 0.000383734
12 *129:23 *130:15 0.00105152
13 *129:23 *131:15 0.0266665
14 *129:23 *132:19 0.0244859
15 *129:27 *547:5 0.00600133
16 *129:27 *661:11 0
17 *81:15 *129:15 0.0242491
18 *81:15 *129:23 0.0106103
19 *86:33 *129:27 0.0228703
20 *87:33 *129:27 0.0103073
21 *91:27 *129:27 0.116317
22 *92:27 *129:27 0.000174021
23 *93:23 *129:27 0.000119077
24 *124:15 *129:15 0.0207777
25 *124:15 *129:23 0.00212945
26 *125:15 *129:15 0.000667847
27 *125:15 *129:23 0.000566787
28 *127:15 *129:15 0.000700687
29 *127:15 *129:23 0.000517224
30 *127:23 *129:23 0.0730629
*RES
1 *739:io_out_o[30] *129:13 11.9624 
2 *129:13 *129:15 222.975 
3 *129:15 *129:21 2.7325 
4 *129:21 *129:23 112.405 
5 *129:23 *129:25 0.5 
6 *129:25 *129:27 222.262 
7 *129:27 io_out[30] 37.4601 
*END

*D_NET *130 0.384158
*CONN
*P io_out[31] O
*I *739:io_out_o[31] O *D ntt_wb_bridge
*CAP
1 io_out[31] 0.00767563
2 *739:io_out_o[31] 0.00068066
3 *130:19 0.0785111
4 *130:17 0.0708355
5 *130:15 0.0222337
6 *130:13 0.0229144
7 *130:13 *137:21 0.000154391
8 *130:15 *132:19 0.000151392
9 *130:15 *134:15 0.00399063
10 *130:15 *136:25 0.00412698
11 *130:15 *140:13 0.0261317
12 *130:15 *141:13 0.00182688
13 *130:19 *570:5 0.000677507
14 *92:23 *130:15 0.00392725
15 *109:13 *130:15 0.00168415
16 *116:25 *130:15 0.00847744
17 *124:23 *130:15 0.0360016
18 *125:23 *130:15 0.0755377
19 *126:15 *130:15 0.00108784
20 *126:25 *130:15 0.00479811
21 *127:15 *130:15 0.000112472
22 *127:23 *130:15 0.00559694
23 *128:27 *130:15 0.0059723
24 *129:23 *130:15 0.00105152
*RES
1 *739:io_out_o[31] *130:13 8.66553 
2 *130:13 *130:15 170.148 
3 *130:15 *130:17 0.5 
4 *130:17 *130:19 188.928 
5 *130:19 io_out[31] 19.0478 
*END

*D_NET *131 0.372793
*CONN
*P io_out[32] O
*I *739:io_out_o[32] O *D ntt_wb_bridge
*CAP
1 io_out[32] 0.00627504
2 *739:io_out_o[32] 0.000823175
3 *131:19 0.064104
4 *131:17 0.057829
5 *131:15 0.0278665
6 *131:13 0.0286897
7 *131:13 *137:21 2.59367e-05
8 *131:15 *132:19 0.0515138
9 *131:19 *643:5 0.00307168
10 *81:15 *131:15 0.000379859
11 *85:21 *131:15 0.00115623
12 *93:19 *131:15 0.100098
13 *125:23 *131:15 0.00195764
14 *127:23 *131:15 0.00233618
15 *129:23 *131:15 0.0266665
*RES
1 *739:io_out_o[32] *131:13 11.0306 
2 *131:13 *131:15 174.459 
3 *131:15 *131:17 0.5 
4 *131:17 *131:19 156.37 
5 *131:19 io_out[32] 16.4841 
*END

*D_NET *132 0.434712
*CONN
*P io_out[33] O
*I *739:io_out_o[33] O *D ntt_wb_bridge
*CAP
1 io_out[33] 0.000943804
2 *739:io_out_o[33] 0.00120062
3 *132:31 0.027277
4 *132:29 0.0263332
5 *132:27 0.0193725
6 *132:25 0.0203807
7 *132:19 0.0116825
8 *132:17 0.0118749
9 *132:17 *133:25 0.000507266
10 *132:17 *137:21 0.000482608
11 *132:19 *133:25 0.00299567
12 *132:19 *140:13 0.00176306
13 *132:27 *136:67 1.93372e-05
14 *132:31 *133:31 0.0484179
15 io_oeb[36] *132:31 0.012146
16 *81:15 *132:17 0.00010983
17 *81:15 *132:19 0.0129821
18 *86:21 *132:27 0.0486055
19 *93:19 *132:17 0.000175021
20 *93:19 *132:19 4.77409e-05
21 *97:59 *132:27 0.0713653
22 *107:25 *132:19 0.00764416
23 *115:21 *132:19 0.00573183
24 *124:15 *132:19 0.00377685
25 *124:35 *132:31 0.00239671
26 *125:15 *132:19 0.00248767
27 *125:27 *132:31 0
28 *126:35 *132:31 0.0119068
29 *129:15 *132:19 0.00593439
30 *129:23 *132:19 0.0244859
31 *130:15 *132:19 0.000151392
32 *131:15 *132:19 0.0515138
*RES
1 *739:io_out_o[33] *132:17 11.5648 
2 *132:17 *132:19 78.8145 
3 *132:19 *132:25 3.01907 
4 *132:25 *132:27 109.696 
5 *132:27 *132:29 0.5 
6 *132:29 *132:31 121.228 
7 *132:31 io_out[33] 2.6166 
*END

*D_NET *133 0.448085
*CONN
*P io_out[34] O
*I *739:io_out_o[34] O *D ntt_wb_bridge
*CAP
1 io_out[34] 0.000849193
2 *739:io_out_o[34] 0.00265405
3 *133:31 0.0123994
4 *133:29 0.0115502
5 *133:27 0.0265778
6 *133:25 0.0292318
7 *133:25 *137:21 0.000331458
8 *133:25 *140:13 0.0047332
9 *133:27 *136:67 0
10 *133:27 *142:17 0.000562891
11 *133:27 *142:19 0.0187192
12 *133:31 io_out[37] 0.00325457
13 io_oeb[36] *133:31 2.26286e-05
14 *81:15 *133:25 0.000361233
15 *88:23 *133:27 0.0747496
16 *89:13 *133:27 0.000360559
17 *89:21 *133:27 0.0742257
18 *91:23 *133:27 0.000275243
19 *93:19 *133:25 0.000306104
20 *106:13 *133:27 0.00480258
21 *115:21 *133:25 5.56205e-06
22 *118:15 *133:27 0.000135283
23 *118:23 *133:27 0.00482476
24 *120:13 *133:27 0.00168443
25 *121:13 *133:27 0.0134851
26 *121:23 *133:27 0.00164058
27 *122:13 *133:27 0.0201919
28 *122:23 *133:27 0.00401395
29 *123:15 *133:27 0.0328523
30 *123:25 *133:27 0.00481295
31 *124:23 *133:27 0
32 *124:35 *133:31 0.0260513
33 *125:27 *133:31 0
34 *128:29 *133:27 0.0204987
35 *132:17 *133:25 0.000507266
36 *132:19 *133:25 0.00299567
37 *132:31 *133:31 0.0484179
*RES
1 *739:io_out_o[34] *133:25 20.4553 
2 *133:25 *133:27 182.762 
3 *133:27 *133:29 0.5 
4 *133:29 *133:31 89.186 
5 *133:31 io_out[34] 2.50007 
*END

*D_NET *134 0.322921
*CONN
*P io_out[35] O
*I *739:io_out_o[35] O *D ntt_wb_bridge
*CAP
1 io_out[35] 0.0423222
2 *739:io_out_o[35] 0.000649395
3 *134:21 0.0423222
4 *134:19 0.0388283
5 *134:17 0.0388283
6 *134:15 0.00718874
7 *134:13 0.00783814
8 io_out[35] *584:9 0.0558791
9 io_out[35] *585:17 0
10 *134:13 *137:21 0.000229951
11 *134:15 *136:25 0.00471329
12 *134:19 la_data_out[23] 0.000685493
13 *134:19 *294:21 0.00663924
14 *134:19 *309:25 0
15 *134:19 *314:29 0.000685493
16 *134:19 *326:19 0.000419775
17 *134:19 *332:25 0.000419775
18 *134:19 *340:31 0.000419775
19 *134:19 *344:19 0.000736614
20 *134:19 *351:35 0.000419775
21 *92:23 *134:15 0.0422914
22 *110:13 *134:15 0.00411781
23 *116:25 *134:15 0.00786984
24 *116:27 *134:15 0.00255403
25 *126:25 *134:15 0.00736957
26 *128:27 *134:15 0.00550226
27 *130:15 *134:15 0.00399063
*RES
1 *739:io_out_o[35] *134:13 2.51873 
2 *134:13 *134:15 62.6164 
3 *134:15 *134:17 0.5 
4 *134:17 *134:19 56.5415 
5 *134:19 *134:21 0.5 
6 *134:21 io_out[35] 132.168 
*END

*D_NET *135 0.22143
*CONN
*P io_out[36] O
*I *739:io_out_o[36] O *D ntt_wb_bridge
*CAP
1 io_out[36] 0.0424187
2 *739:io_out_o[36] 0.00120851
3 *135:20 0.0577824
4 *135:14 0.0242305
5 *135:12 0.0100753
6 io_out[36] *555:9 0.00918681
7 io_out[36] *556:9 0.0116365
8 *135:14 *339:31 0.0337588
9 *135:14 *340:35 0.000883159
10 *135:14 *343:39 0.00198896
11 *135:14 *349:39 0.000540806
12 *135:14 *350:35 0.000539914
13 *135:14 *351:39 0.00112688
14 *135:20 *343:27 0.000419775
15 *96:14 *135:14 0
16 *98:14 *135:14 0.0256331
17 *126:27 *135:20 0
*RES
1 *739:io_out_o[36] *135:12 3.8804 
2 *135:12 *135:14 65.4132 
3 *135:14 *135:20 34.4577 
4 *135:20 io_out[36] 131.236 
*END

*D_NET *136 0.27404
*CONN
*P io_out[37] O
*I *739:io_out_o[37] O *D ntt_wb_bridge
*CAP
1 io_out[37] 0.0022705
2 *739:io_out_o[37] 0.00366921
3 *136:67 0.0227588
4 *136:65 0.0211119
5 *136:53 0.0093768
6 *136:25 0.0124223
7 io_out[37] *540:9 0
8 io_out[37] *541:9 0.000174816
9 *136:25 *137:21 0.000512794
10 *136:25 *140:13 0.00340356
11 *136:25 *141:13 0.0020757
12 *136:53 *137:21 0.0177367
13 *136:53 *139:19 0.000354703
14 *136:53 *140:11 5.18735e-06
15 *136:53 *141:11 0.000106129
16 *136:53 *142:17 0.000701074
17 *136:53 *143:13 0.000107496
18 *80:13 *136:25 0.000109416
19 *80:13 *136:53 0.00365002
20 *80:23 *136:53 0.00215002
21 *80:25 *136:65 8.22734e-05
22 *80:25 *136:67 0.0675359
23 *82:13 *136:53 0.00298451
24 *86:13 *136:53 0.00114109
25 *87:13 *136:25 0.000100867
26 *87:13 *136:53 0.00350094
27 *87:13 *136:65 0.00335001
28 *87:13 *136:67 0.000569689
29 *87:21 *136:67 0.0373997
30 *91:23 *136:53 0.000713055
31 *92:23 *136:25 0.000780575
32 *97:45 *136:53 0.00774154
33 *97:45 *136:65 0.00197306
34 *97:57 *136:65 1.79483e-05
35 *97:59 *136:67 0.00717908
36 *107:25 *136:53 0.000322834
37 *108:13 *136:53 9.88127e-05
38 *109:11 *136:53 0.000152121
39 *109:13 *136:25 0.00226458
40 *110:11 *136:53 0.000226671
41 *110:13 *136:25 0.000381356
42 *111:13 *136:53 0.000105759
43 *112:11 *136:53 3.86753e-05
44 *112:13 *136:25 0.00227082
45 *113:13 *136:53 8.9263e-05
46 *114:11 *136:53 0.000190461
47 *115:21 *136:53 0.00024816
48 *116:25 *136:53 0.000302002
49 *117:11 *136:65 0.000127267
50 *118:13 *136:53 8.66639e-05
51 *119:11 *136:53 0.000131245
52 *119:13 *136:53 0.00107262
53 *119:51 *136:53 1.93765e-05
54 *119:51 *136:65 0.000605033
55 *119:51 *136:67 0.000262995
56 *119:53 *136:67 0.000920847
57 *120:11 *136:53 9.38734e-05
58 *120:13 *136:65 0
59 *121:11 *136:53 4.17413e-05
60 *122:11 *136:53 0.000287037
61 *123:13 *136:53 8.84005e-05
62 *123:25 *136:67 0.0136173
63 *124:13 *136:53 0.000112713
64 *130:15 *136:25 0.00412698
65 *132:27 *136:67 1.93372e-05
66 *133:27 *136:67 0
67 *133:31 io_out[37] 0.00325457
68 *134:15 *136:25 0.00471329
*RES
1 *739:io_out_o[37] *136:25 25.0873 
2 *136:25 *136:53 43.7978 
3 *136:53 *136:65 33.5636 
4 *136:65 *136:67 136.965 
5 *136:67 io_out[37] 8.95087 
*END

*D_NET *137 0.414633
*CONN
*P io_out[3] O
*I *739:io_out_o[3] O *D ntt_wb_bridge
*CAP
1 io_out[3] 0.000749204
2 *739:io_out_o[3] 0.00321079
3 *137:33 0.0119116
4 *137:31 0.0111624
5 *137:29 0.026894
6 *137:27 0.027064
7 *137:21 0.015837
8 *137:19 0.0188777
9 *137:21 *142:17 0.000537446
10 *137:21 *142:19 0.0112121
11 *137:29 *139:21 0.0722063
12 *137:33 *140:25 0.0012257
13 *68:17 *137:21 0.000119331
14 *68:27 *137:29 0.030259
15 *78:13 *137:29 0.014152
16 *80:13 *137:21 0.00281382
17 *82:13 *137:21 0.0014158
18 *85:11 *137:27 0
19 *86:11 *137:29 0.000107826
20 *86:13 *137:21 0.00368082
21 *87:13 *137:21 0.0015796
22 *90:25 *137:21 0.000472181
23 *90:31 *137:33 0.00792324
24 *93:19 *137:19 0.00708369
25 *95:11 *137:29 0.000114176
26 *96:14 *137:19 0.00392753
27 *97:23 *137:21 0.0102329
28 *97:45 *137:19 0.00011635
29 *99:21 *137:21 4.84515e-05
30 *99:23 *137:21 0.0159361
31 *99:23 *137:29 0.00114273
32 *100:21 *137:21 0.000104023
33 *101:13 *137:21 0.000279419
34 *102:17 *137:21 0.000283041
35 *102:19 *137:21 0.000477645
36 *103:17 *137:21 0.000925142
37 *103:19 *137:21 0.0101576
38 *104:13 *137:21 4.67149e-05
39 *104:27 *137:33 0.043235
40 *105:13 *137:21 0.000179449
41 *107:39 *137:33 2.53191e-06
42 *108:15 *137:21 0.0111398
43 *111:15 *137:21 0.00662398
44 *113:15 *137:21 0.00561266
45 *125:13 *137:21 2.9422e-05
46 *126:13 *137:21 0.000498335
47 *127:13 *137:21 0.000382336
48 *127:21 *137:19 1.88656e-05
49 *128:33 *137:33 0.0128996
50 *129:13 *137:21 0.000249904
51 *130:13 *137:21 0.000154391
52 *131:13 *137:21 2.59367e-05
53 *132:17 *137:21 0.000482608
54 *133:25 *137:21 0.000331458
55 *134:13 *137:21 0.000229951
56 *136:25 *137:21 0.000512794
57 *136:53 *137:21 0.0177367
*RES
1 *739:io_out_o[3] *137:19 26.622 
2 *137:19 *137:21 82.0483 
3 *137:21 *137:27 5.0275 
4 *137:27 *137:29 764.97 
5 *137:29 *137:31 2 
6 *137:31 *137:33 483.712 
7 *137:33 io_out[3] 2.3544 
*END

*D_NET *138 0.352934
*CONN
*P io_out[4] O
*I *739:io_out_o[4] O *D ntt_wb_bridge
*CAP
1 io_out[4] 0.00161865
2 *739:io_out_o[4] 0.00153673
3 *138:17 0.048236
4 *138:15 0.0466173
5 *138:13 0.0446116
6 *138:11 0.0461483
7 *138:13 la_data_out[84] 0
8 *69:17 *138:13 0.0193731
9 *94:17 *138:13 0.0702662
10 *97:45 *138:11 4.06539e-05
11 *98:14 *138:13 0.074485
*RES
1 *739:io_out_o[4] *138:11 4.16793 
2 *138:11 *138:13 218.538 
3 *138:13 *138:15 0.5 
4 *138:15 *138:17 110.116 
5 *138:17 io_out[4] 4.3646 
*END

*D_NET *139 0.304394
*CONN
*P io_out[5] O
*I *739:io_out_o[5] O *D ntt_wb_bridge
*CAP
1 io_out[5] 0.00109761
2 *739:io_out_o[5] 0.00171525
3 *139:29 0.00683368
4 *139:27 0.00573607
5 *139:25 0.0428112
6 *139:23 0.0428112
7 *139:21 0.0433129
8 *139:19 0.0450282
9 *139:19 *140:11 0
10 *78:13 *139:21 0.00331022
11 *80:13 *139:19 0.00383931
12 *82:13 *139:19 0.000194707
13 *86:13 *139:19 0.000220061
14 *86:13 *139:21 0.0150278
15 *87:13 *139:19 0.000194707
16 *97:23 *139:19 2.65814e-06
17 *97:45 *139:19 0.000699364
18 *104:23 *139:21 0.0118326
19 *108:19 io_out[5] 0.000331002
20 *119:13 *139:21 0.00663131
21 *119:31 *139:19 0.000202971
22 *120:13 *139:19 0
23 *136:53 *139:19 0.000354703
24 *137:29 *139:21 0.0722063
*RES
1 *739:io_out_o[5] *139:19 43.4033 
2 *139:19 *139:21 1156.55 
3 *139:21 *139:23 2 
4 *139:23 *139:25 778.62 
5 *139:25 *139:27 2 
6 *139:27 *139:29 98.085 
7 *139:29 io_out[5] 8.44823 
*END

*D_NET *140 0.448197
*CONN
*P io_out[6] O
*I *739:io_out_o[6] O *D ntt_wb_bridge
*CAP
1 io_out[6] 0.00080067
2 *739:io_out_o[6] 0.000667269
3 *140:25 0.0237073
4 *140:23 0.0229066
5 *140:21 0.0387791
6 *140:19 0.0387791
7 *140:17 0.0207676
8 *140:15 0.0207676
9 *140:13 0.0163061
10 *140:11 0.0169733
11 *140:13 *141:13 0.00121278
12 *140:13 *143:15 0.00530683
13 *140:13 *357:31 0
14 *140:17 *658:11 0.0240874
15 *140:17 *682:41 0.00369385
16 *140:25 *143:27 0.00199676
17 io_oeb[5] *140:25 0.0196104
18 *68:17 *140:13 2.18953e-05
19 *68:19 *140:13 0.0395457
20 *74:27 *140:13 0.00538816
21 *75:13 *140:13 0.00576185
22 *76:19 *140:13 0.00340709
23 *77:111 *140:21 0
24 *78:127 *140:21 0
25 *92:23 *140:13 0.00036438
26 *93:19 *140:13 0.00154445
27 *97:45 *140:11 4.43252e-05
28 *99:27 *140:25 0.0101886
29 *100:21 *140:13 0.000492712
30 *100:31 *140:25 0.00458531
31 *101:15 *140:13 0.0373221
32 *104:27 *140:25 0.000107063
33 *105:27 *140:25 0.00650732
34 *107:25 *140:13 0.00475967
35 *107:33 *140:13 0.000608455
36 *107:39 *140:25 0.00214397
37 *108:19 *140:25 0.00399036
38 *109:13 *140:13 0.000215152
39 *112:13 *140:13 0.00301602
40 *115:21 *140:13 0.0107221
41 *115:23 *140:13 0.00623847
42 *119:31 *140:11 6.75956e-05
43 *126:15 *140:13 0.00470673
44 *127:15 *140:13 0.00282267
45 *130:15 *140:13 0.0261317
46 *132:19 *140:13 0.00176306
47 *133:25 *140:13 0.0047332
48 *136:25 *140:13 0.00340356
49 *136:53 *140:11 5.18735e-06
50 *137:33 *140:25 0.0012257
51 *139:19 *140:11 0
*RES
1 *739:io_out_o[6] *140:11 9.90673 
2 *140:11 *140:13 117.649 
3 *140:13 *140:15 0.5 
4 *140:15 *140:17 73.2513 
5 *140:17 *140:19 0.5 
6 *140:19 *140:21 99.7905 
7 *140:21 *140:23 0.5 
8 *140:23 *140:25 85.8268 
9 *140:25 io_out[6] 2.38353 
*END

*D_NET *141 0.487903
*CONN
*P io_out[7] O
*I *739:io_out_o[7] O *D ntt_wb_bridge
*CAP
1 io_out[7] 0.000911545
2 *739:io_out_o[7] 0.000677811
3 *141:21 0.00823308
4 *141:19 0.00732153
5 *141:17 0.0271845
6 *141:15 0.0271845
7 *141:13 0.0197885
8 *141:11 0.0204663
9 *141:17 *648:11 0.0235702
10 *141:17 *659:15 0.00479638
11 *141:17 *671:17 0.0672923
12 *141:17 *674:13 0.00233715
13 *141:17 *681:11 0.00991918
14 *141:17 *694:11 0
15 *141:17 *720:11 0.000639136
16 *141:17 *732:11 0
17 *68:19 *141:13 0.000501881
18 *74:25 *141:13 0.000242102
19 *74:31 *141:17 0
20 *76:19 *141:13 0.0159817
21 *76:23 *141:17 0
22 *78:137 *141:17 0.0318709
23 *90:25 *141:13 0.000141276
24 *97:15 *141:13 0.015706
25 *99:21 *141:13 0.00147304
26 *108:19 io_out[7] 6.32345e-05
27 *109:13 *141:13 0.122007
28 *112:13 *141:13 0.0617483
29 *115:211 *141:17 0.00727987
30 *116:25 *141:13 0.00152269
31 *116:27 *141:13 0.00106131
32 *126:15 *141:13 0.0027604
33 *130:15 *141:13 0.00182688
34 *136:25 *141:13 0.0020757
35 *136:53 *141:11 0.000106129
36 *140:13 *141:13 0.00121278
*RES
1 *739:io_out_o[7] *141:11 10.3986 
2 *141:11 *141:13 1151.71 
3 *141:13 *141:15 2 
4 *141:15 *141:17 1139.19 
5 *141:17 *141:19 2 
6 *141:19 *141:21 123.96 
7 *141:21 io_out[7] 5.38823 
*END

*D_NET *142 0.432225
*CONN
*P io_out[8] O
*I *739:io_out_o[8] O *D ntt_wb_bridge
*CAP
1 io_out[8] 0.00217462
2 *739:io_out_o[8] 0.00109942
3 *142:31 0.0753375
4 *142:29 0.0731629
5 *142:27 0.0280802
6 *142:25 0.0281573
7 *142:19 0.00851363
8 *142:17 0.00953593
9 *142:31 la_data_out[126] 0
10 *88:15 *142:17 0.000242991
11 *88:15 *142:19 0.00741775
12 *88:15 *142:27 0.0206984
13 *89:13 *142:19 0.0083249
14 *89:13 *142:27 0.000680133
15 *90:27 *142:19 5.56205e-06
16 *91:23 *142:17 0.000662338
17 *92:21 *142:27 0.000747797
18 *97:23 *142:17 0.000193586
19 *97:45 *142:17 0.00125812
20 *100:27 *142:27 0.0016643
21 *102:19 *142:19 0.00125709
22 *102:19 *142:27 0.0190064
23 *103:35 *142:27 0.000632269
24 *107:35 *142:27 0
25 *108:15 *142:27 0.00142526
26 *108:19 io_out[8] 0.000247872
27 *111:15 *142:27 0.00452975
28 *113:15 *142:27 0.0885754
29 *114:13 *142:27 0
30 *114:23 *142:27 0.000130473
31 *115:31 *142:27 0.00117591
32 *120:13 *142:17 0.000318653
33 *120:13 *142:19 0.00219205
34 *121:13 *142:19 0.0027407
35 *128:29 *142:19 0.0103026
36 *133:27 *142:17 0.000562891
37 *133:27 *142:19 0.0187192
38 *136:53 *142:17 0.000701074
39 *137:21 *142:17 0.000537446
40 *137:21 *142:19 0.0112121
*RES
1 *739:io_out_o[8] *142:17 7.08733 
2 *142:17 *142:19 54.2551 
3 *142:19 *142:25 3.4975 
4 *142:25 *142:27 902.97 
5 *142:27 *142:29 2 
6 *142:29 *142:31 1331.2 
7 *142:31 io_out[8] 29.8882 
*END

*D_NET *143 0.548596
*CONN
*P io_out[9] O
*I *739:io_out_o[9] O *D ntt_wb_bridge
*CAP
1 io_out[9] 0.000782214
2 *739:io_out_o[9] 0.000717203
3 *143:27 0.0211969
4 *143:25 0.0204147
5 *143:23 0.036076
6 *143:21 0.036076
7 *143:19 0.00486714
8 *143:17 0.00486714
9 *143:15 0.0118552
10 *143:13 0.0125724
11 *143:19 *363:11 0
12 *143:19 *729:11 0
13 *143:19 *731:11 0
14 io_oeb[5] *143:27 0.00434276
15 *74:27 *143:15 0.0237477
16 *77:35 *143:19 0
17 *81:15 *143:15 0.0020241
18 *91:21 *143:13 0
19 *99:27 *143:27 0.00952407
20 *101:15 *143:15 0.00825387
21 *104:27 *143:27 0.116981
22 *105:15 *143:15 0.0312248
23 *105:27 *143:27 0.00777692
24 *107:39 *143:27 0.130353
25 *112:13 *143:15 0.000338706
26 *115:21 *143:15 0.0022647
27 *115:23 *143:15 0.0158614
28 *115:49 *143:23 0
29 *126:15 *143:15 0.0187715
30 *127:15 *143:15 0.0199109
31 *129:15 *143:15 0.000383734
32 *136:53 *143:13 0.000107496
33 *140:13 *143:15 0.00530683
34 *140:25 *143:27 0.00199676
*RES
1 *739:io_out_o[9] *143:13 11.1585 
2 *143:13 *143:15 632.145 
3 *143:15 *143:17 2 
4 *143:17 *143:19 81.96 
5 *143:19 *143:21 2 
6 *143:21 *143:23 626.97 
7 *143:23 *143:25 2 
8 *143:25 *143:27 1457.56 
9 *143:27 io_out[9] 2.47093 
*END

*D_NET *272 0.203435
*CONN
*P la_data_out[0] O
*I *739:la_data_out_o[0] O *D ntt_wb_bridge
*CAP
1 la_data_out[0] 0.000706521
2 *739:la_data_out_o[0] 0.000458199
3 *272:47 0.0152179
4 *272:37 0.0175493
5 *272:35 0.00326955
6 *272:25 0.0241741
7 *272:23 0.0244007
8 la_data_out[0] *578:13 0
9 *272:23 *311:23 0.00116245
10 *272:23 *322:21 4.33067e-05
11 *272:23 *329:23 0.0011988
12 *272:23 *332:23 0.000143611
13 *272:23 *337:41 0.000291939
14 *272:23 *388:25 1.92979e-05
15 *272:25 *283:25 0.00135652
16 *272:25 *309:25 0
17 *272:25 *311:25 0.0562936
18 *272:25 *313:17 0.0121207
19 *272:25 *323:23 0.00836625
20 *272:25 *327:35 0
21 *272:25 *330:17 0.00134185
22 *272:35 *317:19 0.000159282
23 *272:35 *318:19 9.39388e-06
24 *272:35 *334:45 0.000230848
25 *272:35 *337:65 0.000228407
26 *272:37 la_data_out[11] 0.00164096
27 *272:37 la_data_out[12] 0.00118999
28 *272:37 la_data_out[15] 0.000219474
29 *272:37 la_data_out[25] 4.77769e-05
30 *272:37 la_data_out[26] 8.53011e-05
31 *272:37 *311:37 0.00394433
32 *272:37 *319:33 2.51225e-05
33 *272:47 la_data_out[10] 0.000265789
34 *272:47 la_data_out[11] 0.000537691
35 *272:47 la_data_out[12] 0.00080673
36 *272:47 la_data_out[13] 0.00774479
37 *272:47 *311:47 0
38 *272:47 *344:25 0
39 *95:27 *272:25 0.00184746
40 *95:29 *272:25 0.0163369
*RES
1 *739:la_data_out_o[0] *272:23 17.6939 
2 *272:23 *272:25 105.035 
3 *272:25 *272:35 5.63097 
4 *272:35 *272:37 72.9 
5 *272:37 *272:47 45.3102 
6 *272:47 la_data_out[0] 12.8025 
*END

*D_NET *273 0.186576
*CONN
*P la_data_out[100] O
*I *739:la_data_out_o[100] O *D ntt_wb_bridge
*CAP
1 la_data_out[100] 0.0360681
2 *739:la_data_out_o[100] 0.000922346
3 *273:17 0.0360681
4 *273:15 0.00686103
5 *273:13 0.00778338
6 *273:13 *380:13 0.000270877
7 *273:15 *274:15 0.000372888
8 *273:15 *275:15 0.046097
9 *273:15 *280:15 0.042949
10 *273:15 *387:15 0.00602763
11 *273:15 *391:15 0.000735449
12 *273:15 *398:15 0.000817566
13 *273:15 *726:15 0.00145259
14 *273:15 *737:23 0.000150497
*RES
1 *739:la_data_out_o[100] *273:13 13.7018 
2 *273:13 *273:15 435.495 
3 *273:15 *273:17 2 
4 *273:17 la_data_out[100] 647.115 
*END

*D_NET *274 0.181292
*CONN
*P la_data_out[101] O
*I *739:la_data_out_o[101] O *D ntt_wb_bridge
*CAP
1 la_data_out[101] 0.000769044
2 *739:la_data_out_o[101] 0.000892184
3 *274:23 0.00321451
4 *274:21 0.00244547
5 *274:19 0.0354078
6 *274:17 0.0354078
7 *274:15 0.0070671
8 *274:13 0.00795929
9 *274:13 *380:13 0.000150216
10 *274:15 *275:15 0.0401333
11 *274:15 *276:15 0.032826
12 *274:15 *385:15 0.0053747
13 *274:15 *387:15 0.000461119
14 *274:15 *391:15 0.000550056
15 *274:15 *398:15 0.000169158
16 *274:15 *737:23 0.00070082
17 *274:19 la_data_out[96] 0
18 *274:23 *276:23 0.00739078
19 *273:15 *274:15 0.000372888
*RES
1 *739:la_data_out_o[101] *274:13 14.0218 
2 *274:13 *274:15 376.155 
3 *274:15 *274:17 2 
4 *274:17 *274:19 634.8 
5 *274:19 *274:21 2 
6 *274:21 *274:23 68.07 
7 *274:23 la_data_out[101] 14.93 
*END

*D_NET *275 0.186735
*CONN
*P la_data_out[102] O
*I *739:la_data_out_o[102] O *D ntt_wb_bridge
*CAP
1 la_data_out[102] 0.00135378
2 *739:la_data_out_o[102] 0.000884126
3 *275:19 0.0368186
4 *275:17 0.0354648
5 *275:15 0.00783674
6 *275:13 0.00872087
7 la_data_out[102] *302:21 0.00210837
8 *275:13 *358:25 0
9 *275:13 *380:13 0.000179738
10 *275:15 *280:15 0.000461318
11 *275:15 *385:15 0.0049264
12 *275:15 *387:15 0.000287634
13 *275:15 *391:15 0.000679053
14 *275:15 *398:15 0.000783426
15 *273:15 *275:15 0.046097
16 *274:15 *275:15 0.0401333
*RES
1 *739:la_data_out_o[102] *275:13 13.8098 
2 *275:13 *275:15 432.39 
3 *275:15 *275:17 2 
4 *275:17 *275:19 636.075 
5 *275:19 la_data_out[102] 34.825 
*END

*D_NET *276 0.178841
*CONN
*P la_data_out[103] O
*I *739:la_data_out_o[103] O *D ntt_wb_bridge
*CAP
1 la_data_out[103] 0.000745215
2 *739:la_data_out_o[103] 0.000955189
3 *276:23 0.00488705
4 *276:21 0.00414184
5 *276:19 0.035454
6 *276:17 0.035454
7 *276:15 0.00751935
8 *276:13 0.00847454
9 *276:13 *358:25 0
10 *276:13 *380:13 0.000118392
11 *276:15 *360:27 0.000161325
12 *276:15 *374:15 0.00375184
13 *276:15 *385:15 0.00118193
14 *276:15 *387:15 0.00042576
15 *276:15 *391:15 0.000256294
16 *276:15 *725:15 6.13115e-05
17 *276:15 *737:23 0.0180123
18 *276:19 la_data_out[91] 0
19 *276:23 *285:21 0.0170243
20 *274:15 *276:15 0.032826
21 *274:23 *276:23 0.00739078
*RES
1 *739:la_data_out_o[103] *276:13 14.2464 
2 *276:13 *276:15 303.015 
3 *276:15 *276:17 2 
4 *276:17 *276:19 635.31 
5 *276:19 *276:21 2 
6 *276:21 *276:23 156.735 
7 *276:23 la_data_out[103] 14.675 
*END

*D_NET *277 0.18214
*CONN
*P la_data_out[104] O
*I *739:la_data_out_o[104] O *D ntt_wb_bridge
*CAP
1 la_data_out[104] 0.0370502
2 *739:la_data_out_o[104] 0.000391662
3 *277:17 0.0370502
4 *277:15 0.0190019
5 *277:13 0.0193936
6 *277:13 *278:13 0
7 *277:13 *380:13 3.52773e-05
8 *277:13 *381:21 0
9 *277:15 *279:15 0
10 *277:15 *298:17 0.000765103
11 *277:15 *365:15 0.00481234
12 *277:15 *369:15 0.00360287
13 *277:15 *370:15 0.00329537
14 *277:15 *382:15 0.00975952
15 *277:15 *397:15 0.0438245
16 *277:15 *531:21 0.00315726
*RES
1 *739:la_data_out_o[104] *277:13 5.9154 
2 *277:13 *277:15 79.0476 
3 *277:15 *277:17 0.5 
4 *277:17 la_data_out[104] 641.122 
*END

*D_NET *278 0.173648
*CONN
*P la_data_out[105] O
*I *739:la_data_out_o[105] O *D ntt_wb_bridge
*CAP
1 la_data_out[105] 0.0358129
2 *739:la_data_out_o[105] 0.000567338
3 *278:17 0.0358129
4 *278:15 0.0117054
5 *278:13 0.0122727
6 *278:13 *380:13 0.000103327
7 *278:13 *381:21 0
8 *278:15 *279:15 0.00372423
9 *278:15 *282:17 0.000142448
10 *278:15 *292:15 0.0105284
11 *278:15 *299:15 0.0403984
12 *278:15 *389:15 0.00720616
13 *278:15 *395:15 0.00515539
14 *278:15 *396:15 0.00348
15 *278:15 *397:15 0.000158905
16 *278:15 *529:15 0.00657978
17 *277:13 *278:13 0
*RES
1 *739:la_data_out_o[105] *278:13 9.61837 
2 *278:13 *278:15 476.55 
3 *278:15 *278:17 2 
4 *278:17 la_data_out[105] 643.29 
*END

*D_NET *279 0.173732
*CONN
*P la_data_out[106] O
*I *739:la_data_out_o[106] O *D ntt_wb_bridge
*CAP
1 la_data_out[106] 0.00100888
2 *739:la_data_out_o[106] 0.00080693
3 *279:19 0.0362647
4 *279:17 0.0352558
5 *279:15 0.0173824
6 *279:13 0.0181893
7 la_data_out[106] *284:21 0.000136686
8 la_data_out[106] *285:21 0.000126071
9 la_data_out[106] *297:21 0.000118286
10 la_data_out[106] *302:21 0.000250534
11 *279:13 *280:13 0
12 *279:13 *380:13 0.000577418
13 *279:15 *281:17 0.0161968
14 *279:15 *282:17 0.0156688
15 *279:15 *299:15 0.00237522
16 *279:15 *356:21 0.000627227
17 *279:15 *359:17 0.000211905
18 *279:15 *360:19 0.00139206
19 *279:15 *368:15 0.00239982
20 *279:15 *389:15 0.000109729
21 *279:15 *396:15 0.00519125
22 *279:15 *397:15 0
23 *279:15 *398:15 0.0157183
24 *115:149 *279:19 0
25 *277:15 *279:15 0
26 *278:15 *279:15 0.00372423
*RES
1 *739:la_data_out_o[106] *279:13 10.2125 
2 *279:13 *279:15 80.0381 
3 *279:15 *279:17 0.5 
4 *279:17 *279:19 633.015 
5 *279:19 la_data_out[106] 13.6945 
*END

*D_NET *280 0.195063
*CONN
*P la_data_out[107] O
*I *739:la_data_out_o[107] O *D ntt_wb_bridge
*CAP
1 la_data_out[107] 0.0368803
2 *739:la_data_out_o[107] 0.00088186
3 *280:17 0.0368803
4 *280:15 0.00948134
5 *280:13 0.0103632
6 *280:13 *380:13 0.000287407
7 *280:15 *296:15 0.0443782
8 *280:15 *387:15 0.00494326
9 *280:15 *391:15 0.000551201
10 *280:15 *398:15 0.00110612
11 *280:15 *726:15 0.00368517
12 *77:111 la_data_out[107] 0.0022145
13 *273:15 *280:15 0.042949
14 *275:15 *280:15 0.000461318
15 *279:13 *280:13 0
*RES
1 *739:la_data_out_o[107] *280:13 13.4569 
2 *280:13 *280:15 488.97 
3 *280:15 *280:17 2 
4 *280:17 la_data_out[107] 646.86 
*END

*D_NET *281 0.195417
*CONN
*P la_data_out[108] O
*I *739:la_data_out_o[108] O *D ntt_wb_bridge
*CAP
1 la_data_out[108] 0.00853596
2 *739:la_data_out_o[108] 0.00362575
3 *281:25 0.00853596
4 *281:23 0.0244288
5 *281:21 0.0244288
6 *281:19 0.0118985
7 *281:17 0.0155242
8 *281:17 *354:25 1.23015e-05
9 *281:17 *356:29 7.0647e-05
10 *281:17 *361:15 0.00205422
11 *281:17 *362:15 0.00188841
12 *281:17 *380:13 0.00046277
13 *281:17 *398:15 0.0161931
14 *281:19 *739:done_i 0.00241839
15 *281:19 *282:19 0.0152448
16 *281:19 *284:17 8.33451e-05
17 *281:19 *302:17 0.0436025
18 *281:19 *365:19 0
19 *281:19 *649:15 0
20 *77:59 *281:23 0.000211594
21 *279:15 *281:17 0.0161968
*RES
1 *739:la_data_out_o[108] *281:17 35.2942 
2 *281:17 *281:19 499.395 
3 *281:19 *281:21 0.5 
4 *281:21 *281:23 59.47 
5 *281:23 *281:25 0.5 
6 *281:25 la_data_out[108] 145.913 
*END

*D_NET *282 0.168622
*CONN
*P la_data_out[109] O
*I *739:la_data_out_o[109] O *D ntt_wb_bridge
*CAP
1 la_data_out[109] 0.0186438
2 *739:la_data_out_o[109] 0.00454431
3 *282:25 0.0186438
4 *282:23 0.0220872
5 *282:21 0.0220872
6 *282:19 0.0125179
7 *282:17 0.0170622
8 *282:17 *288:21 0.00370118
9 *282:17 *295:29 0.00248029
10 *282:17 *299:15 0.00015452
11 *282:17 *359:17 0.000957561
12 *282:17 *380:13 0.000426334
13 *282:17 *389:15 0.00182394
14 *282:17 *396:15 0.00103654
15 *282:19 *739:done_i 0.00233372
16 *282:19 *365:19 0
17 *282:19 *683:27 0
18 *282:23 *705:9 0.00906567
19 *278:15 *282:17 0.000142448
20 *279:15 *282:17 0.0156688
21 *281:19 *282:19 0.0152448
*RES
1 *739:la_data_out_o[109] *282:17 33.4433 
2 *282:17 *282:19 322.425 
3 *282:19 *282:21 0.5 
4 *282:21 *282:23 61.5676 
5 *282:23 *282:25 0.5 
6 *282:25 la_data_out[109] 321.862 
*END

*D_NET *283 0.218244
*CONN
*P la_data_out[10] O
*I *739:la_data_out_o[10] O *D ntt_wb_bridge
*CAP
1 la_data_out[10] 0.00503057
2 *739:la_data_out_o[10] 0.000407811
3 *283:25 0.0285736
4 *283:23 0.0243167
5 *283:13 0.00216675
6 *283:11 0.00180089
7 la_data_out[10] la_data_out[11] 0.0032293
8 la_data_out[10] la_data_out[15] 0.0127019
9 la_data_out[10] la_data_out[18] 0.00159294
10 la_data_out[10] la_data_out[21] 0.00344688
11 la_data_out[10] la_data_out[39] 0.000425602
12 la_data_out[10] *311:47 0.0132792
13 *283:11 *310:21 0.000159676
14 *283:13 *294:13 0.00776942
15 *283:13 *294:19 0.000218513
16 *283:13 *309:23 0.000949469
17 *283:13 *310:21 0.000454733
18 *283:13 *330:13 0.00744404
19 *283:23 *331:35 0.000843392
20 *283:23 *331:37 0
21 *283:23 *335:27 0.000282848
22 *283:23 *338:35 0.000233384
23 *283:23 *338:37 0.00076821
24 *283:23 *355:25 3.81558e-05
25 *283:23 *399:21 0.000105649
26 *283:23 *399:25 1.08315e-06
27 *283:25 *309:25 0.055565
28 *283:25 *318:19 0.00107772
29 *283:25 *325:19 0.00063334
30 *95:27 *283:25 0.00183455
31 *95:29 *283:25 0.0412699
32 *272:25 *283:25 0.00135652
33 *272:47 la_data_out[10] 0.000265789
*RES
1 *739:la_data_out_o[10] *283:11 4.95323 
2 *283:11 *283:13 74.625 
3 *283:13 *283:23 22.0456 
4 *283:23 *283:25 102.967 
5 *283:25 la_data_out[10] 41.9679 
*END

*D_NET *284 0.236195
*CONN
*P la_data_out[110] O
*I *739:la_data_out_o[110] O *D ntt_wb_bridge
*CAP
1 la_data_out[110] 0.000706831
2 *739:la_data_out_o[110] 0.000289279
3 *284:21 0.00686222
4 *284:19 0.00615539
5 *284:17 0.0216521
6 *284:15 0.0216521
7 *284:13 0.00253695
8 *284:11 0.00282623
9 *284:11 *380:13 0.000180888
10 *284:13 *285:13 0.00408946
11 *284:13 *288:23 0.00873576
12 *284:13 *297:13 0.00706174
13 *284:13 *380:13 0.00262127
14 *284:13 *381:23 0.0034389
15 *284:17 *302:17 0.0554248
16 *284:17 *367:27 0
17 *284:17 *649:15 0.0011891
18 *284:21 la_data_out[81] 0.000110612
19 *284:21 *285:21 0.0361342
20 *284:21 *297:21 0.0305105
21 *284:21 *302:21 0.00360062
22 *284:21 *362:31 0.00254906
23 *284:21 *375:33 0.000101386
24 *284:21 *383:43 0.00450253
25 la_data_out[106] *284:21 0.000136686
26 *101:19 *284:17 0.0130433
27 *281:19 *284:17 8.33451e-05
*RES
1 *739:la_data_out_o[110] *284:11 4.53697 
2 *284:11 *284:13 132.24 
3 *284:13 *284:15 2 
4 *284:15 *284:17 625.365 
5 *284:17 *284:19 2 
6 *284:19 *284:21 379.26 
7 *284:21 la_data_out[110] 14.165 
*END

*D_NET *285 0.186294
*CONN
*P la_data_out[111] O
*I *739:la_data_out_o[111] O *D ntt_wb_bridge
*CAP
1 la_data_out[111] 0.000721286
2 *739:la_data_out_o[111] 0.000185688
3 *285:21 0.00976837
4 *285:19 0.00904709
5 *285:17 0.0344926
6 *285:15 0.0344926
7 *285:13 0.00317554
8 *285:11 0.00336122
9 *285:11 *380:13 0.000167103
10 *285:13 *286:13 0.0184909
11 *285:13 *295:31 0.0003332
12 *285:13 *297:13 0.0121111
13 *285:13 *380:13 0.00020279
14 *285:13 *531:21 0.000123238
15 *285:21 *297:21 0.000858619
16 la_data_out[106] *285:21 0.000126071
17 *77:47 *285:17 0
18 *115:59 *285:17 0.0013888
19 *276:23 *285:21 0.0170243
20 *284:13 *285:13 0.00408946
21 *284:21 *285:21 0.0361342
*RES
1 *739:la_data_out_o[111] *285:11 3.9535 
2 *285:11 *285:13 173.64 
3 *285:13 *285:15 2 
4 *285:15 *285:17 624.6 
5 *285:17 *285:19 2 
6 *285:19 *285:21 346.14 
7 *285:21 la_data_out[111] 14.42 
*END

*D_NET *286 0.191579
*CONN
*P la_data_out[112] O
*I *739:la_data_out_o[112] O *D ntt_wb_bridge
*CAP
1 la_data_out[112] 0.036757
2 *739:la_data_out_o[112] 0.000103377
3 *286:15 0.036757
4 *286:13 0.0100704
5 *286:11 0.0101738
6 *286:11 *380:13 7.61246e-05
7 *286:13 *287:13 0.0574882
8 *286:13 *288:23 0.0115204
9 *286:13 *292:13 0.000107264
10 *286:13 *295:31 0.00519787
11 *286:13 *297:13 0.00339472
12 *286:13 *380:13 0.0013347
13 *286:13 *531:21 0.000107264
14 *285:13 *286:13 0.0184909
*RES
1 *739:la_data_out_o[112] *286:11 3.45023 
2 *286:11 *286:13 528.645 
3 *286:13 *286:15 2 
4 *286:15 la_data_out[112] 636.66 
*END

*D_NET *287 0.209046
*CONN
*P la_data_out[113] O
*I *739:la_data_out_o[113] O *D ntt_wb_bridge
*CAP
1 la_data_out[113] 0.0353879
2 *739:la_data_out_o[113] 0.000136936
3 *287:15 0.0353879
4 *287:13 0.00846224
5 *287:11 0.00859918
6 *287:11 *380:13 0.000107678
7 *287:13 *288:23 0.00018877
8 *287:13 *289:13 0.0569421
9 *287:13 *292:13 0.000114263
10 *287:13 *295:31 0.00562765
11 *287:13 *380:13 0.000489459
12 *287:13 *531:21 0.000114263
13 *286:13 *287:13 0.0574882
*RES
1 *739:la_data_out_o[113] *287:11 3.29657 
2 *287:11 *287:13 535.89 
3 *287:13 *287:15 2 
4 *287:15 la_data_out[113] 636.405 
*END

*D_NET *288 0.165115
*CONN
*P la_data_out[114] O
*I *739:la_data_out_o[114] O *D ntt_wb_bridge
*CAP
1 la_data_out[114] 0.0354597
2 *739:la_data_out_o[114] 0.00174436
3 *288:25 0.0354597
4 *288:23 0.0120982
5 *288:21 0.0138426
6 *288:21 *295:29 0
7 *288:21 *380:13 9.46445e-05
8 *288:21 *389:15 0.000777413
9 *288:21 *396:15 0.00157567
10 *288:23 *289:13 0
11 *288:23 *293:13 0.0129051
12 *288:23 *297:13 0.00632818
13 *288:23 *363:7 0.00012905
14 *288:23 *381:23 0.0108597
15 *288:23 *383:23 0.000954778
16 *288:23 *392:21 0.00873963
17 *115:171 la_data_out[114] 0
18 *282:17 *288:21 0.00370118
19 *284:13 *288:23 0.00873576
20 *286:13 *288:23 0.0115204
21 *287:13 *288:23 0.00018877
*RES
1 *739:la_data_out_o[114] *288:21 22.5425 
2 *288:21 *288:23 512.43 
3 *288:23 *288:25 2 
4 *288:25 la_data_out[114] 637.68 
*END

*D_NET *289 0.214157
*CONN
*P la_data_out[115] O
*I *739:la_data_out_o[115] O *D ntt_wb_bridge
*CAP
1 la_data_out[115] 0.035371
2 *739:la_data_out_o[115] 9.22819e-05
3 *289:15 0.035371
4 *289:13 0.00905524
5 *289:11 0.00914752
6 *289:11 *380:13 5.75556e-05
7 *289:13 *290:13 0.0593844
8 *289:13 *292:13 0.000124661
9 *289:13 *293:13 0
10 *289:13 *295:31 0.00825801
11 *289:13 *380:13 0.000228319
12 *289:13 *531:21 0.000124661
13 *77:127 la_data_out[115] 0
14 *78:127 la_data_out[115] 0
15 *287:13 *289:13 0.0569421
16 *288:23 *289:13 0
*RES
1 *739:la_data_out_o[115] *289:11 2.89463 
2 *289:11 *289:13 552.105 
3 *289:13 *289:15 2 
4 *289:15 la_data_out[115] 636.15 
*END

*D_NET *290 0.1856
*CONN
*P la_data_out[116] O
*I *739:la_data_out_o[116] O *D ntt_wb_bridge
*CAP
1 la_data_out[116] 0.0353439
2 *739:la_data_out_o[116] 8.66158e-05
3 *290:15 0.0353439
4 *290:13 0.0135133
5 *290:11 0.0135999
6 *290:11 *380:13 4.26652e-05
7 *290:13 *292:13 0.00022996
8 *290:13 *293:13 0
9 *290:13 *295:29 0.000418223
10 *290:13 *295:31 0.00912413
11 *290:13 *301:27 0.0155308
12 *290:13 *302:15 0.0017857
13 *290:13 *367:25 0.000213039
14 *290:13 *380:13 0.000323784
15 *290:13 *383:35 0.000645113
16 *103:35 la_data_out[116] 1.4813e-05
17 *289:13 *290:13 0.0593844
*RES
1 *739:la_data_out_o[116] *290:11 2.85663 
2 *290:11 *290:13 561.075 
3 *290:13 *290:15 2 
4 *290:15 la_data_out[116] 635.895 
*END

*D_NET *291 0.181552
*CONN
*P la_data_out[117] O
*I *739:la_data_out_o[117] O *D ntt_wb_bridge
*CAP
1 la_data_out[117] 0.0368583
2 *739:la_data_out_o[117] 0.000283276
3 *291:15 0.0368583
4 *291:13 0.0204026
5 *291:11 0.0206858
6 *291:11 *380:13 5.10592e-05
7 *291:13 *293:13 0.0610049
8 *291:13 *298:17 0
9 *291:13 *301:25 0
10 *291:13 *363:7 0.00135188
11 *291:13 *365:15 0
12 *291:13 *372:13 0.000118286
13 *291:13 *381:23 0.000687513
14 *291:13 *383:35 0.00324989
15 *114:23 la_data_out[117] 0
*RES
1 *739:la_data_out_o[117] *291:11 5.42183 
2 *291:11 *291:13 569.01 
3 *291:13 *291:15 2 
4 *291:15 la_data_out[117] 638.7 
*END

*D_NET *292 0.206458
*CONN
*P la_data_out[118] O
*I *739:la_data_out_o[118] O *D ntt_wb_bridge
*CAP
1 la_data_out[118] 0.0025937
2 *739:la_data_out_o[118] 0.000708883
3 *292:23 0.0230152
4 *292:21 0.0204215
5 *292:19 0.0204677
6 *292:17 0.0204677
7 *292:15 0.00175069
8 *292:13 0.00245957
9 *292:13 *380:13 0.000572208
10 *292:15 *295:29 0.00134434
11 *292:15 *395:15 0.00670914
12 *292:15 *396:15 0.000142448
13 *292:15 *529:15 0.00217541
14 *292:19 *354:27 0
15 *292:19 *531:21 0.00256466
16 *292:23 *529:23 0.0364904
17 *105:19 *292:19 0.0534701
18 *278:15 *292:15 0.0105284
19 *286:13 *292:13 0.000107264
20 *287:13 *292:13 0.000114263
21 *289:13 *292:13 0.000124661
22 *290:13 *292:13 0.00022996
*RES
1 *739:la_data_out_o[118] *292:13 10.0474 
2 *292:13 *292:15 96.36 
3 *292:15 *292:17 2 
4 *292:17 *292:19 600.375 
5 *292:19 *292:21 2 
6 *292:21 *292:23 474.825 
7 *292:23 la_data_out[118] 44.765 
*END

*D_NET *293 0.205694
*CONN
*P la_data_out[119] O
*I *739:la_data_out_o[119] O *D ntt_wb_bridge
*CAP
1 la_data_out[119] 0.0257343
2 *739:la_data_out_o[119] 0.000474257
3 *293:15 0.0257343
4 *293:13 0.0122083
5 *293:11 0.0126825
6 *293:11 *380:13 0.000186598
7 *293:13 *363:7 0.0012721
8 *293:13 *381:23 0.00332234
9 *293:13 *392:21 0.0201452
10 *73:24 la_data_out[119] 0
11 *112:17 la_data_out[119] 0.0300245
12 *288:23 *293:13 0.0129051
13 *289:13 *293:13 0
14 *290:13 *293:13 0
15 *291:13 *293:13 0.0610049
*RES
1 *739:la_data_out_o[119] *293:11 5.5367 
2 *293:11 *293:13 580.74 
3 *293:13 *293:15 2 
4 *293:15 la_data_out[119] 638.445 
*END

*D_NET *294 0.173482
*CONN
*P la_data_out[11] O
*I *739:la_data_out_o[11] O *D ntt_wb_bridge
*CAP
1 la_data_out[11] 0.00451637
2 *739:la_data_out_o[11] 0.000199303
3 *294:21 0.0270715
4 *294:19 0.0228513
5 *294:13 0.00154434
6 *294:11 0.00144748
7 la_data_out[11] la_data_out[12] 0.0158078
8 la_data_out[11] la_data_out[15] 0.0119246
9 la_data_out[11] la_data_out[22] 0.000298793
10 la_data_out[11] *311:37 0.00109741
11 *294:11 *310:21 4.08474e-05
12 *294:13 *303:13 0.00869129
13 *294:13 *303:19 1.33285e-05
14 *294:13 *309:23 0.00107306
15 *294:13 *310:21 0.000317053
16 *294:13 *330:13 0.000571869
17 *294:19 *303:19 0.000747483
18 *294:21 la_data_out[23] 0
19 *294:21 *314:29 0.000226094
20 *294:21 *332:25 0
21 *294:21 *344:19 0.0550071
22 la_data_out[10] la_data_out[11] 0.0032293
23 *134:19 *294:21 0.00663924
24 *272:37 la_data_out[11] 0.00164096
25 *272:47 la_data_out[11] 0.000537691
26 *283:13 *294:13 0.00776942
27 *283:13 *294:19 0.000218513
*RES
1 *739:la_data_out_o[11] *294:11 4.37397 
2 *294:11 *294:13 79.455 
3 *294:13 *294:19 9.365 
4 *294:19 *294:21 626.258 
5 *294:21 la_data_out[11] 39.521 
*END

*D_NET *295 0.207797
*CONN
*P la_data_out[120] O
*I *739:la_data_out_o[120] O *D ntt_wb_bridge
*CAP
1 la_data_out[120] 0.0350109
2 *739:la_data_out_o[120] 0.00257775
3 *295:33 0.0350109
4 *295:31 0.039734
5 *295:29 0.0423118
6 *295:29 *298:21 0.000417996
7 *295:29 *302:15 0.000419389
8 *295:29 *380:13 0.000271777
9 *295:29 *393:21 0.000530387
10 *295:29 *395:15 0.00122523
11 *295:29 *395:21 1.30972e-05
12 *295:29 *396:15 0.0059826
13 *295:29 *693:11 0
14 *295:31 *301:27 0.0108328
15 *295:31 *380:13 0.000578921
16 *295:31 *531:21 9.56836e-05
17 *282:17 *295:29 0.00248029
18 *285:13 *295:31 0.0003332
19 *286:13 *295:31 0.00519787
20 *287:13 *295:31 0.00562765
21 *288:21 *295:29 0
22 *289:13 *295:31 0.00825801
23 *290:13 *295:29 0.000418223
24 *290:13 *295:31 0.00912413
25 *292:15 *295:29 0.00134434
*RES
1 *739:la_data_out_o[120] *295:29 33.4394 
2 *295:29 *295:31 90.0017 
3 *295:31 *295:33 0.5 
4 *295:33 la_data_out[120] 635.003 
*END

*D_NET *296 0.215497
*CONN
*P la_data_out[121] O
*I *739:la_data_out_o[121] O *D ntt_wb_bridge
*CAP
1 la_data_out[121] 0.000680339
2 *739:la_data_out_o[121] 0.00114252
3 *296:23 0.00336469
4 *296:21 0.00268435
5 *296:19 0.0347937
6 *296:17 0.0347937
7 *296:15 0.00998497
8 *296:13 0.0111275
9 *296:13 *380:13 0.000421124
10 *296:15 *300:15 0.0550719
11 *296:15 *391:15 0.00416533
12 *296:15 *398:15 0.00119798
13 *296:15 *726:15 0.00135167
14 *296:23 *297:21 0.00818055
15 *78:127 *296:19 0
16 *115:189 *296:19 0.00215855
17 *280:15 *296:15 0.0443782
*RES
1 *739:la_data_out_o[121] *296:13 13.397 
2 *296:13 *296:15 520.365 
3 *296:15 *296:17 2 
4 *296:17 *296:19 634.545 
5 *296:19 *296:21 2 
6 *296:21 *296:23 75.315 
7 *296:23 la_data_out[121] 14.165 
*END

*D_NET *297 0.211545
*CONN
*P la_data_out[122] O
*I *739:la_data_out_o[122] O *D ntt_wb_bridge
*CAP
1 la_data_out[122] 0.000661805
2 *739:la_data_out_o[122] 0.000437668
3 *297:21 0.00855636
4 *297:19 0.00789455
5 *297:17 0.0348436
6 *297:15 0.0348436
7 *297:13 0.00323981
8 *297:11 0.00367748
9 *297:11 *380:13 0.000177421
10 *297:13 *380:13 0.000785771
11 *297:17 la_data_out[89] 0
12 *297:21 *302:21 0.0478634
13 la_data_out[106] *297:21 0.000118286
14 *284:13 *297:13 0.00706174
15 *284:21 *297:21 0.0305105
16 *285:13 *297:13 0.0121111
17 *285:21 *297:21 0.000858619
18 *286:13 *297:13 0.00339472
19 *288:23 *297:13 0.00632818
20 *296:23 *297:21 0.00818055
*RES
1 *739:la_data_out_o[122] *297:11 4.27437 
2 *297:11 *297:13 163.29 
3 *297:13 *297:15 2 
4 *297:15 *297:17 625.365 
5 *297:17 *297:19 2 
6 *297:19 *297:21 440.67 
7 *297:21 la_data_out[122] 13.91 
*END

*D_NET *298 0.162997
*CONN
*P la_data_out[123] O
*I *739:la_data_out_o[123] O *D ntt_wb_bridge
*CAP
1 la_data_out[123] 0.0348435
2 *739:la_data_out_o[123] 0.00154722
3 *298:25 0.0348435
4 *298:23 0.0289197
5 *298:21 0.0292151
6 *298:17 0.0018426
7 *298:17 *301:25 0.00223842
8 *298:17 *365:15 0.00395145
9 *298:17 *380:13 0.000320402
10 *298:21 *301:25 0.000459269
11 *298:21 *393:21 2.07356e-05
12 *298:21 *731:41 0.000212044
13 *298:23 *301:27 0
14 *298:23 *395:23 0.0234
15 *72:29 la_data_out[123] 0
16 *277:15 *298:17 0.000765103
17 *291:13 *298:17 0
18 *295:29 *298:21 0.000417996
*RES
1 *739:la_data_out_o[123] *298:17 45.37 
2 *298:17 *298:21 10.265 
3 *298:21 *298:23 575.91 
4 *298:23 *298:25 2 
5 *298:25 la_data_out[123] 632.58 
*END

*D_NET *299 0.177178
*CONN
*P la_data_out[124] O
*I *739:la_data_out_o[124] O *D ntt_wb_bridge
*CAP
1 la_data_out[124] 0.0354448
2 *739:la_data_out_o[124] 0.000833398
3 *299:17 0.0354448
4 *299:15 0.027861
5 *299:13 0.0286944
6 *299:13 *380:13 0.000267239
7 *299:15 *368:19 0
8 *299:15 *389:15 0.00320668
9 *299:15 *396:15 0.00249729
10 *111:19 la_data_out[124] 0
11 *278:15 *299:15 0.0403984
12 *279:15 *299:15 0.00237522
13 *282:17 *299:15 0.00015452
*RES
1 *739:la_data_out_o[124] *299:13 10.1166 
2 *299:13 *299:15 620.07 
3 *299:15 *299:17 2 
4 *299:17 la_data_out[124] 643.545 
*END

*D_NET *300 0.191512
*CONN
*P la_data_out[125] O
*I *739:la_data_out_o[125] O *D ntt_wb_bridge
*CAP
1 la_data_out[125] 0.0355931
2 *739:la_data_out_o[125] 0.00102171
3 *300:17 0.0355931
4 *300:15 0.0247286
5 *300:13 0.0257503
6 *300:13 *380:13 0.000219679
7 *300:15 *368:19 0.000899771
8 *300:15 *391:15 0.00587264
9 *300:15 *398:15 0.00203784
10 *300:15 *726:15 0.00472361
11 *296:15 *300:15 0.0550719
*RES
1 *739:la_data_out_o[125] *300:13 12.8481 
2 *300:13 *300:15 628.005 
3 *300:15 *300:17 2 
4 *300:17 la_data_out[125] 646.35 
*END

*D_NET *301 0.164834
*CONN
*P la_data_out[126] O
*I *739:la_data_out_o[126] O *D ntt_wb_bridge
*CAP
1 la_data_out[126] 0.0349529
2 *739:la_data_out_o[126] 0.00155178
3 *301:29 0.0349529
4 *301:27 0.0281532
5 *301:25 0.029705
6 *301:25 *365:15 1.91597e-05
7 *301:25 *367:21 0.000161766
8 *301:25 *380:13 0.000129376
9 *301:25 *382:15 0.000368732
10 *301:27 *302:15 0.000101493
11 *301:27 *367:25 0.00235504
12 *301:27 *389:27 0.00332101
13 *301:27 *389:29 0
14 *301:27 *393:23 0
15 *301:27 *395:23 0
16 *142:31 la_data_out[126] 0
17 *290:13 *301:27 0.0155308
18 *291:13 *301:25 0
19 *295:31 *301:27 0.0108328
20 *298:17 *301:25 0.00223842
21 *298:21 *301:25 0.000459269
22 *298:23 *301:27 0
*RES
1 *739:la_data_out_o[126] *301:25 37.9264 
2 *301:25 *301:27 615.585 
3 *301:27 *301:29 2 
4 *301:29 la_data_out[126] 634.875 
*END

*D_NET *302 0.237656
*CONN
*P la_data_out[127] O
*I *739:la_data_out_o[127] O *D ntt_wb_bridge
*CAP
1 la_data_out[127] 0.000643272
2 *739:la_data_out_o[127] 0.00106149
3 *302:21 0.0233824
4 *302:19 0.0227392
5 *302:17 0.0119847
6 *302:15 0.0130461
7 *302:15 *367:25 0.00403386
8 *302:15 *380:13 3.08905e-05
9 *302:15 *383:35 0.000647437
10 *302:17 *365:19 0
11 *302:21 *354:31 0.000424028
12 *302:21 *383:43 0.00450547
13 la_data_out[102] *302:21 0.00210837
14 la_data_out[106] *302:21 0.000250534
15 *281:19 *302:17 0.0436025
16 *284:17 *302:17 0.0554248
17 *284:21 *302:21 0.00360062
18 *290:13 *302:15 0.0017857
19 *295:29 *302:15 0.000419389
20 *297:21 *302:21 0.0478634
21 *301:27 *302:15 0.000101493
*RES
1 *739:la_data_out_o[127] *302:15 44.322 
2 *302:15 *302:17 623.835 
3 *302:17 *302:19 2 
4 *302:19 *302:21 604.89 
5 *302:21 la_data_out[127] 13.655 
*END

*D_NET *303 0.138478
*CONN
*P la_data_out[12] O
*I *739:la_data_out_o[12] O *D ntt_wb_bridge
*CAP
1 la_data_out[12] 0.00383637
2 *739:la_data_out_o[12] 0.000188634
3 *303:21 0.0293024
4 *303:19 0.0260805
5 *303:13 0.00194362
6 *303:11 0.00151783
7 la_data_out[12] la_data_out[13] 0.0126108
8 la_data_out[12] la_data_out[22] 0.00110122
9 la_data_out[12] *344:25 0
10 *303:11 *310:21 4.08503e-05
11 *303:13 *304:13 0.000193522
12 *303:13 *306:13 0.00881211
13 *303:13 *310:21 0.00128132
14 *303:13 *322:21 0.00032929
15 *303:13 *330:13 0.000199566
16 *303:19 *304:13 0.000516314
17 *303:21 la_data_out[23] 0
18 *303:21 *337:43 0.0232667
19 *303:21 *339:27 0
20 *303:21 *343:27 0
21 *303:21 *343:37 0
22 la_data_out[11] la_data_out[12] 0.0158078
23 *272:37 la_data_out[12] 0.00118999
24 *272:47 la_data_out[12] 0.00080673
25 *294:13 *303:13 0.00869129
26 *294:13 *303:19 1.33285e-05
27 *294:19 *303:19 0.000747483
*RES
1 *739:la_data_out_o[12] *303:11 4.12403 
2 *303:11 *303:13 83.595 
3 *303:13 *303:19 14.885 
4 *303:19 *303:21 625.492 
5 *303:21 la_data_out[12] 36.9429 
*END

*D_NET *304 0.129442
*CONN
*P la_data_out[13] O
*I *739:la_data_out_o[13] O *D ntt_wb_bridge
*CAP
1 la_data_out[13] 0.00402322
2 *739:la_data_out_o[13] 0.000179769
3 *304:25 0.0392121
4 *304:23 0.0361093
5 *304:13 0.00250177
6 *304:11 0.00176113
7 la_data_out[13] la_data_out[19] 0.000366769
8 la_data_out[13] *344:25 0
9 *304:11 *310:21 6.96262e-05
10 *304:13 *305:13 0.00999097
11 *304:13 *306:13 0.00938411
12 *304:13 *310:21 0.000554361
13 *304:13 *322:21 0.000286558
14 *304:13 *332:23 0.000101392
15 *304:13 *366:21 0.00011003
16 *304:13 *388:25 0.000105621
17 *304:13 *399:21 0.000117246
18 *304:23 *310:21 0.00139909
19 *304:23 *314:27 0.00016669
20 *304:23 *322:23 0.000978164
21 *304:23 *326:19 0.000125125
22 *304:23 *337:41 0.000709568
23 *304:23 *338:35 0.000123776
24 la_data_out[12] la_data_out[13] 0.0126108
25 *272:47 la_data_out[13] 0.00774479
26 *303:13 *304:13 0.000193522
27 *303:19 *304:13 0.000516314
*RES
1 *739:la_data_out_o[13] *304:11 3.6875 
2 *304:11 *304:13 93.6 
3 *304:13 *304:23 8.44937 
4 *304:23 *304:25 623.325 
5 *304:25 la_data_out[13] 32.5585 
*END

*D_NET *305 0.12712
*CONN
*P la_data_out[14] O
*I *739:la_data_out_o[14] O *D ntt_wb_bridge
*CAP
1 la_data_out[14] 0.0359832
2 *739:la_data_out_o[14] 0.000215504
3 *305:23 0.0400666
4 *305:13 0.0056052
5 *305:11 0.00173733
6 *305:11 *310:21 9.27281e-05
7 *305:13 *306:13 0.000341577
8 *305:13 *307:13 0.010512
9 *305:13 *308:13 2.01934e-05
10 *305:13 *310:21 0.000728225
11 *305:13 *322:21 0.000312635
12 *305:13 *399:21 0.000101753
13 *305:23 *307:23 0.0113082
14 *305:23 *308:23 0.00983483
15 *305:23 *322:23 0
16 *305:23 *334:37 5.59745e-05
17 *124:21 la_data_out[14] 0.000213184
18 *304:13 *305:13 0.00999097
*RES
1 *739:la_data_out_o[14] *305:11 3.50597 
2 *305:11 *305:13 96.36 
3 *305:13 *305:23 25.8711 
4 *305:23 la_data_out[14] 638.062 
*END

*D_NET *306 0.188713
*CONN
*P la_data_out[15] O
*I *739:la_data_out_o[15] O *D ntt_wb_bridge
*CAP
1 la_data_out[15] 0.00342404
2 *739:la_data_out_o[15] 0.000277111
3 *306:17 0.0132252
4 *306:15 0.0098012
5 *306:13 0.00156658
6 *306:11 0.00184369
7 la_data_out[15] la_data_out[22] 2.9617e-05
8 la_data_out[15] la_data_out[38] 0.000667101
9 la_data_out[15] la_data_out[39] 0.000224196
10 la_data_out[15] *336:29 5.30717e-05
11 la_data_out[15] *338:51 0.000146008
12 *306:11 *310:21 0.00012347
13 *306:13 *307:13 0.000229089
14 *306:13 *310:21 0.00164764
15 *306:13 *322:21 0.000286558
16 *306:13 *330:13 0.000578797
17 *306:17 la_data_out[24] 3.06601e-05
18 *306:17 *311:25 0.00111998
19 *306:17 *311:35 0.000137094
20 *306:17 *313:17 0.0552159
21 *306:17 *328:19 0.000882531
22 *306:17 *330:17 3.63587e-05
23 *306:17 *341:47 0.000604525
24 *306:17 *341:49 0.0531785
25 la_data_out[10] la_data_out[15] 0.0127019
26 la_data_out[11] la_data_out[15] 0.0119246
27 *272:37 la_data_out[15] 0.000219474
28 *303:13 *306:13 0.00881211
29 *304:13 *306:13 0.00938411
30 *305:13 *306:13 0.000341577
*RES
1 *739:la_data_out_o[15] *306:11 4.08943 
2 *306:11 *306:13 95.67 
3 *306:13 *306:15 2 
4 *306:15 *306:17 626.513 
5 *306:17 la_data_out[15] 31.8442 
*END

*D_NET *307 0.120716
*CONN
*P la_data_out[16] O
*I *739:la_data_out_o[16] O *D ntt_wb_bridge
*CAP
1 la_data_out[16] 0.0360751
2 *739:la_data_out_o[16] 0.000151887
3 *307:23 0.0396929
4 *307:13 0.00543714
5 *307:11 0.0019712
6 *307:11 *310:21 8.63365e-05
7 *307:13 *308:13 0.0115831
8 *307:13 *310:21 0.000579262
9 *307:13 *322:21 0.00024436
10 *307:13 *330:13 0
11 *307:13 *366:21 0.000101018
12 *307:13 *399:21 0.000108734
13 *307:23 *308:23 0.000112272
14 *307:23 *310:21 1.37465e-05
15 *307:23 *312:15 0.0021184
16 *307:23 *324:19 0.000181462
17 *307:23 *331:35 0.000210071
18 *305:13 *307:13 0.010512
19 *305:23 *307:23 0.0113082
20 *306:13 *307:13 0.000229089
*RES
1 *739:la_data_out_o[16] *307:11 3.2231 
2 *307:11 *307:13 107.055 
3 *307:13 *307:23 22.2661 
4 *307:23 la_data_out[16] 638.573 
*END

*D_NET *308 0.117563
*CONN
*P la_data_out[17] O
*I *739:la_data_out_o[17] O *D ntt_wb_bridge
*CAP
1 la_data_out[17] 0.0360125
2 *739:la_data_out_o[17] 0.000289365
3 *308:23 0.0389848
4 *308:13 0.005016
5 *308:11 0.00233304
6 *308:11 *310:21 0.000159671
7 *308:13 *310:21 0.000345563
8 *308:13 *322:21 0.000225268
9 *308:13 *329:13 0.00497736
10 *308:13 *329:23 0.00359137
11 *308:13 *330:13 0
12 *308:13 *332:23 0.000101392
13 *308:13 *366:21 0.000110211
14 *308:13 *388:25 0.000106603
15 *308:13 *399:21 0.000118628
16 *308:23 *310:21 0.00361666
17 *308:23 *322:23 0
18 *308:23 *324:19 9.39388e-06
19 *308:23 *334:37 1.4548e-05
20 *305:13 *308:13 2.01934e-05
21 *305:23 *308:23 0.00983483
22 *307:13 *308:13 0.0115831
23 *307:23 *308:23 0.000112272
*RES
1 *739:la_data_out_o[17] *308:11 3.21637 
2 *308:11 *308:13 111.54 
3 *308:13 *308:23 19.1704 
4 *308:23 la_data_out[17] 637.552 
*END

*D_NET *309 0.245652
*CONN
*P la_data_out[18] O
*I *739:la_data_out_o[18] O *D ntt_wb_bridge
*CAP
1 la_data_out[18] 0.00412245
2 *739:la_data_out_o[18] 0.00266328
3 *309:25 0.059382
4 *309:23 0.0579229
5 la_data_out[18] la_data_out[21] 0.00345202
6 la_data_out[18] la_data_out[39] 0.000349889
7 la_data_out[18] *311:47 0.00154092
8 *309:23 *310:21 0.00986722
9 *309:23 *314:27 0.0131163
10 *309:23 *331:35 0.0018192
11 *309:23 *332:23 0.001581
12 *309:23 *334:29 3.18352e-05
13 *309:25 *317:19 0.000102302
14 *309:25 *319:27 0.00107772
15 *309:25 *320:19 0.0119671
16 *309:25 *321:21 0.000105649
17 *309:25 *321:23 0.00107772
18 *309:25 *324:19 0.0119659
19 *309:25 *329:25 0.000931023
20 *309:25 *331:37 0.00052287
21 *309:25 *334:39 0.00100354
22 *309:25 *335:29 0.00052287
23 *309:25 *366:21 0.00134584
24 la_data_out[10] la_data_out[18] 0.00159294
25 *134:19 *309:25 0
26 *272:25 *309:25 0
27 *283:13 *309:23 0.000949469
28 *283:25 *309:25 0.055565
29 *294:13 *309:23 0.00107306
*RES
1 *739:la_data_out_o[18] *309:23 25.3835 
2 *309:23 *309:25 106.327 
3 *309:25 la_data_out[18] 22.8852 
*END

*D_NET *310 0.122436
*CONN
*P la_data_out[19] O
*I *739:la_data_out_o[19] O *D ntt_wb_bridge
*CAP
1 la_data_out[19] 0.000848979
2 *739:la_data_out_o[19] 0.00865698
3 *310:23 0.0360353
4 *310:21 0.0438433
5 la_data_out[19] *311:47 0.000207844
6 *310:21 *314:27 0.00405528
7 *310:21 *322:21 0.00144002
8 *310:21 *322:23 0.00128702
9 *310:21 *331:35 1.75069e-05
10 *310:21 *332:23 0.00151492
11 *310:21 *333:29 0.000235426
12 *310:21 *344:17 0.000284351
13 *310:21 *355:21 0.00011201
14 *310:21 *366:21 0.000509691
15 *310:21 *377:29 0.000413106
16 *310:21 *388:25 0.000490588
17 *310:21 *399:21 0.000538517
18 la_data_out[13] la_data_out[19] 0.000366769
19 *283:11 *310:21 0.000159676
20 *283:13 *310:21 0.000454733
21 *294:11 *310:21 4.08474e-05
22 *294:13 *310:21 0.000317053
23 *303:11 *310:21 4.08503e-05
24 *303:13 *310:21 0.00128132
25 *304:11 *310:21 6.96262e-05
26 *304:13 *310:21 0.000554361
27 *304:23 *310:21 0.00139909
28 *305:11 *310:21 9.27281e-05
29 *305:13 *310:21 0.000728225
30 *306:11 *310:21 0.00012347
31 *306:13 *310:21 0.00164764
32 *307:11 *310:21 8.63365e-05
33 *307:13 *310:21 0.000579262
34 *307:23 *310:21 1.37465e-05
35 *308:11 *310:21 0.000159671
36 *308:13 *310:21 0.000345563
37 *308:23 *310:21 0.00361666
38 *309:23 *310:21 0.00986722
*RES
1 *739:la_data_out_o[19] *310:21 32.0957 
2 *310:21 *310:23 623.325 
3 *310:23 la_data_out[19] 14.3649 
*END

*D_NET *311 0.220802
*CONN
*P la_data_out[1] O
*I *739:la_data_out_o[1] O *D ntt_wb_bridge
*CAP
1 la_data_out[1] 0.000540169
2 *739:la_data_out_o[1] 0.000734822
3 *311:47 0.0139379
4 *311:37 0.0158224
5 *311:35 0.00251186
6 *311:25 0.0332061
7 *311:23 0.0338537
8 *311:23 *322:21 0.000377938
9 *311:23 *323:21 6.78001e-05
10 *311:23 *323:23 0.00013685
11 *311:23 *329:23 0.00032969
12 *311:23 *333:29 0.000715993
13 *311:23 *333:33 0.000261113
14 *311:23 *335:27 2.1315e-05
15 *311:23 *337:41 0.00064632
16 *311:23 *377:33 0
17 *311:23 *388:25 6.5449e-05
18 *311:25 la_data_out[24] 0.0117357
19 *311:25 *327:35 0.00234504
20 *311:25 *328:19 0.0012863
21 *311:25 *341:49 0.0118844
22 *311:35 *330:17 0.000137094
23 *311:35 *334:45 4.12831e-05
24 *311:35 *337:65 3.92756e-05
25 *311:37 la_data_out[25] 0.000306859
26 *311:37 *326:23 0.000508783
27 la_data_out[10] *311:47 0.0132792
28 la_data_out[11] *311:37 0.00109741
29 la_data_out[18] *311:47 0.00154092
30 la_data_out[19] *311:47 0.000207844
31 *96:18 *311:25 0.0105046
32 *272:23 *311:23 0.00116245
33 *272:25 *311:25 0.0562936
34 *272:37 *311:37 0.00394433
35 *272:47 *311:47 0
36 *306:17 *311:25 0.00111998
37 *306:17 *311:35 0.000137094
*RES
1 *739:la_data_out_o[1] *311:23 27.3841 
2 *311:23 *311:25 104.173 
3 *311:25 *311:35 4.82963 
4 *311:35 *311:37 64.965 
5 *311:37 *311:47 46.0608 
6 *311:47 la_data_out[1] 9.7425 
*END

*D_NET *312 0.111339
*CONN
*P la_data_out[20] O
*I *739:la_data_out_o[20] O *D ntt_wb_bridge
*CAP
1 la_data_out[20] 0.0361807
2 *739:la_data_out_o[20] 0.00586798
3 *312:15 0.0420487
4 *312:15 *314:27 0.000104961
5 *312:15 *327:15 0.00153506
6 *312:15 *331:19 0.0107687
7 *312:15 *331:35 1.95991e-05
8 *312:15 *332:23 3.10119e-05
9 *312:15 *333:29 0.000525481
10 *312:15 *334:29 0.0037843
11 *312:15 *337:21 0.00240166
12 *312:15 *344:17 0.000559421
13 *312:15 *377:29 0.00471951
14 *312:15 *388:25 0.000673922
15 *307:23 *312:15 0.0021184
*RES
1 *739:la_data_out_o[20] *312:15 35.7937 
2 *312:15 la_data_out[20] 640.102 
*END

*D_NET *313 0.181108
*CONN
*P la_data_out[21] O
*I *739:la_data_out_o[21] O *D ntt_wb_bridge
*CAP
1 la_data_out[21] 0.00172011
2 *739:la_data_out_o[21] 0.000393517
3 *313:17 0.0113219
4 *313:15 0.00960176
5 *313:13 0.00441176
6 *313:11 0.00480528
7 la_data_out[21] la_data_out[39] 8.7152e-06
8 la_data_out[21] *321:27 0.000446843
9 la_data_out[21] *324:23 1.31297e-05
10 la_data_out[21] *326:23 3.76057e-05
11 la_data_out[21] *329:43 0.000526059
12 la_data_out[21] *331:37 0
13 la_data_out[21] *332:25 6.13029e-05
14 la_data_out[21] *335:29 0
15 la_data_out[21] *338:51 0.000188247
16 *313:11 *314:27 0.000140841
17 *313:11 *329:13 0.000246116
18 *313:13 *314:27 0.0029961
19 *313:13 *327:15 0
20 *313:13 *330:13 0.0140047
21 *313:13 *331:35 0.000594704
22 *313:13 *333:29 0
23 *313:17 *330:17 0.0552981
24 *313:17 *341:47 4.5041e-05
25 *313:17 *342:39 1.1071e-05
26 la_data_out[10] la_data_out[21] 0.00344688
27 la_data_out[18] la_data_out[21] 0.00345202
28 *272:25 *313:17 0.0121207
29 *306:17 *313:17 0.0552159
*RES
1 *739:la_data_out_o[21] *313:11 5.80523 
2 *313:11 *313:13 127.065 
3 *313:13 *313:15 2 
4 *313:15 *313:17 624.345 
5 *313:17 la_data_out[21] 32.392 
*END

*D_NET *314 0.178785
*CONN
*P la_data_out[22] O
*I *739:la_data_out_o[22] O *D ntt_wb_bridge
*CAP
1 la_data_out[22] 0.00137658
2 *739:la_data_out_o[22] 0.003786
3 *314:29 0.0108865
4 *314:27 0.0132959
5 la_data_out[22] *336:29 0.000400992
6 la_data_out[22] *337:65 5.05934e-05
7 la_data_out[22] *344:25 0
8 *314:27 *321:21 0.000167492
9 *314:27 *324:19 0.000166623
10 *314:27 *330:13 0.00289279
11 *314:27 *331:35 7.8632e-06
12 *314:27 *332:23 0.000523975
13 *314:27 *334:29 0.0125324
14 *314:27 *337:41 0.000203145
15 *314:27 *340:31 0.000364195
16 *314:27 *351:33 0.000365401
17 *314:29 *332:25 0.000325287
18 *314:29 *340:31 1.94585e-05
19 *314:29 *344:19 0.0544654
20 *314:29 *351:35 0.0540335
21 la_data_out[11] la_data_out[22] 0.000298793
22 la_data_out[12] la_data_out[22] 0.00110122
23 la_data_out[15] la_data_out[22] 2.9617e-05
24 *134:19 *314:29 0.000685493
25 *294:21 *314:29 0.000226094
26 *304:23 *314:27 0.00016669
27 *309:23 *314:27 0.0131163
28 *310:21 *314:27 0.00405528
29 *312:15 *314:27 0.000104961
30 *313:11 *314:27 0.000140841
31 *313:13 *314:27 0.0029961
*RES
1 *739:la_data_out_o[22] *314:27 38.4386 
2 *314:27 *314:29 618.862 
3 *314:29 la_data_out[22] 15.9525 
*END

*D_NET *315 0.1176
*CONN
*P la_data_out[23] O
*I *739:la_data_out_o[23] O *D ntt_wb_bridge
*CAP
1 la_data_out[23] 0.0283689
2 *739:la_data_out_o[23] 0.00623018
3 *315:17 0.0345991
4 la_data_out[23] *336:19 0.0212797
5 la_data_out[23] *344:19 0
6 la_data_out[23] *351:33 0
7 *315:17 *316:17 0
8 *315:17 *334:29 4.49856e-05
9 *315:17 *336:17 0.017139
10 *315:17 *725:23 0.00290433
11 *315:17 *726:23 0.000166369
12 *315:17 *729:15 0.00241898
13 *315:17 *729:23 2.90027e-05
14 *315:17 *737:23 0.00351233
15 *315:17 *737:31 0.00022179
16 *134:19 la_data_out[23] 0.000685493
17 *294:21 la_data_out[23] 0
18 *303:21 la_data_out[23] 0
*RES
1 *739:la_data_out_o[23] *315:17 38.3797 
2 *315:17 la_data_out[23] 648.263 
*END

*D_NET *316 0.18351
*CONN
*P la_data_out[24] O
*I *739:la_data_out_o[24] O *D ntt_wb_bridge
*CAP
1 la_data_out[24] 0.00992289
2 *739:la_data_out_o[24] 0.00054349
3 *316:33 0.0110373
4 *316:19 0.00300378
5 *316:17 0.00243287
6 la_data_out[24] *323:23 0.000442889
7 la_data_out[24] *328:19 0.0548901
8 la_data_out[24] *342:41 0.0543257
9 *316:17 *334:29 6.21492e-05
10 *316:19 *317:15 0.0154239
11 *316:19 *328:15 0.0154213
12 *316:19 *338:23 0.00276317
13 *316:19 *366:21 0.000654551
14 *316:33 *323:21 2.91134e-05
15 *316:33 *323:23 1.87784e-05
16 *316:33 *327:35 1.16475e-05
17 *316:33 *328:19 6.44978e-06
18 *316:33 *342:39 5.83121e-06
19 *316:33 *377:29 0.000748233
20 *306:17 la_data_out[24] 3.06601e-05
21 *311:25 la_data_out[24] 0.0117357
22 *315:17 *316:17 0
*RES
1 *739:la_data_out_o[24] *316:17 8.41517 
2 *316:17 *316:19 139.485 
3 *316:19 *316:33 25.5225 
4 *316:33 la_data_out[24] 631.432 
*END

*D_NET *317 0.151918
*CONN
*P la_data_out[25] O
*I *739:la_data_out_o[25] O *D ntt_wb_bridge
*CAP
1 la_data_out[25] 0.000973304
2 *739:la_data_out_o[25] 0.000549434
3 *317:19 0.023185
4 *317:17 0.0222117
5 *317:15 0.00219787
6 *317:13 0.0027473
7 la_data_out[25] la_data_out[26] 0.00182117
8 la_data_out[25] *326:23 3.82293e-05
9 la_data_out[25] *328:23 0.00146989
10 la_data_out[25] *329:43 7.9642e-06
11 la_data_out[25] *337:65 0.000278843
12 *317:13 *334:29 0.000145708
13 *317:15 *318:15 0.0172036
14 *317:15 *326:15 0.000165462
15 *317:15 *328:15 0.000817468
16 *317:15 *338:23 0.000152088
17 *317:15 *342:21 0.00271962
18 *317:15 *355:21 0.000901889
19 *317:15 *366:21 0.000119028
20 *317:19 *318:19 0.0558616
21 *317:19 *325:19 0
22 *317:19 *355:21 0.00220734
23 *83:23 *317:19 3.03625e-05
24 *84:23 *317:19 6.28913e-05
25 *85:19 *317:19 1.05678e-05
26 *272:35 *317:19 0.000159282
27 *272:37 la_data_out[25] 4.77769e-05
28 *309:25 *317:19 0.000102302
29 *311:37 la_data_out[25] 0.000306859
30 *316:19 *317:15 0.0154239
*RES
1 *739:la_data_out_o[25] *317:13 8.15763 
2 *317:13 *317:15 155.7 
3 *317:15 *317:17 2 
4 *317:17 *317:19 631.23 
5 *317:19 la_data_out[25] 33.265 
*END

*D_NET *318 0.187052
*CONN
*P la_data_out[26] O
*I *739:la_data_out_o[26] O *D ntt_wb_bridge
*CAP
1 la_data_out[26] 0.00118626
2 *739:la_data_out_o[26] 0.00065823
3 *318:19 0.0110179
4 *318:17 0.00983167
5 *318:15 0.00226705
6 *318:13 0.00292528
7 la_data_out[26] *319:33 0.000145609
8 la_data_out[26] *328:23 1.43622e-05
9 la_data_out[26] *329:45 0.00143595
10 la_data_out[26] *330:23 0.00307989
11 la_data_out[26] *338:55 0.000684594
12 *318:13 *334:29 0.00017985
13 *318:15 *319:15 0.0176643
14 *318:15 *320:15 8.05167e-05
15 *318:15 *326:15 8.73389e-06
16 *318:15 *328:15 0.000236672
17 *318:15 *338:23 0.000165928
18 *318:15 *342:21 0.00261106
19 *318:15 *355:21 0.000937951
20 *318:19 *320:19 0.0558616
21 la_data_out[25] la_data_out[26] 0.00182117
22 *272:35 *318:19 9.39388e-06
23 *272:37 la_data_out[26] 8.53011e-05
24 *283:25 *318:19 0.00107772
25 *317:15 *318:15 0.0172036
26 *317:19 *318:19 0.0558616
*RES
1 *739:la_data_out_o[26] *318:13 7.9761 
2 *318:13 *318:15 161.22 
3 *318:15 *318:17 2 
4 *318:17 *318:19 631.485 
5 *318:19 la_data_out[26] 47.275 
*END

*D_NET *319 0.189097
*CONN
*P la_data_out[27] O
*I *739:la_data_out_o[27] O *D ntt_wb_bridge
*CAP
1 la_data_out[27] 0.000618425
2 *739:la_data_out_o[27] 0.000548335
3 *319:33 0.00145851
4 *319:27 0.0103098
5 *319:25 0.0101614
6 *319:15 0.00299773
7 *319:13 0.00285431
8 *319:13 *334:29 0.000246431
9 *319:15 *320:15 0.0182323
10 *319:15 *328:15 0.000187138
11 *319:15 *337:21 0.00351081
12 *319:15 *355:21 0.000609876
13 *319:25 *325:19 0.000802491
14 *319:25 *342:39 2.8159e-05
15 *319:25 *355:21 0.000846499
16 *319:27 *320:19 0.054397
17 *319:27 *321:23 0.0541756
18 *319:27 *324:19 2.04649e-05
19 *319:27 *331:37 0
20 *319:33 la_data_out[38] 0.000936647
21 *319:33 *320:23 0.00484337
22 *319:33 *330:23 0.00183897
23 *319:33 *330:25 0.000559954
24 la_data_out[26] *319:33 0.000145609
25 *272:37 *319:33 2.51225e-05
26 *309:25 *319:27 0.00107772
27 *318:15 *319:15 0.0176643
*RES
1 *739:la_data_out_o[27] *319:13 7.79457 
2 *319:13 *319:15 165.015 
3 *319:15 *319:25 26.13 
4 *319:25 *319:27 613.89 
5 *319:27 *319:33 48.955 
6 *319:33 la_data_out[27] 10.89 
*END

*D_NET *320 0.204437
*CONN
*P la_data_out[28] O
*I *739:la_data_out_o[28] O *D ntt_wb_bridge
*CAP
1 la_data_out[28] 0.00059682
2 *739:la_data_out_o[28] 0.000547785
3 *320:23 0.00277039
4 *320:21 0.00217357
5 *320:19 0.00985178
6 *320:17 0.00985178
7 *320:15 0.00251689
8 *320:13 0.00306468
9 *320:13 *334:29 0.000296792
10 *320:15 *321:15 0.000291478
11 *320:15 *323:15 0.0184647
12 *320:15 *328:15 7.40283e-05
13 *320:15 *337:21 0.00333627
14 *320:15 *355:21 0.000665374
15 *320:19 *321:21 0.00144888
16 *320:19 *321:23 9.08909e-06
17 *320:23 la_data_out[38] 0.000552211
18 *320:23 la_data_out[39] 0.00208344
19 *320:23 *330:25 0.00045932
20 *309:25 *320:19 0.0119671
21 *318:15 *320:15 8.05167e-05
22 *318:19 *320:19 0.0558616
23 *319:15 *320:15 0.0182323
24 *319:27 *320:19 0.054397
25 *319:33 *320:23 0.00484337
*RES
1 *739:la_data_out_o[28] *320:13 7.61303 
2 *320:13 *320:15 171.915 
3 *320:15 *320:17 2 
4 *320:17 *320:19 631.74 
5 *320:19 *320:21 2 
6 *320:21 *320:23 58.065 
7 *320:23 la_data_out[28] 12.635 
*END

*D_NET *321 0.197891
*CONN
*P la_data_out[29] O
*I *739:la_data_out_o[29] O *D ntt_wb_bridge
*CAP
1 la_data_out[29] 0.000836603
2 *739:la_data_out_o[29] 0.000542987
3 *321:27 0.0031346
4 *321:25 0.002298
5 *321:23 0.00932753
6 *321:21 0.00976341
7 *321:15 0.00297907
8 *321:13 0.00308617
9 *321:13 *334:29 0.000345101
10 *321:15 *323:15 0.019031
11 *321:15 *324:15 0.000161033
12 *321:15 *325:15 0.0192863
13 *321:15 *337:21 0.00362782
14 *321:15 *344:17 0.000725223
15 *321:21 *324:19 0.000695842
16 *321:23 *324:19 0.0542019
17 *321:27 *323:27 0.00713235
18 *321:27 *324:23 0.000365481
19 *321:27 *329:43 0.000922161
20 *321:27 *334:45 0.00170553
21 la_data_out[21] *321:27 0.000446843
22 *309:25 *321:21 0.000105649
23 *309:25 *321:23 0.00107772
24 *314:27 *321:21 0.000167492
25 *319:27 *321:23 0.0541756
26 *320:15 *321:15 0.000291478
27 *320:19 *321:21 0.00144888
28 *320:19 *321:23 9.08909e-06
*RES
1 *739:la_data_out_o[29] *321:13 7.1765 
2 *321:13 *321:15 177.435 
3 *321:15 *321:21 19.3625 
4 *321:21 *321:23 611.362 
5 *321:23 *321:25 2 
6 *321:25 *321:27 71.865 
7 *321:27 la_data_out[29] 15.695 
*END

*D_NET *322 0.133629
*CONN
*P la_data_out[2] O
*I *739:la_data_out_o[2] O *D ntt_wb_bridge
*CAP
1 la_data_out[2] 0.035761
2 *739:la_data_out_o[2] 0.00112629
3 *322:25 0.035761
4 *322:23 0.0139736
5 *322:21 0.0150999
6 *322:21 *329:23 0.000112958
7 *322:21 *332:23 4.83187e-05
8 *322:21 *333:29 0.000572609
9 *322:21 *337:41 6.54119e-05
10 *322:23 *333:33 0
11 *322:23 *337:41 0.00182892
12 *322:23 *388:29 0.0234681
13 *272:23 *322:21 4.33067e-05
14 *303:13 *322:21 0.00032929
15 *304:13 *322:21 0.000286558
16 *304:23 *322:23 0.000978164
17 *305:13 *322:21 0.000312635
18 *305:23 *322:23 0
19 *306:13 *322:21 0.000286558
20 *307:13 *322:21 0.00024436
21 *308:13 *322:21 0.000225268
22 *308:23 *322:23 0
23 *310:21 *322:21 0.00144002
24 *310:21 *322:23 0.00128702
25 *311:23 *322:21 0.000377938
*RES
1 *739:la_data_out_o[2] *322:21 20.1424 
2 *322:21 *322:23 49.6812 
3 *322:23 *322:25 0.5 
4 *322:25 la_data_out[2] 634.492 
*END

*D_NET *323 0.1821
*CONN
*P la_data_out[30] O
*I *739:la_data_out_o[30] O *D ntt_wb_bridge
*CAP
1 la_data_out[30] 0.000817189
2 *739:la_data_out_o[30] 0.000568077
3 *323:27 0.0022333
4 *323:25 0.00141611
5 *323:23 0.0150798
6 *323:21 0.0155279
7 *323:15 0.003134
8 *323:13 0.00325397
9 *323:13 *334:29 0.000397515
10 *323:15 *325:15 0.000341577
11 *323:15 *328:15 0
12 *323:15 *337:21 0.00332523
13 *323:15 *342:21 0.000121986
14 *323:15 *344:17 0.000791217
15 *323:21 *328:19 0.000839394
16 *323:21 *335:27 0
17 *323:21 *388:25 0.000176919
18 *323:23 *327:39 0.0147561
19 *323:23 *328:19 9.93404e-06
20 *323:23 *335:27 0
21 *323:23 *337:65 1.71485e-05
22 *323:23 *341:47 0.000690662
23 *323:23 *342:41 0.0543246
24 *323:27 *324:23 0.00859503
25 *323:27 *334:45 0.00188437
26 la_data_out[24] *323:23 0.000442889
27 *86:19 *323:23 8.01857e-05
28 *87:19 *323:23 9.5799e-06
29 *95:27 *323:23 1.88602e-05
30 *272:25 *323:23 0.00836625
31 *311:23 *323:21 6.78001e-05
32 *311:23 *323:23 0.00013685
33 *316:33 *323:21 2.91134e-05
34 *316:33 *323:23 1.87784e-05
35 *320:15 *323:15 0.0184647
36 *321:15 *323:15 0.019031
37 *321:27 *323:27 0.00713235
*RES
1 *739:la_data_out_o[30] *323:13 7.50497 
2 *323:13 *323:15 177.435 
3 *323:15 *323:21 12.9725 
4 *323:21 *323:23 618.607 
5 *323:23 *323:25 2 
6 *323:25 *323:27 79.11 
7 *323:27 la_data_out[30] 15.44 
*END

*D_NET *324 0.221022
*CONN
*P la_data_out[31] O
*I *739:la_data_out_o[31] O *D ntt_wb_bridge
*CAP
1 la_data_out[31] 0.000795584
2 *739:la_data_out_o[31] 0.00057388
3 *324:23 0.00260314
4 *324:21 0.00180756
5 *324:19 0.00979853
6 *324:17 0.00979853
7 *324:15 0.00301132
8 *324:13 0.0035852
9 *324:13 *325:13 0
10 *324:13 *334:29 0.000227525
11 *324:15 *325:15 0.0206151
12 *324:15 *326:15 0
13 *324:15 *327:15 0.0196729
14 *324:15 *337:21 0.00291706
15 *324:15 *388:25 0.00119141
16 *324:19 *329:23 0.000936044
17 *324:19 *329:25 0.000195633
18 *324:19 *331:37 4.56429e-06
19 *324:19 *334:39 0.0539147
20 *324:19 *338:35 0
21 *324:23 *325:23 0.0103842
22 *324:23 *326:23 0.000206242
23 *324:23 *335:35 0.00240616
24 la_data_out[21] *324:23 1.31297e-05
25 *307:23 *324:19 0.000181462
26 *308:23 *324:19 9.39388e-06
27 *309:25 *324:19 0.0119659
28 *314:27 *324:19 0.000166623
29 *319:27 *324:19 2.04649e-05
30 *321:15 *324:15 0.000161033
31 *321:21 *324:19 0.000695842
32 *321:23 *324:19 0.0542019
33 *321:27 *324:23 0.000365481
34 *323:27 *324:23 0.00859503
*RES
1 *739:la_data_out_o[31] *324:13 6.5221 
2 *324:13 *324:15 190.2 
3 *324:15 *324:17 2 
4 *324:17 *324:19 628.17 
5 *324:19 *324:21 2 
6 *324:21 *324:23 99.12 
7 *324:23 la_data_out[31] 15.185 
*END

*D_NET *325 0.164486
*CONN
*P la_data_out[32] O
*I *739:la_data_out_o[32] O *D ntt_wb_bridge
*CAP
1 la_data_out[32] 0.000773979
2 *739:la_data_out_o[32] 0.000575567
3 *325:23 0.0026282
4 *325:21 0.00185422
5 *325:19 0.024078
6 *325:17 0.024078
7 *325:15 0.00291667
8 *325:13 0.00349224
9 *325:13 *334:29 0.000498237
10 *325:15 *327:15 0.000219239
11 *325:15 *328:15 0
12 *325:15 *337:21 0.00319845
13 *325:15 *388:25 0.00130746
14 *325:19 *330:17 0.0315201
15 *325:19 *342:39 0.00088286
16 *325:19 *355:21 0
17 *325:23 *326:23 0.0118093
18 *325:23 *335:35 0.00251811
19 *83:23 *325:19 1.38283e-05
20 *85:19 *325:19 5.89198e-05
21 *283:25 *325:19 0.00063334
22 *317:19 *325:19 0
23 *319:25 *325:19 0.000802491
24 *321:15 *325:15 0.0192863
25 *323:15 *325:15 0.000341577
26 *324:13 *325:13 0
27 *324:15 *325:15 0.0206151
28 *324:23 *325:23 0.0103842
*RES
1 *739:la_data_out_o[32] *325:13 7.1419 
2 *325:13 *325:15 190.2 
3 *325:15 *325:17 2 
4 *325:17 *325:19 628.68 
5 *325:19 *325:21 2 
6 *325:21 *325:23 108.78 
7 *325:23 la_data_out[32] 14.93 
*END

*D_NET *326 0.212343
*CONN
*P la_data_out[33] O
*I *739:la_data_out_o[33] O *D ntt_wb_bridge
*CAP
1 la_data_out[33] 0.000752375
2 *739:la_data_out_o[33] 0.000761805
3 *326:23 0.00307937
4 *326:21 0.002327
5 *326:19 0.00972976
6 *326:17 0.00972976
7 *326:15 0.00656874
8 *326:13 0.00733054
9 *326:13 *330:13 0.000101753
10 *326:13 *334:29 0.000545281
11 *326:15 *328:15 0.0213736
12 *326:15 *340:25 0.00365047
13 *326:15 *345:27 0
14 *326:15 *346:19 0.00435608
15 *326:15 *351:23 0
16 *326:15 *399:21 0.00117703
17 *326:15 *726:15 0
18 *326:19 *332:25 0.0552989
19 *326:19 *338:35 0.000591724
20 *326:19 *338:37 0.0533082
21 *326:19 *338:51 0.00162346
22 *326:19 *340:31 0.00034983
23 *326:19 *399:21 0.000109931
24 *326:23 *327:43 0.0128319
25 *326:23 *328:23 0.000124845
26 *326:23 *336:29 0.00309757
27 la_data_out[21] *326:23 3.76057e-05
28 la_data_out[25] *326:23 3.82293e-05
29 *120:19 *326:19 0.000204197
30 *134:19 *326:19 0.000419775
31 *304:23 *326:19 0.000125125
32 *311:37 *326:23 0.000508783
33 *317:15 *326:15 0.000165462
34 *318:15 *326:15 8.73389e-06
35 *324:15 *326:15 0
36 *324:23 *326:23 0.000206242
37 *325:23 *326:23 0.0118093
*RES
1 *739:la_data_out_o[33] *326:13 9.51037 
2 *326:13 *326:15 202.62 
3 *326:15 *326:17 2 
4 *326:17 *326:19 631.23 
5 *326:19 *326:21 2 
6 *326:21 *326:23 129.48 
7 *326:23 la_data_out[33] 14.675 
*END

*D_NET *327 0.16112
*CONN
*P la_data_out[34] O
*I *739:la_data_out_o[34] O *D ntt_wb_bridge
*CAP
1 la_data_out[34] 0.00073077
2 *739:la_data_out_o[34] 0.000597186
3 *327:43 0.00286244
4 *327:41 0.00213167
5 *327:39 0.0153762
6 *327:37 0.0153762
7 *327:35 0.0145272
8 *327:15 0.0213402
9 *327:13 0.00741021
10 *327:13 *330:13 0.000112775
11 *327:13 *334:29 0.000573091
12 *327:15 *328:15 0
13 *327:15 *331:19 0.00054309
14 *327:15 *333:29 0.00137598
15 *327:15 *337:21 0.0011246
16 *327:15 *377:29 0.00104012
17 *327:15 *388:25 0.000119756
18 *327:35 *333:29 0.000434064
19 *327:35 *337:41 0.000386107
20 *327:35 *377:29 1.10838e-05
21 *327:39 *337:65 0.000115887
22 *327:43 *328:23 0.014257
23 *327:43 *336:29 0.00315185
24 *86:19 *327:39 0.000146945
25 *87:19 *327:39 1.7635e-05
26 *95:27 *327:39 7.96104e-06
27 *96:18 *327:39 0.00597805
28 *272:25 *327:35 0
29 *311:25 *327:35 0.00234504
30 *312:15 *327:15 0.00153506
31 *313:13 *327:15 0
32 *316:33 *327:35 1.16475e-05
33 *323:23 *327:39 0.0147561
34 *324:15 *327:15 0.0196729
35 *325:15 *327:15 0.000219239
36 *326:23 *327:43 0.0128319
*RES
1 *739:la_data_out_o[34] *327:13 6.77883 
2 *327:13 *327:15 191.925 
3 *327:15 *327:35 49.9662 
4 *327:35 *327:37 0.5 
5 *327:37 *327:39 389.617 
6 *327:39 *327:41 2 
7 *327:41 *327:43 131.205 
8 *327:43 la_data_out[34] 14.42 
*END

*D_NET *328 0.226218
*CONN
*P la_data_out[35] O
*I *739:la_data_out_o[35] O *D ntt_wb_bridge
*CAP
1 la_data_out[35] 0.000709165
2 *739:la_data_out_o[35] 0.000512113
3 *328:23 0.00308958
4 *328:21 0.00238042
5 *328:19 0.00992541
6 *328:17 0.00992541
7 *328:15 0.0040048
8 *328:13 0.00451691
9 *328:13 *334:29 5.01954e-05
10 *328:15 *338:23 0.00492618
11 *328:15 *346:19 0.00102218
12 *328:15 *366:21 0.000726711
13 *328:19 *335:27 0
14 *328:19 *341:47 0.00112369
15 *328:19 *341:49 0.0531759
16 *328:23 *329:45 0.0144435
17 *328:23 *337:65 0.00379499
18 la_data_out[24] *328:19 0.0548901
19 la_data_out[25] *328:23 0.00146989
20 la_data_out[26] *328:23 1.43622e-05
21 *306:17 *328:19 0.000882531
22 *311:25 *328:19 0.0012863
23 *316:19 *328:15 0.0154213
24 *316:33 *328:19 6.44978e-06
25 *317:15 *328:15 0.000817468
26 *318:15 *328:15 0.000236672
27 *319:15 *328:15 0.000187138
28 *320:15 *328:15 7.40283e-05
29 *323:15 *328:15 0
30 *323:21 *328:19 0.000839394
31 *323:23 *328:19 9.93404e-06
32 *325:15 *328:15 0
33 *326:15 *328:15 0.0213736
34 *326:23 *328:23 0.000124845
35 *327:15 *328:15 0
36 *327:43 *328:23 0.014257
*RES
1 *739:la_data_out_o[35] *328:13 8.5283 
2 *328:13 *328:15 208.83 
3 *328:15 *328:17 2 
4 *328:17 *328:19 631.485 
5 *328:19 *328:21 2 
6 *328:21 *328:23 146.73 
7 *328:23 la_data_out[35] 14.165 
*END

*D_NET *329 0.204975
*CONN
*P la_data_out[36] O
*I *739:la_data_out_o[36] O *D ntt_wb_bridge
*CAP
1 la_data_out[36] 0.00068756
2 *739:la_data_out_o[36] 9.38627e-05
3 *329:45 0.00303768
4 *329:43 0.00347136
5 *329:25 0.010487
6 *329:23 0.0106303
7 *329:13 0.0103532
8 *329:11 0.00918249
9 *329:13 *330:13 0
10 *329:13 *337:41 3.7969e-05
11 *329:13 *366:21 0.000200064
12 *329:13 *399:21 0.000212334
13 *329:23 *334:37 0
14 *329:23 *337:41 0.000552947
15 *329:23 *366:21 0.000118136
16 *329:25 *331:37 0.0537865
17 *329:25 *334:37 0.000147399
18 *329:25 *334:39 0.0538388
19 *329:25 *366:21 0.000105649
20 *329:43 *334:45 0.000258669
21 *329:45 *330:23 2.54159e-05
22 *329:45 *330:25 0.0143866
23 *329:45 *337:65 0.00350674
24 la_data_out[21] *329:43 0.000526059
25 la_data_out[25] *329:43 7.9642e-06
26 la_data_out[26] *329:45 0.00143595
27 *272:23 *329:23 0.0011988
28 *308:13 *329:13 0.00497736
29 *308:13 *329:23 0.00359137
30 *309:25 *329:25 0.000931023
31 *311:23 *329:23 0.00032969
32 *313:11 *329:13 0.000246116
33 *321:27 *329:43 0.000922161
34 *322:21 *329:23 0.000112958
35 *324:19 *329:23 0.000936044
36 *324:19 *329:25 0.000195633
37 *328:23 *329:45 0.0144435
*RES
1 *739:la_data_out_o[36] *329:11 2.86423 
2 *329:11 *329:13 186.577 
3 *329:13 *329:23 46.895 
4 *329:23 *329:25 611.213 
5 *329:25 *329:43 29.955 
6 *329:43 *329:45 146.04 
7 *329:45 la_data_out[36] 13.91 
*END

*D_NET *330 0.195765
*CONN
*P la_data_out[37] O
*I *739:la_data_out_o[37] O *D ntt_wb_bridge
*CAP
1 la_data_out[37] 0.000665956
2 *739:la_data_out_o[37] 0.000198456
3 *330:25 0.0057255
4 *330:23 0.00559722
5 *330:17 0.0120026
6 *330:15 0.0114649
7 *330:13 0.00806248
8 *330:11 0.00826093
9 *330:11 *334:29 2.50672e-05
10 *330:13 *334:29 0.00100356
11 *330:17 *342:39 0.000600481
12 *330:23 *338:55 0.000630432
13 *330:25 *338:55 0.00693717
14 la_data_out[26] *330:23 0.00307989
15 *272:25 *330:17 0.00134185
16 *283:13 *330:13 0.00744404
17 *294:13 *330:13 0.000571869
18 *303:13 *330:13 0.000199566
19 *306:13 *330:13 0.000578797
20 *306:17 *330:17 3.63587e-05
21 *307:13 *330:13 0
22 *308:13 *330:13 0
23 *311:35 *330:17 0.000137094
24 *313:13 *330:13 0.0140047
25 *313:17 *330:17 0.0552981
26 *314:27 *330:13 0.00289279
27 *319:33 *330:23 0.00183897
28 *319:33 *330:25 0.000559954
29 *320:23 *330:25 0.00045932
30 *325:19 *330:17 0.0315201
31 *326:13 *330:13 0.000101753
32 *327:13 *330:13 0.000112775
33 *329:13 *330:13 0
34 *329:45 *330:23 2.54159e-05
35 *329:45 *330:25 0.0143866
*RES
1 *739:la_data_out_o[37] *330:11 4.9777 
2 *330:11 *330:13 220.56 
3 *330:13 *330:15 2 
4 *330:15 *330:17 626.895 
5 *330:17 *330:23 31.2725 
6 *330:23 *330:25 145.867 
7 *330:25 la_data_out[37] 13.655 
*END

*D_NET *331 0.23989
*CONN
*P la_data_out[38] O
*I *739:la_data_out_o[38] O *D ntt_wb_bridge
*CAP
1 la_data_out[38] 0.00467858
2 *739:la_data_out_o[38] 0.00508398
3 *331:37 0.0141158
4 *331:35 0.0108387
5 *331:19 0.00648544
6 la_data_out[38] la_data_out[39] 0.020094
7 la_data_out[38] *338:51 0.000767151
8 la_data_out[38] *338:55 0.0206076
9 *331:19 *332:23 0.0224772
10 *331:19 *333:29 5.05716e-06
11 *331:19 *334:29 0.000188684
12 *331:19 *337:21 0.00463497
13 *331:35 *332:23 0.000385084
14 *331:35 *333:29 0.000593305
15 *331:35 *334:29 0.00207016
16 *331:35 *334:37 0.00154258
17 *331:35 *338:35 0
18 *331:35 *399:21 0.000109931
19 *331:37 *334:39 3.92924e-05
20 *331:37 *335:29 0.053773
21 *331:37 *366:21 0.000105649
22 la_data_out[15] la_data_out[38] 0.000667101
23 la_data_out[21] *331:37 0
24 *283:23 *331:35 0.000843392
25 *283:23 *331:37 0
26 *307:23 *331:35 0.000210071
27 *309:23 *331:35 0.0018192
28 *309:25 *331:37 0.00052287
29 *310:21 *331:35 1.75069e-05
30 *312:15 *331:19 0.0107687
31 *312:15 *331:35 1.95991e-05
32 *313:13 *331:35 0.000594704
33 *314:27 *331:35 7.8632e-06
34 *319:27 *331:37 0
35 *319:33 la_data_out[38] 0.000936647
36 *320:23 la_data_out[38] 0.000552211
37 *324:19 *331:37 4.56429e-06
38 *327:15 *331:19 0.00054309
39 *329:25 *331:37 0.0537865
*RES
1 *739:la_data_out_o[38] *331:19 41.111 
2 *331:19 *331:35 41.9069 
3 *331:35 *331:37 609.555 
4 *331:37 la_data_out[38] 44.5337 
*END

*D_NET *332 0.23789
*CONN
*P la_data_out[39] O
*I *739:la_data_out_o[39] O *D ntt_wb_bridge
*CAP
1 la_data_out[39] 0.00995434
2 *739:la_data_out_o[39] 0.00581704
3 *332:25 0.0197257
4 *332:23 0.0155884
5 la_data_out[39] *338:55 0.000808997
6 *332:23 *334:29 0.0244991
7 *332:23 *337:41 0.00062617
8 *332:25 *338:51 3.80441e-05
9 *332:25 *340:31 0.0545307
10 *332:25 *399:21 0.000102302
11 la_data_out[10] la_data_out[39] 0.000425602
12 la_data_out[15] la_data_out[39] 0.000224196
13 la_data_out[18] la_data_out[39] 0.000349889
14 la_data_out[21] la_data_out[39] 8.7152e-06
15 la_data_out[21] *332:25 6.13029e-05
16 la_data_out[38] la_data_out[39] 0.020094
17 *134:19 *332:25 0.000419775
18 *272:23 *332:23 0.000143611
19 *294:21 *332:25 0
20 *304:13 *332:23 0.000101392
21 *308:13 *332:23 0.000101392
22 *309:23 *332:23 0.001581
23 *310:21 *332:23 0.00151492
24 *312:15 *332:23 3.10119e-05
25 *314:27 *332:23 0.000523975
26 *314:29 *332:25 0.000325287
27 *320:23 la_data_out[39] 0.00208344
28 *322:21 *332:23 4.83187e-05
29 *326:19 *332:25 0.0552989
30 *331:19 *332:23 0.0224772
31 *331:35 *332:23 0.000385084
*RES
1 *739:la_data_out_o[39] *332:23 45.9465 
2 *332:23 *332:25 627.405 
3 *332:25 la_data_out[39] 49.0792 
*END

*D_NET *333 0.116657
*CONN
*P la_data_out[3] O
*I *739:la_data_out_o[3] O *D ntt_wb_bridge
*CAP
1 la_data_out[3] 0.0355665
2 *739:la_data_out_o[3] 0.00140745
3 *333:33 0.0540013
4 *333:29 0.0198422
5 *333:29 *335:27 0.00036672
6 *333:29 *337:21 0.000320407
7 *333:29 *377:29 0.000433033
8 *333:33 *337:41 0
9 *333:33 *388:29 0
10 *126:31 *333:33 0
11 *310:21 *333:29 0.000235426
12 *311:23 *333:29 0.000715993
13 *311:23 *333:33 0.000261113
14 *312:15 *333:29 0.000525481
15 *313:13 *333:29 0
16 *322:21 *333:29 0.000572609
17 *322:23 *333:33 0
18 *327:15 *333:29 0.00137598
19 *327:35 *333:29 0.000434064
20 *331:19 *333:29 5.05716e-06
21 *331:35 *333:29 0.000593305
*RES
1 *739:la_data_out_o[3] *333:29 49.0235 
2 *333:29 *333:33 48.0253 
3 *333:33 la_data_out[3] 630.922 
*END

*D_NET *334 0.242439
*CONN
*P la_data_out[40] O
*I *739:la_data_out_o[40] O *D ntt_wb_bridge
*CAP
1 la_data_out[40] 0.000761619
2 *739:la_data_out_o[40] 0.00650799
3 *334:45 0.0101832
4 *334:39 0.0187147
5 *334:37 0.0100413
6 *334:29 0.00725624
7 *334:29 *337:21 0.00159339
8 *334:37 *338:35 0
9 *334:37 *399:21 0.000102302
10 *334:39 *366:21 0.00012665
11 *334:45 *335:35 0.0242425
12 *334:45 *337:65 0.000483755
13 *94:17 *334:45 0
14 *272:35 *334:45 0.000230848
15 *305:23 *334:37 5.59745e-05
16 *308:23 *334:37 1.4548e-05
17 *309:23 *334:29 3.18352e-05
18 *309:25 *334:39 0.00100354
19 *311:35 *334:45 4.12831e-05
20 *312:15 *334:29 0.0037843
21 *314:27 *334:29 0.0125324
22 *315:17 *334:29 4.49856e-05
23 *316:17 *334:29 6.21492e-05
24 *317:13 *334:29 0.000145708
25 *318:13 *334:29 0.00017985
26 *319:13 *334:29 0.000246431
27 *320:13 *334:29 0.000296792
28 *321:13 *334:29 0.000345101
29 *321:27 *334:45 0.00170553
30 *323:13 *334:29 0.000397515
31 *323:27 *334:45 0.00188437
32 *324:13 *334:29 0.000227525
33 *324:19 *334:39 0.0539147
34 *325:13 *334:29 0.000498237
35 *326:13 *334:29 0.000545281
36 *327:13 *334:29 0.000573091
37 *328:13 *334:29 5.01954e-05
38 *329:23 *334:37 0
39 *329:25 *334:37 0.000147399
40 *329:25 *334:39 0.0538388
41 *329:43 *334:45 0.000258669
42 *330:11 *334:29 2.50672e-05
43 *330:13 *334:29 0.00100356
44 *331:19 *334:29 0.000188684
45 *331:35 *334:29 0.00207016
46 *331:35 *334:37 0.00154258
47 *331:37 *334:39 3.92924e-05
48 *332:23 *334:29 0.0244991
*RES
1 *739:la_data_out_o[40] *334:29 47.4096 
2 *334:29 *334:37 23.8225 
3 *334:37 *334:39 608.153 
4 *334:39 *334:45 37.9791 
5 *334:45 la_data_out[40] 13.3125 
*END

*D_NET *335 0.235429
*CONN
*P la_data_out[41] O
*I *739:la_data_out_o[41] O *D ntt_wb_bridge
*CAP
1 la_data_out[41] 0.000727051
2 *739:la_data_out_o[41] 0.00117803
3 *335:35 0.00572901
4 *335:29 0.0267673
5 *335:27 0.0242715
6 *335:17 0.0116252
7 *335:13 0.0102971
8 *335:13 *337:21 0.000328602
9 *335:17 *740:mem_we 8.58052e-05
10 *335:17 *343:25 0.00633437
11 *335:17 *348:43 0.0042392
12 *335:17 *349:31 0.00252547
13 *335:17 *350:27 0.00422508
14 *335:17 *725:23 0.0262792
15 *335:17 *728:23 0
16 *335:27 *341:47 0.00010789
17 *335:27 *355:25 8.21992e-05
18 *335:27 *377:29 0.000249379
19 *335:27 *388:25 0.000212434
20 *335:29 *338:37 0
21 *335:29 *338:51 0
22 *335:29 *366:21 0.000118136
23 *335:35 *336:29 0.0258514
24 *335:35 *337:65 6.05994e-05
25 la_data_out[21] *335:29 0
26 *283:23 *335:27 0.000282848
27 *309:25 *335:29 0.00052287
28 *311:23 *335:27 2.1315e-05
29 *323:21 *335:27 0
30 *323:23 *335:27 0
31 *324:23 *335:35 0.00240616
32 *325:23 *335:35 0.00251811
33 *328:19 *335:27 0
34 *331:37 *335:29 0.053773
35 *333:29 *335:27 0.00036672
36 *334:45 *335:35 0.0242425
*RES
1 *739:la_data_out_o[41] *335:13 13.5511 
2 *335:13 *335:17 40.6255 
3 *335:17 *335:27 35.2379 
4 *335:27 *335:29 606.495 
5 *335:29 *335:35 40.4263 
6 *335:35 la_data_out[41] 12.8025 
*END

*D_NET *336 0.234352
*CONN
*P la_data_out[42] O
*I *739:la_data_out_o[42] O *D ntt_wb_bridge
*CAP
1 la_data_out[42] 0.000692483
2 *739:la_data_out_o[42] 0.000864938
3 *336:29 0.00631078
4 *336:19 0.0212174
5 *336:17 0.0255347
6 *336:13 0.0108006
7 *336:13 *337:21 0.000472149
8 *336:17 *339:21 0.00506357
9 *336:17 *339:25 0.000876031
10 *336:17 *341:47 0.00535384
11 *336:17 *345:35 0.000238075
12 *336:17 *346:27 0.00235164
13 *336:17 *725:23 0
14 *336:17 *729:15 0.00171408
15 *336:17 *737:31 3.72213e-05
16 *336:19 *337:43 0
17 *336:19 *339:27 3.56846e-05
18 *336:19 *350:31 0.0539126
19 *336:29 *337:65 0.0267908
20 *336:29 *338:51 0.001051
21 *336:29 *338:55 6.08069e-05
22 la_data_out[15] *336:29 5.30717e-05
23 la_data_out[22] *336:29 0.000400992
24 la_data_out[23] *336:19 0.0212797
25 *315:17 *336:17 0.017139
26 *326:23 *336:29 0.00309757
27 *327:43 *336:29 0.00315185
28 *335:35 *336:29 0.0258514
*RES
1 *739:la_data_out_o[42] *336:13 10.0546 
2 *336:13 *336:17 44.2963 
3 *336:17 *336:19 635.055 
4 *336:19 *336:29 44.0844 
5 *336:29 la_data_out[42] 12.2925 
*END

*D_NET *337 0.257282
*CONN
*P la_data_out[43] O
*I *739:la_data_out_o[43] O *D ntt_wb_bridge
*CAP
1 la_data_out[43] 0.000657915
2 *739:la_data_out_o[43] 0.00734204
3 *337:65 0.00715935
4 *337:43 0.0199702
5 *337:41 0.0156895
6 *337:21 0.00956272
7 *337:21 *338:23 0.00047374
8 *337:21 *342:21 0.0173988
9 *337:21 *344:17 0.000579684
10 *337:21 *355:21 0.00154432
11 *337:21 *388:25 0.00131934
12 *337:43 *339:27 0.0529306
13 *337:65 *338:55 0.0278801
14 *337:65 *344:25 0
15 la_data_out[22] *337:65 5.05934e-05
16 la_data_out[25] *337:65 0.000278843
17 *94:17 *337:65 0
18 *272:23 *337:41 0.000291939
19 *272:35 *337:65 0.000228407
20 *303:21 *337:43 0.0232667
21 *304:23 *337:41 0.000709568
22 *311:23 *337:41 0.00064632
23 *311:35 *337:65 3.92756e-05
24 *312:15 *337:21 0.00240166
25 *314:27 *337:41 0.000203145
26 *319:15 *337:21 0.00351081
27 *320:15 *337:21 0.00333627
28 *321:15 *337:21 0.00362782
29 *322:21 *337:41 6.54119e-05
30 *322:23 *337:41 0.00182892
31 *323:15 *337:21 0.00332523
32 *323:23 *337:65 1.71485e-05
33 *324:15 *337:21 0.00291706
34 *325:15 *337:21 0.00319845
35 *327:15 *337:21 0.0011246
36 *327:35 *337:41 0.000386107
37 *327:39 *337:65 0.000115887
38 *328:23 *337:65 0.00379499
39 *329:13 *337:41 3.7969e-05
40 *329:23 *337:41 0.000552947
41 *329:45 *337:65 0.00350674
42 *331:19 *337:21 0.00463497
43 *332:23 *337:41 0.00062617
44 *333:29 *337:21 0.000320407
45 *333:33 *337:41 0
46 *334:29 *337:21 0.00159339
47 *334:45 *337:65 0.000483755
48 *335:13 *337:21 0.000328602
49 *335:35 *337:65 6.05994e-05
50 *336:13 *337:21 0.000472149
51 *336:19 *337:43 0
52 *336:29 *337:65 0.0267908
*RES
1 *739:la_data_out_o[43] *337:21 49.0108 
2 *337:21 *337:41 24.8046 
3 *337:41 *337:43 621.285 
4 *337:43 *337:65 49.8767 
5 *337:65 la_data_out[43] 11.7825 
*END

*D_NET *338 0.258965
*CONN
*P la_data_out[44] O
*I *739:la_data_out_o[44] O *D ntt_wb_bridge
*CAP
1 la_data_out[44] 0.000623347
2 *739:la_data_out_o[44] 0.00476527
3 *338:55 0.00771025
4 *338:51 0.00857595
5 *338:37 0.0225832
6 *338:35 0.0222626
7 *338:23 0.00593374
8 *338:23 *339:21 0
9 *338:23 *340:25 0.0246626
10 *338:23 *342:21 0.0229546
11 *338:23 *346:17 0
12 *338:23 *355:21 0.00102785
13 *338:23 *366:21 0.00110774
14 *338:23 *399:21 3.10119e-05
15 *338:35 *339:25 0.00480008
16 *338:35 *340:29 0.00480344
17 *338:35 *340:31 7.27581e-05
18 *338:35 *347:35 0.000946362
19 *338:35 *351:23 0.000853447
20 *338:35 *351:33 0
21 *338:37 *399:21 0.000118136
22 la_data_out[15] *338:51 0.000146008
23 la_data_out[21] *338:51 0.000188247
24 la_data_out[26] *338:55 0.000684594
25 la_data_out[38] *338:51 0.000767151
26 la_data_out[38] *338:55 0.0206076
27 la_data_out[39] *338:55 0.000808997
28 *120:19 *338:51 0.000202847
29 *283:23 *338:35 0.000233384
30 *283:23 *338:37 0.00076821
31 *304:23 *338:35 0.000123776
32 *316:19 *338:23 0.00276317
33 *317:15 *338:23 0.000152088
34 *318:15 *338:23 0.000165928
35 *324:19 *338:35 0
36 *326:19 *338:35 0.000591724
37 *326:19 *338:37 0.0533082
38 *326:19 *338:51 0.00162346
39 *328:15 *338:23 0.00492618
40 *330:23 *338:55 0.000630432
41 *330:25 *338:55 0.00693717
42 *331:35 *338:35 0
43 *332:25 *338:51 3.80441e-05
44 *334:37 *338:35 0
45 *335:29 *338:37 0
46 *335:29 *338:51 0
47 *336:29 *338:51 0.001051
48 *336:29 *338:55 6.08069e-05
49 *337:21 *338:23 0.00047374
50 *337:65 *338:55 0.0278801
*RES
1 *739:la_data_out_o[44] *338:23 46.2212 
2 *338:23 *338:35 19.86 
3 *338:35 *338:37 600.375 
4 *338:37 *338:51 26.3245 
5 *338:51 *338:55 45.4325 
6 *338:55 la_data_out[44] 11.2725 
*END

*D_NET *339 0.288362
*CONN
*P la_data_out[45] O
*I *739:la_data_out_o[45] O *D ntt_wb_bridge
*CAP
1 la_data_out[45] 0.00118079
2 *739:la_data_out_o[45] 0.00735347
3 *339:31 0.0058504
4 *339:29 0.00466961
5 *339:27 0.0116759
6 *339:25 0.0132552
7 *339:21 0.00893274
8 *339:21 *340:29 4.32417e-05
9 *339:21 *341:23 0.0241783
10 *339:21 *341:47 0.000235715
11 *339:21 *345:27 0.00524565
12 *339:21 *346:17 0.00086117
13 *339:21 *347:35 0.00160488
14 *339:21 *349:23 0.00232377
15 *339:21 *351:23 0.00262727
16 *339:21 *399:21 0.000351447
17 *339:21 *726:15 0.00481981
18 *339:25 *340:29 0.000699973
19 *339:25 *341:47 0.00472065
20 *339:25 *344:17 0
21 *339:25 *345:35 0.00123517
22 *339:25 *346:27 0.00120028
23 *339:25 *347:35 0.000238428
24 *339:25 *351:23 0.000258522
25 *339:25 *737:31 1.19128e-05
26 *339:27 *349:35 0.0538102
27 *339:27 *350:31 1.1524e-05
28 *339:31 *340:35 0.033192
29 *339:31 *343:39 0.000309448
30 *135:14 *339:31 0.0337588
31 *303:21 *339:27 0
32 *336:17 *339:21 0.00506357
33 *336:17 *339:25 0.000876031
34 *336:19 *339:27 3.56846e-05
35 *337:43 *339:27 0.0529306
36 *338:23 *339:21 0
37 *338:35 *339:25 0.00480008
*RES
1 *739:la_data_out_o[45] *339:21 44.9308 
2 *339:21 *339:25 10.2977 
3 *339:25 *339:27 625.875 
4 *339:27 *339:29 0.5 
5 *339:29 *339:31 49.7977 
6 *339:31 la_data_out[45] 21.4625 
*END

*D_NET *340 0.305946
*CONN
*P la_data_out[46] O
*I *739:la_data_out_o[46] O *D ntt_wb_bridge
*CAP
1 la_data_out[46] 0.00125066
2 *739:la_data_out_o[46] 0.00457543
3 *340:35 0.00615665
4 *340:33 0.00490599
5 *340:31 0.00960237
6 *340:29 0.0108519
7 *340:25 0.00582496
8 *340:25 *341:23 3.10119e-05
9 *340:25 *342:21 0.00152205
10 *340:25 *343:17 0.0226715
11 *340:25 *345:25 0.000441648
12 *340:25 *346:17 4.42832e-05
13 *340:25 *346:19 0.00383195
14 *340:25 *348:33 1.2782e-05
15 *340:25 *366:21 3.59531e-06
16 *340:25 *399:21 0.00183011
17 *340:29 *344:17 0
18 *340:29 *399:21 0.00252917
19 *340:29 *726:15 0.00105136
20 *340:31 *351:33 0.000786838
21 *340:31 *351:35 0.0540652
22 *340:35 *343:39 0.0347245
23 *340:35 *351:39 0.0155406
24 *134:19 *340:31 0.000419775
25 *135:14 *340:35 0.000883159
26 *314:27 *340:31 0.000364195
27 *314:29 *340:31 1.94585e-05
28 *326:15 *340:25 0.00365047
29 *326:19 *340:31 0.00034983
30 *332:25 *340:31 0.0545307
31 *338:23 *340:25 0.0246626
32 *338:35 *340:29 0.00480344
33 *338:35 *340:31 7.27581e-05
34 *339:21 *340:29 4.32417e-05
35 *339:25 *340:29 0.000699973
36 *339:31 *340:35 0.033192
*RES
1 *739:la_data_out_o[46] *340:25 45.5255 
2 *340:25 *340:29 9.4528 
3 *340:29 *340:31 624.345 
4 *340:31 *340:33 0.5 
5 *340:33 *340:35 51.1961 
6 *340:35 la_data_out[46] 21.9725 
*END

*D_NET *341 0.306638
*CONN
*P la_data_out[47] O
*I *739:la_data_out_o[47] O *D ntt_wb_bridge
*CAP
1 la_data_out[47] 0.0013714
2 *739:la_data_out_o[47] 0.00475957
3 *341:53 0.00867523
4 *341:51 0.00730384
5 *341:49 0.00907858
6 *341:47 0.0112341
7 *341:23 0.00691505
8 *341:23 *342:39 0.000219577
9 *341:23 *343:17 0.024728
10 *341:23 *346:17 8.67624e-06
11 *341:23 *347:25 0.00153828
12 *341:23 *350:19 0.0024167
13 *341:23 *351:15 0.00250599
14 *341:23 *399:21 0.00119105
15 *341:47 *342:39 2.88598e-05
16 *341:47 *345:35 0.000132431
17 *341:47 *346:27 0.000144282
18 *341:47 *347:35 0.000116255
19 *341:47 *351:23 0.00010223
20 *341:47 *377:29 0.000432509
21 *341:53 *342:45 0.0339321
22 *341:53 *343:39 5.72283e-05
23 *85:13 *341:53 0.00743628
24 *95:13 *341:53 0.00812061
25 *95:27 *341:53 0.000206793
26 *96:14 *341:53 0.0186519
27 *306:17 *341:47 0.000604525
28 *306:17 *341:49 0.0531785
29 *311:25 *341:49 0.0118844
30 *313:17 *341:47 4.5041e-05
31 *323:23 *341:47 0.000690662
32 *328:19 *341:47 0.00112369
33 *328:19 *341:49 0.0531759
34 *335:27 *341:47 0.00010789
35 *336:17 *341:47 0.00535384
36 *339:21 *341:23 0.0241783
37 *339:21 *341:47 0.000235715
38 *339:25 *341:47 0.00472065
39 *340:25 *341:23 3.10119e-05
*RES
1 *739:la_data_out_o[47] *341:23 49.9667 
2 *341:23 *341:47 46.6646 
3 *341:47 *341:49 599.482 
4 *341:49 *341:51 0.5 
5 *341:51 *341:53 51.7788 
6 *341:53 la_data_out[47] 23.5025 
*END

*D_NET *342 0.310655
*CONN
*P la_data_out[48] O
*I *739:la_data_out_o[48] O *D ntt_wb_bridge
*CAP
1 la_data_out[48] 0.00132819
2 *739:la_data_out_o[48] 0.00537057
3 *342:45 0.00752165
4 *342:43 0.00619346
5 *342:41 0.00858449
6 *342:39 0.0115527
7 *342:21 0.00833877
8 *342:21 *346:17 0.00255818
9 *342:21 *348:33 0.000515589
10 *342:39 *740:mem_we 0.000318261
11 *342:39 *343:25 0.00577756
12 *342:39 *656:23 0.000168418
13 *342:39 *701:23 0.00150609
14 *342:39 *726:21 0
15 *342:45 *343:39 0.0354178
16 la_data_out[24] *342:41 0.0543257
17 *83:17 *342:45 0.00775737
18 *84:17 *342:45 0.00847092
19 *85:13 *342:45 0.000330151
20 *95:13 *342:45 0.00030572
21 *96:14 *342:45 0.000559198
22 *96:18 *342:41 0.00639209
23 *313:17 *342:39 1.1071e-05
24 *316:33 *342:39 5.83121e-06
25 *317:15 *342:21 0.00271962
26 *318:15 *342:21 0.00261106
27 *319:25 *342:39 2.8159e-05
28 *323:15 *342:21 0.000121986
29 *323:23 *342:41 0.0543246
30 *325:19 *342:39 0.00088286
31 *330:17 *342:39 0.000600481
32 *337:21 *342:21 0.0173988
33 *338:23 *342:21 0.0229546
34 *340:25 *342:21 0.00152205
35 *341:23 *342:39 0.000219577
36 *341:47 *342:39 2.88598e-05
37 *341:53 *342:45 0.0339321
*RES
1 *739:la_data_out_o[48] *342:21 43.1355 
2 *342:21 *342:39 47.6492 
3 *342:39 *342:41 608.662 
4 *342:41 *342:43 0.5 
5 *342:43 *342:45 53.8764 
6 *342:45 la_data_out[48] 22.9925 
*END

*D_NET *343 0.299322
*CONN
*P la_data_out[49] O
*I *739:la_data_out_o[49] O *D ntt_wb_bridge
*CAP
1 la_data_out[49] 0.00124217
2 *739:la_data_out_o[49] 0.00446053
3 *343:39 0.00842816
4 *343:37 0.00758449
5 *343:27 0.0227176
6 *343:25 0.024626
7 *343:17 0.00676746
8 *343:17 *345:25 0.00315852
9 *343:17 *346:17 0.000158899
10 *343:17 *346:19 0.000202808
11 *343:17 *347:25 0.000693495
12 *343:17 *347:27 0.00275972
13 *343:17 *348:35 0.00277456
14 *343:17 *350:17 0.000270369
15 *343:25 *740:mem_we 0.000370493
16 *343:25 *345:33 7.07534e-05
17 *343:25 *348:43 0.000515415
18 *343:25 *349:31 0.00139131
19 *343:25 *350:27 0.000574764
20 *343:25 *399:21 4.55864e-06
21 *343:25 *656:23 0.000642474
22 *343:25 *725:23 0.00131342
23 *343:27 *348:47 0.0552694
24 *343:37 *348:47 0.000314999
25 *343:39 *349:39 0.00881202
26 *343:39 *350:35 0.00807002
27 *343:39 *351:39 0.0018957
28 *83:17 *343:39 0.000321648
29 *83:25 *343:39 8.9459e-06
30 *84:17 *343:39 0.000297881
31 *84:25 *343:39 0.000583872
32 *95:27 *343:39 8.94614e-05
33 *96:14 *343:39 0.000386977
34 *98:14 *343:39 5.31774e-05
35 *125:21 *343:37 6.02846e-05
36 *135:14 *343:39 0.00198896
37 *135:20 *343:27 0.000419775
38 *303:21 *343:27 0
39 *303:21 *343:37 0
40 *335:17 *343:25 0.00633437
41 *339:31 *343:39 0.000309448
42 *340:25 *343:17 0.0226715
43 *340:35 *343:39 0.0347245
44 *341:23 *343:17 0.024728
45 *341:53 *343:39 5.72283e-05
46 *342:39 *343:25 0.00577756
47 *342:45 *343:39 0.0354178
*RES
1 *739:la_data_out_o[49] *343:17 45.0023 
2 *343:17 *343:25 22.0778 
3 *343:25 *343:27 623.325 
4 *343:27 *343:37 8.24 
5 *343:37 *343:39 59.47 
6 *343:39 la_data_out[49] 22.4825 
*END

*D_NET *344 0.182242
*CONN
*P la_data_out[4] O
*I *739:la_data_out_o[4] O *D ntt_wb_bridge
*CAP
1 la_data_out[4] 0.000943827
2 *739:la_data_out_o[4] 0.00194027
3 *344:25 0.0135507
4 *344:19 0.0222805
5 *344:17 0.0116139
6 *344:17 *355:21 0.00210399
7 *344:17 *366:21 9.17547e-05
8 *344:17 *388:25 0.00360183
9 *344:17 *399:21 5.05398e-05
10 *344:19 *351:33 0.000744169
11 *344:19 *351:35 1.35069e-05
12 la_data_out[12] *344:25 0
13 la_data_out[13] *344:25 0
14 la_data_out[22] *344:25 0
15 la_data_out[23] *344:19 0
16 *94:17 *344:25 0.0121582
17 *134:19 *344:19 0.000736614
18 *272:47 *344:25 0
19 *294:21 *344:19 0.0550071
20 *310:21 *344:17 0.000284351
21 *312:15 *344:17 0.000559421
22 *314:29 *344:19 0.0544654
23 *321:15 *344:17 0.000725223
24 *323:15 *344:17 0.000791217
25 *337:21 *344:17 0.000579684
26 *337:65 *344:25 0
27 *339:25 *344:17 0
28 *340:29 *344:17 0
*RES
1 *739:la_data_out_o[4] *344:17 14.6698 
2 *344:17 *344:19 624.855 
3 *344:19 *344:25 44.0388 
4 *344:25 la_data_out[4] 16.8825 
*END

*D_NET *345 0.244565
*CONN
*P la_data_out[50] O
*I *739:la_data_out_o[50] O *D ntt_wb_bridge
*CAP
1 la_data_out[50] 0.00142064
2 *739:la_data_out_o[50] 0.00156225
3 *345:43 0.014554
4 *345:41 0.0131333
5 *345:39 0.0223191
6 *345:37 0.0223191
7 *345:35 0.00191685
8 *345:33 0.0020056
9 *345:27 0.00557258
10 *345:25 0.00704608
11 *345:25 *346:17 7.75598e-05
12 *345:25 *347:25 0.000219563
13 *345:25 *348:33 0.00145354
14 *345:25 *351:13 9.63594e-05
15 *345:27 *346:19 0
16 *345:27 *347:27 0.000290439
17 *345:27 *349:23 0.0107186
18 *345:27 *726:15 0.0132375
19 *345:35 *346:27 0.00854005
20 *345:35 *347:35 1.91597e-05
21 *345:35 *737:23 0.00233546
22 *345:39 *346:31 1.28996e-05
23 *345:39 *347:39 0.055187
24 *345:39 *348:47 7.27704e-06
25 *345:43 *346:35 0.0397495
26 *345:43 *347:43 2.01934e-05
27 *81:15 *345:43 0
28 *96:14 *345:43 0.00918242
29 *126:27 *345:39 0.00104574
30 *326:15 *345:27 0
31 *336:17 *345:35 0.000238075
32 *339:21 *345:27 0.00524565
33 *339:25 *345:35 0.00123517
34 *340:25 *345:25 0.000441648
35 *341:47 *345:35 0.000132431
36 *343:17 *345:25 0.00315852
37 *343:25 *345:33 7.07534e-05
*RES
1 *739:la_data_out_o[50] *345:25 16.6446 
2 *345:25 *345:27 200.55 
3 *345:27 *345:33 5.635 
4 *345:33 *345:35 79.455 
5 *345:35 *345:37 2 
6 *345:37 *345:39 622.815 
7 *345:39 *345:41 2 
8 *345:41 *345:43 366.84 
9 *345:43 la_data_out[50] 26.405 
*END

*D_NET *346 0.309797
*CONN
*P la_data_out[51] O
*I *739:la_data_out_o[51] O *D ntt_wb_bridge
*CAP
1 la_data_out[51] 0.00140123
2 *739:la_data_out_o[51] 0.00175556
3 *346:35 0.00718032
4 *346:33 0.00577909
5 *346:31 0.00947604
6 *346:29 0.00947604
7 *346:27 0.00399186
8 *346:25 0.00414998
9 *346:19 0.00283406
10 *346:17 0.0044315
11 *346:17 *348:33 3.04209e-05
12 *346:17 *349:21 0.000258574
13 *346:17 *350:17 0.00138694
14 *346:19 *347:27 0.000544481
15 *346:19 *348:35 0.010802
16 *346:25 *347:33 0.000177973
17 *346:27 *347:35 0.01889
18 *346:27 *737:23 0.00120843
19 *346:31 *347:39 0.0552062
20 *346:31 *348:47 0.0552253
21 *346:35 *347:43 0.0412104
22 *81:15 *346:35 0
23 *96:14 *346:35 0.00873761
24 *126:27 *346:31 0.00052287
25 *326:15 *346:19 0.00435608
26 *328:15 *346:19 0.00102218
27 *336:17 *346:27 0.00235164
28 *338:23 *346:17 0
29 *339:21 *346:17 0.00086117
30 *339:25 *346:27 0.00120028
31 *340:25 *346:17 4.42832e-05
32 *340:25 *346:19 0.00383195
33 *341:23 *346:17 8.67624e-06
34 *341:47 *346:27 0.000144282
35 *342:21 *346:17 0.00255818
36 *343:17 *346:17 0.000158899
37 *343:17 *346:19 0.000202808
38 *345:25 *346:17 7.75598e-05
39 *345:27 *346:19 0
40 *345:35 *346:27 0.00854005
41 *345:39 *346:31 1.28996e-05
42 *345:43 *346:35 0.0397495
*RES
1 *739:la_data_out_o[51] *346:17 13.4727 
2 *346:17 *346:19 106.365 
3 *346:19 *346:25 6.91 
4 *346:25 *346:27 173.985 
5 *346:27 *346:29 2 
6 *346:29 *346:31 622.815 
7 *346:31 *346:33 2 
8 *346:33 *346:35 379.605 
9 *346:35 la_data_out[51] 26.15 
*END

*D_NET *347 0.321966
*CONN
*P la_data_out[52] O
*I *739:la_data_out_o[52] O *D ntt_wb_bridge
*CAP
1 la_data_out[52] 0.00137316
2 *739:la_data_out_o[52] 0.00260138
3 *347:43 0.00736776
4 *347:41 0.00599461
5 *347:39 0.00948854
6 *347:37 0.00948854
7 *347:35 0.00272636
8 *347:33 0.00282988
9 *347:27 0.00174038
10 *347:25 0.00423824
11 *347:25 *349:23 0.000471731
12 *347:25 *350:17 0.000182432
13 *347:25 *350:19 0.000313417
14 *347:25 *351:13 0.0006871
15 *347:25 *351:15 0.000477573
16 *347:25 *726:15 0.000655747
17 *347:27 *348:35 0.0111059
18 *347:27 *349:23 0.000684112
19 *347:27 *350:19 0.00950343
20 *347:35 *351:23 0.0181968
21 *347:39 *348:47 9.39388e-06
22 *347:43 *348:51 0.0425938
23 *96:14 *347:43 0.00905026
24 *126:27 *347:39 0.00052287
25 *338:35 *347:35 0.000946362
26 *339:21 *347:35 0.00160488
27 *339:25 *347:35 0.000238428
28 *341:23 *347:25 0.00153828
29 *341:47 *347:35 0.000116255
30 *343:17 *347:25 0.000693495
31 *343:17 *347:27 0.00275972
32 *345:25 *347:25 0.000219563
33 *345:27 *347:27 0.000290439
34 *345:35 *347:35 1.91597e-05
35 *345:39 *347:39 0.055187
36 *345:43 *347:43 2.01934e-05
37 *346:19 *347:27 0.000544481
38 *346:25 *347:33 0.000177973
39 *346:27 *347:35 0.01889
40 *346:31 *347:39 0.0552062
41 *346:35 *347:43 0.0412104
*RES
1 *739:la_data_out_o[52] *347:25 16.0343 
2 *347:25 *347:27 108.78 
3 *347:27 *347:33 6.145 
4 *347:33 *347:35 174.675 
5 *347:35 *347:37 2 
6 *347:37 *347:39 622.815 
7 *347:39 *347:41 2 
8 *347:41 *347:43 393.06 
9 *347:43 la_data_out[52] 25.895 
*END

*D_NET *348 0.330221
*CONN
*P la_data_out[53] O
*I *739:la_data_out_o[53] O *D ntt_wb_bridge
*CAP
1 la_data_out[53] 0.00135247
2 *739:la_data_out_o[53] 0.00156705
3 *348:51 0.0078644
4 *348:49 0.00651194
5 *348:47 0.00970878
6 *348:45 0.00970878
7 *348:43 0.00276269
8 *348:41 0.00312176
9 *348:35 0.00209791
10 *348:33 0.0033059
11 *348:33 *349:21 0.00241054
12 *348:33 *350:17 0.000199617
13 *348:33 *351:13 0.00180822
14 *348:35 *350:19 0.000527148
15 *348:41 *349:29 0.000543048
16 *348:43 *349:31 0.0195903
17 *348:43 *350:27 0.0192458
18 *348:51 *349:39 0.000118275
19 *84:17 *348:51 2.52029e-05
20 *85:13 *348:51 0.000236761
21 *95:13 *348:51 0.0418361
22 *96:14 *348:51 0.0102241
23 *125:21 *348:47 6.16289e-05
24 *126:27 *348:47 0.00052287
25 *335:17 *348:43 0.0042392
26 *340:25 *348:33 1.2782e-05
27 *342:21 *348:33 0.000515589
28 *343:17 *348:35 0.00277456
29 *343:25 *348:43 0.000515415
30 *343:27 *348:47 0.0552694
31 *343:37 *348:47 0.000314999
32 *345:25 *348:33 0.00145354
33 *345:39 *348:47 7.27704e-06
34 *346:17 *348:33 3.04209e-05
35 *346:19 *348:35 0.010802
36 *346:31 *348:47 0.0552253
37 *347:27 *348:35 0.0111059
38 *347:39 *348:47 9.39388e-06
39 *347:43 *348:51 0.0425938
*RES
1 *739:la_data_out_o[53] *348:33 15.2836 
2 *348:33 *348:35 108.435 
3 *348:35 *348:41 11.5 
4 *348:41 *348:43 182.265 
5 *348:43 *348:45 2 
6 *348:45 *348:47 628.17 
7 *348:47 *348:49 2 
8 *348:49 *348:51 405.825 
9 *348:51 la_data_out[53] 25.64 
*END

*D_NET *349 0.321446
*CONN
*P la_data_out[54] O
*I *739:la_data_out_o[54] O *D ntt_wb_bridge
*CAP
1 la_data_out[54] 0.0012598
2 *739:la_data_out_o[54] 0.00136826
3 *349:39 0.00743137
4 *349:37 0.00617157
5 *349:35 0.0116487
6 *349:33 0.0116487
7 *349:31 0.00633405
8 *349:29 0.00663407
9 *349:23 0.0021238
10 *349:21 0.00319203
11 *349:21 *350:17 0.00322766
12 *349:21 *351:13 0.000339174
13 *349:23 *350:19 2.0514e-05
14 *349:23 *351:15 0.0116059
15 *349:23 *726:15 0.00108009
16 *349:31 *656:15 0
17 *349:31 *725:23 0.000267785
18 *349:35 *350:31 0.054206
19 *349:39 *350:35 0.0449325
20 *83:17 *349:39 0.043733
21 *84:17 *349:39 2.21074e-05
22 *135:14 *349:39 0.000540806
23 *335:17 *349:31 0.00252547
24 *339:21 *349:23 0.00232377
25 *339:27 *349:35 0.0538102
26 *343:25 *349:31 0.00139131
27 *343:39 *349:39 0.00881202
28 *345:27 *349:23 0.0107186
29 *346:17 *349:21 0.000258574
30 *347:25 *349:23 0.000471731
31 *347:27 *349:23 0.000684112
32 *348:33 *349:21 0.00241054
33 *348:41 *349:29 0.000543048
34 *348:43 *349:31 0.0195903
35 *348:51 *349:39 0.000118275
*RES
1 *739:la_data_out_o[54] *349:21 15.3519 
2 *349:21 *349:23 120.165 
3 *349:23 *349:29 10.735 
4 *349:29 *349:31 177.09 
5 *349:31 *349:33 2 
6 *349:33 *349:35 629.7 
7 *349:35 *349:37 2 
8 *349:37 *349:39 414.105 
9 *349:39 la_data_out[54] 24.365 
*END

*D_NET *350 0.332573
*CONN
*P la_data_out[55] O
*I *739:la_data_out_o[55] O *D ntt_wb_bridge
*CAP
1 la_data_out[55] 0.00124127
2 *739:la_data_out_o[55] 0.00171344
3 *350:35 0.00750942
4 *350:33 0.00626815
5 *350:31 0.0115991
6 *350:29 0.0115991
7 *350:27 0.00424013
8 *350:25 0.00464418
9 *350:19 0.00226485
10 *350:17 0.00357424
11 *350:17 *351:13 0.00040125
12 *350:19 *351:15 0.0120238
13 *350:25 *351:21 0.000113379
14 *350:27 *656:15 0
15 *350:27 *701:15 0.0145969
16 *350:27 *729:15 0
17 *350:35 *351:39 0.0459545
18 *79:14 *350:35 0.000203278
19 *83:17 *350:35 0.000859251
20 *135:14 *350:35 0.000539914
21 *335:17 *350:27 0.00422508
22 *336:19 *350:31 0.0539126
23 *339:27 *350:31 1.1524e-05
24 *341:23 *350:19 0.0024167
25 *343:17 *350:17 0.000270369
26 *343:25 *350:27 0.000574764
27 *343:39 *350:35 0.00807002
28 *346:17 *350:17 0.00138694
29 *347:25 *350:17 0.000182432
30 *347:25 *350:19 0.000313417
31 *347:27 *350:19 0.00950343
32 *348:33 *350:17 0.000199617
33 *348:35 *350:19 0.000527148
34 *348:43 *350:27 0.0192458
35 *349:21 *350:17 0.00322766
36 *349:23 *350:19 2.0514e-05
37 *349:35 *350:31 0.054206
38 *349:39 *350:35 0.0449325
*RES
1 *739:la_data_out_o[55] *350:17 13.2337 
2 *350:17 *350:19 109.125 
3 *350:19 *350:25 10.735 
4 *350:25 *350:27 191.58 
5 *350:27 *350:29 2 
6 *350:29 *350:31 629.445 
7 *350:31 *350:33 2 
8 *350:33 *350:35 427.215 
9 *350:35 la_data_out[55] 24.11 
*END

*D_NET *351 0.315296
*CONN
*P la_data_out[56] O
*I *739:la_data_out_o[56] O *D ntt_wb_bridge
*CAP
1 la_data_out[56] 0.00122274
2 *739:la_data_out_o[56] 0.00205326
3 *351:39 0.0167848
4 *351:37 0.0155621
5 *351:35 0.0092769
6 *351:33 0.00976352
7 *351:23 0.00375944
8 *351:21 0.00334348
9 *351:15 0.00180022
10 *351:13 0.00378281
11 *351:15 *726:15 0.000340336
12 *351:23 *726:15 0.0199793
13 *351:23 *737:23 0
14 la_data_out[23] *351:33 0
15 *83:17 *351:39 0.000584264
16 *134:19 *351:35 0.000419775
17 *135:14 *351:39 0.00112688
18 *314:27 *351:33 0.000365401
19 *314:29 *351:35 0.0540335
20 *326:15 *351:23 0
21 *338:35 *351:23 0.000853447
22 *338:35 *351:33 0
23 *339:21 *351:23 0.00262727
24 *339:25 *351:23 0.000258522
25 *340:31 *351:33 0.000786838
26 *340:31 *351:35 0.0540652
27 *340:35 *351:39 0.0155406
28 *341:23 *351:15 0.00250599
29 *341:47 *351:23 0.00010223
30 *343:39 *351:39 0.0018957
31 *344:19 *351:33 0.000744169
32 *344:19 *351:35 1.35069e-05
33 *345:25 *351:13 9.63594e-05
34 *347:25 *351:13 0.0006871
35 *347:25 *351:15 0.000477573
36 *347:35 *351:23 0.0181968
37 *348:33 *351:13 0.00180822
38 *349:21 *351:13 0.000339174
39 *349:23 *351:15 0.0116059
40 *350:17 *351:13 0.00040125
41 *350:19 *351:15 0.0120238
42 *350:25 *351:21 0.000113379
43 *350:35 *351:39 0.0459545
*RES
1 *739:la_data_out_o[56] *351:13 12.2146 
2 *351:13 *351:15 113.955 
3 *351:15 *351:21 5.38 
4 *351:21 *351:23 187.785 
5 *351:23 *351:33 18.0275 
6 *351:33 *351:35 609.682 
7 *351:35 *351:37 2 
8 *351:37 *351:39 436.185 
9 *351:39 la_data_out[56] 23.855 
*END

*D_NET *352 0.32688
*CONN
*P la_data_out[57] O
*I *739:la_data_out_o[57] O *D ntt_wb_bridge
*CAP
1 la_data_out[57] 0.00125906
2 *739:la_data_out_o[57] 0.00888583
3 *352:23 0.00828543
4 *352:21 0.00702637
5 *352:19 0.0118145
6 *352:17 0.0170483
7 *352:13 0.0141196
8 *352:13 *353:15 0.000630035
9 *352:13 *354:17 0.000169498
10 *352:13 *356:21 0.0004346
11 *352:13 *358:17 0.0221994
12 *352:13 *361:15 0.00460016
13 *352:13 *362:15 0.00408971
14 *352:13 *374:15 0.00148226
15 *352:13 *385:15 0.000344861
16 *352:13 *386:21 6.14394e-05
17 *352:13 *387:15 0.000739663
18 *352:13 *391:15 0.00185811
19 *352:13 *726:15 0.00533166
20 *352:17 *740:mem_slot[0] 0.00381751
21 *352:17 *353:21 0.00015539
22 *352:17 *359:25 0.00172306
23 *352:17 *657:15 0
24 *352:17 *676:19 0.00323584
25 *352:17 *713:17 0.0218483
26 *352:19 *356:31 0.0543921
27 *352:19 *363:11 0.0530838
28 *352:19 *656:11 0
29 *352:19 *657:11 0
30 *352:19 *728:11 0.000105257
31 *352:19 *729:11 0.000422268
32 *352:23 *353:27 0.0332075
33 *352:23 *357:31 0.0287819
34 *79:14 *352:23 0.00321716
35 *83:17 *352:23 0.0077911
36 *84:17 *352:23 0.00471858
37 *98:14 *352:23 0
*RES
1 *739:la_data_out_o[57] *352:13 49.7417 
2 *352:13 *352:17 33.6335 
3 *352:17 *352:19 631.995 
4 *352:19 *352:21 0.5 
5 *352:21 *352:23 52.9441 
6 *352:23 la_data_out[57] 22.9925 
*END

*D_NET *353 0.322577
*CONN
*P la_data_out[58] O
*I *739:la_data_out_o[58] O *D ntt_wb_bridge
*CAP
1 la_data_out[58] 0.0012305
2 *739:la_data_out_o[58] 0.00857187
3 *353:27 0.00824303
4 *353:25 0.00701253
5 *353:23 0.0106815
6 *353:21 0.01685
7 *353:15 0.0147403
8 *353:15 *354:13 0.00053153
9 *353:15 *354:17 0.00085733
10 *353:15 *356:17 0.000116632
11 *353:15 *357:17 0.00205215
12 *353:15 *359:17 0.0123722
13 *353:15 *360:17 8.72438e-05
14 *353:15 *361:13 0.000100992
15 *353:15 *362:13 8.53472e-05
16 *353:15 *363:7 0
17 *353:15 *365:15 0.00400063
18 *353:15 *367:15 0.000322636
19 *353:15 *369:15 0.00291509
20 *353:15 *370:15 0.00330941
21 *353:15 *371:15 0.00291509
22 *353:15 *372:13 0
23 *353:15 *373:13 0.00117566
24 *353:15 *382:15 0.00334302
25 *353:15 *386:21 5.79895e-05
26 *353:15 *395:13 3.13831e-05
27 *353:21 *739:mem_rdata_i[11] 0
28 *353:21 *375:15 0.00422502
29 *353:21 *378:21 0.0176141
30 *353:21 *378:23 0.000110525
31 *353:21 *668:19 0.00502438
32 *353:21 *678:19 0.00460531
33 *353:21 *711:15 0.0218459
34 *353:21 *713:17 1.57264e-05
35 *353:23 la_data_out[83] 0.0112701
36 *353:23 *358:27 0.0560802
37 *353:23 *704:19 0.0296257
38 *353:27 *357:31 0.00176982
39 *353:27 *358:33 0.0315784
40 *69:17 *353:27 0.000659845
41 *70:20 *353:27 0.00183881
42 *98:14 *353:27 0.000716043
43 *352:13 *353:15 0.000630035
44 *352:17 *353:21 0.00015539
45 *352:23 *353:27 0.0332075
*RES
1 *739:la_data_out_o[58] *353:15 49.749 
2 *353:15 *353:21 39.494 
3 *353:21 *353:23 630.975 
4 *353:23 *353:25 0.5 
5 *353:25 *353:27 56.0323 
6 *353:27 la_data_out[58] 22.4825 
*END

*D_NET *354 0.30267
*CONN
*P la_data_out[59] O
*I *739:la_data_out_o[59] O *D ntt_wb_bridge
*CAP
1 la_data_out[59] 0.000623347
2 *739:la_data_out_o[59] 0.000652876
3 *354:31 0.0117706
4 *354:29 0.0111472
5 *354:27 0.0232135
6 *354:25 0.0278287
7 *354:17 0.00956522
8 *354:13 0.00560283
9 *354:17 *356:21 0.0305517
10 *354:17 *359:17 0.0287807
11 *354:25 *356:29 0.0012562
12 *354:25 *358:25 0.0177951
13 *354:25 *647:11 0.00939202
14 *354:25 *664:19 0.000100383
15 *354:25 *664:25 4.61621e-05
16 *354:25 *733:37 2.0104e-05
17 *354:27 *739:mem_rdata_i[8] 0.0023747
18 *354:27 *375:19 0.0568258
19 *354:27 *378:27 7.09037e-05
20 *354:27 *531:21 0
21 *354:27 *650:19 0.000129215
22 *354:27 *677:27 0
23 *354:27 *708:13 0.00367695
24 *354:27 *710:19 0
25 *354:27 *724:13 0.000637661
26 *354:31 la_data_out[67] 5.7289e-05
27 *354:31 la_data_out[68] 0.0044169
28 *354:31 la_data_out[75] 9.75877e-05
29 *354:31 la_data_out[76] 0.00080673
30 *354:31 la_data_out[77] 0.00712337
31 *354:31 la_data_out[81] 0.00169037
32 *354:31 *356:41 0.0301458
33 *354:31 *359:45 0.0111581
34 *354:31 *360:35 0.00192166
35 *354:31 *361:31 0.000818496
36 *354:31 *375:33 0.000377509
37 *105:19 *354:27 0
38 *281:17 *354:25 1.23015e-05
39 *292:19 *354:27 0
40 *302:21 *354:31 0.000424028
41 *352:13 *354:17 0.000169498
42 *353:15 *354:13 0.00053153
43 *353:15 *354:17 0.00085733
*RES
1 *739:la_data_out_o[59] *354:13 5.67233 
2 *354:13 *354:17 46.6852 
3 *354:17 *354:25 44.4261 
4 *354:25 *354:27 648.825 
5 *354:27 *354:29 0.5 
6 *354:29 *354:31 52.7693 
7 *354:31 la_data_out[59] 11.7725 
*END

*D_NET *355 0.120895
*CONN
*P la_data_out[5] O
*I *739:la_data_out_o[5] O *D ntt_wb_bridge
*CAP
1 la_data_out[5] 0.0348117
2 *739:la_data_out_o[5] 0.00235588
3 *355:25 0.0512248
4 *355:21 0.0187689
5 *355:21 *366:21 0.00265634
6 *355:25 *399:25 0
7 *116:33 la_data_out[5] 0
8 *283:23 *355:25 3.81558e-05
9 *310:21 *355:21 0.00011201
10 *317:15 *355:21 0.000901889
11 *317:19 *355:21 0.00220734
12 *318:15 *355:21 0.000937951
13 *319:15 *355:21 0.000609876
14 *319:25 *355:21 0.000846499
15 *320:15 *355:21 0.000665374
16 *325:19 *355:21 0
17 *335:27 *355:25 8.21992e-05
18 *337:21 *355:21 0.00154432
19 *338:23 *355:21 0.00102785
20 *344:17 *355:21 0.00210399
*RES
1 *739:la_data_out_o[5] *355:21 41.7112 
2 *355:21 *355:25 42.6065 
3 *355:25 la_data_out[5] 617.153 
*END

*D_NET *356 0.286336
*CONN
*P la_data_out[60] O
*I *739:la_data_out_o[60] O *D ntt_wb_bridge
*CAP
1 la_data_out[60] 0.000657915
2 *739:la_data_out_o[60] 0.000767167
3 *356:41 0.00881553
4 *356:31 0.0324907
5 *356:29 0.0278662
6 *356:21 0.00852701
7 *356:17 0.00576107
8 *356:17 *357:17 4.03973e-05
9 *356:21 *357:17 0.0262223
10 *356:21 *358:17 0.000656921
11 *356:21 *359:17 2.35067e-05
12 *356:21 *389:15 0.00234054
13 *356:21 *398:15 0.00032943
14 *356:29 *358:25 0.0148629
15 *356:29 *657:15 0.000123555
16 *356:29 *662:31 0.00334657
17 *356:29 *664:25 0.000168936
18 *356:29 *687:11 0.00838257
19 *356:29 *696:21 5.02814e-06
20 *356:31 *359:41 0
21 *356:31 *363:11 0.000427748
22 *356:31 *657:11 0
23 *356:31 *719:9 0
24 *356:31 *722:15 0
25 *356:41 la_data_out[67] 0.0198732
26 *356:41 *359:41 0
27 *356:41 *360:35 0.00321102
28 *356:41 *362:31 0.000314605
29 *356:41 *363:11 2.2625e-05
30 *356:41 *367:31 0.00350322
31 *115:35 *356:31 0
32 *279:15 *356:21 0.000627227
33 *281:17 *356:29 7.0647e-05
34 *352:13 *356:21 0.0004346
35 *352:19 *356:31 0.0543921
36 *353:15 *356:17 0.000116632
37 *354:17 *356:21 0.0305517
38 *354:25 *356:29 0.0012562
39 *354:31 *356:41 0.0301458
*RES
1 *739:la_data_out_o[60] *356:17 7.51473 
2 *356:17 *356:21 45.8695 
3 *356:21 *356:29 38.4678 
4 *356:29 *356:31 645.765 
5 *356:31 *356:41 49.1537 
6 *356:41 la_data_out[60] 11.7825 
*END

*D_NET *357 0.293766
*CONN
*P la_data_out[61] O
*I *739:la_data_out_o[61] O *D ntt_wb_bridge
*CAP
1 la_data_out[61] 0.00133574
2 *739:la_data_out_o[61] 0.00512891
3 *357:31 0.00924789
4 *357:27 0.0310514
5 *357:25 0.0292992
6 *357:21 0.00773771
7 *357:17 0.00670669
8 *357:17 *358:17 0.0248271
9 *357:17 *359:13 0.000203895
10 *357:17 *360:17 5.31127e-05
11 *357:17 *360:19 0.000235152
12 *357:17 *368:15 0.000255081
13 *357:17 *398:15 0.000629279
14 *357:25 *740:slot_b[1] 0.0069811
15 *357:25 *649:11 0
16 *357:25 *691:23 0.00632466
17 *357:25 *712:34 0.00353175
18 *357:25 *722:19 0.0007089
19 *357:25 *727:15 3.97095e-06
20 *357:25 *733:39 0.00370608
21 *357:27 *358:27 0.0565792
22 *357:27 *664:31 0
23 *357:27 *676:31 0
24 *357:27 *691:27 0
25 *357:27 *704:19 9.94267e-05
26 *70:22 *357:31 0.000180279
27 *71:21 *357:31 0.000166455
28 *72:25 *357:31 0.000123032
29 *73:20 *357:31 0.000595159
30 *78:31 *357:27 0
31 *79:14 *357:31 0.0284185
32 *85:13 *357:31 0.00340539
33 *95:13 *357:31 0.00736451
34 *101:15 *357:31 0
35 *140:13 *357:31 0
36 *352:23 *357:31 0.0287819
37 *353:15 *357:17 0.00205215
38 *353:27 *357:31 0.00176982
39 *356:17 *357:17 4.03973e-05
40 *356:21 *357:17 0.0262223
*RES
1 *739:la_data_out_o[61] *357:17 47.3719 
2 *357:17 *357:21 23.045 
3 *357:21 *357:25 31.128 
4 *357:25 *357:27 643.725 
5 *357:27 *357:31 49.6568 
6 *357:31 la_data_out[61] 23.5025 
*END

*D_NET *358 0.328993
*CONN
*P la_data_out[62] O
*I *739:la_data_out_o[62] O *D ntt_wb_bridge
*CAP
1 la_data_out[62] 0.00122091
2 *739:la_data_out_o[62] 0.00468314
3 *358:33 0.00616048
4 *358:27 0.0144578
5 *358:25 0.0151844
6 *358:17 0.0103494
7 *358:17 *360:19 0.00629958
8 *358:17 *361:15 0.000313542
9 *358:17 *362:15 0.000340115
10 *358:17 *368:15 0.00649232
11 *358:17 *391:15 0.00066494
12 *358:17 *398:15 0.00118794
13 *358:25 *739:mem_rdata_i[11] 0
14 *358:25 *650:29 0.000236261
15 *358:25 *650:31 5.83844e-05
16 *358:25 *657:15 4.9929e-05
17 *358:25 *664:19 0.00206928
18 *358:25 *687:11 0.00152568
19 *358:27 *704:19 0.000334594
20 *69:17 *358:33 0.0315812
21 *70:20 la_data_out[62] 4.55864e-06
22 *101:23 *358:25 0.00119931
23 *275:13 *358:25 0
24 *276:13 *358:25 0
25 *352:13 *358:17 0.0221994
26 *353:23 *358:27 0.0560802
27 *353:27 *358:33 0.0315784
28 *354:25 *358:25 0.0177951
29 *356:21 *358:17 0.000656921
30 *356:29 *358:25 0.0148629
31 *357:17 *358:17 0.0248271
32 *357:27 *358:27 0.0565792
*RES
1 *739:la_data_out_o[62] *358:17 45.5098 
2 *358:17 *358:25 48.8537 
3 *358:25 *358:27 638.115 
4 *358:27 *358:33 47.9427 
5 *358:33 la_data_out[62] 21.4725 
*END

*D_NET *359 0.258783
*CONN
*P la_data_out[63] O
*I *739:la_data_out_o[63] O *D ntt_wb_bridge
*CAP
1 la_data_out[63] 0.000652272
2 *739:la_data_out_o[63] 0.000530014
3 *359:45 0.00911712
4 *359:43 0.00846485
5 *359:41 0.0184178
6 *359:39 0.0299738
7 *359:25 0.0151848
8 *359:17 0.00945595
9 *359:13 0.0063572
10 *359:17 *367:15 0.00313747
11 *359:17 *369:15 0.000209882
12 *359:17 *382:15 0.000109199
13 *359:17 *393:15 0.000425652
14 *359:17 *396:15 0.00993298
15 *359:25 *740:mem_slot[0] 0.00103911
16 *359:25 *650:23 0.00230121
17 *359:25 *657:15 0.0108567
18 *359:25 *661:23 0.00103166
19 *359:25 *664:27 0.00230121
20 *359:25 *675:27 0.000951055
21 *359:25 *676:19 6.04344e-05
22 *359:25 *676:25 4.66474e-05
23 *359:25 *676:27 0.00251062
24 *359:25 *677:23 0.00251062
25 *359:39 *720:7 6.04275e-07
26 *359:39 *735:27 9.08601e-05
27 *359:39 *735:31 0.0230513
28 *359:39 *736:20 0.000277917
29 *359:41 *693:11 0
30 *359:41 *696:11 0
31 *359:41 *697:11 0.00305423
32 *359:41 *702:12 0.00183386
33 *359:41 *711:11 0.000577613
34 *359:41 *713:11 0.00302574
35 *359:41 *719:9 0
36 *359:41 *729:9 0.000232862
37 *359:41 *731:9 0.000232862
38 *359:41 *736:6 0.00117964
39 *359:45 *360:35 0.0235515
40 *359:45 *375:33 0
41 *78:23 *359:41 0
42 *79:24 *359:41 0.00314617
43 *115:35 *359:41 0.0045351
44 *117:19 *359:41 0.00298361
45 *279:15 *359:17 0.000211905
46 *282:17 *359:17 0.000957561
47 *352:17 *359:25 0.00172306
48 *353:15 *359:17 0.0123722
49 *354:17 *359:17 0.0287807
50 *354:31 *359:45 0.0111581
51 *356:21 *359:17 2.35067e-05
52 *356:31 *359:41 0
53 *356:41 *359:41 0
54 *357:17 *359:13 0.000203895
*RES
1 *739:la_data_out_o[63] *359:13 4.86847 
2 *359:13 *359:17 47.6757 
3 *359:17 *359:25 31.4755 
4 *359:25 *359:39 45.5347 
5 *359:39 *359:41 388.853 
6 *359:41 *359:43 2 
7 *359:43 *359:45 230.22 
8 *359:45 la_data_out[63] 13.655 
*END

*D_NET *360 0.275483
*CONN
*P la_data_out[64] O
*I *739:la_data_out_o[64] O *D ntt_wb_bridge
*CAP
1 la_data_out[64] 0.000673877
2 *739:la_data_out_o[64] 0.000682483
3 *360:35 0.0047785
4 *360:33 0.00410462
5 *360:31 0.0186995
6 *360:29 0.0186995
7 *360:27 0.00171785
8 *360:25 0.00201602
9 *360:19 0.00538602
10 *360:17 0.00577033
11 *360:19 *361:15 0.000341577
12 *360:19 *362:15 0.0314804
13 *360:19 *368:15 0.028041
14 *360:19 *398:15 0.000239572
15 *360:19 *726:15 0.000182206
16 *360:27 *361:23 0
17 *360:27 *376:15 0.00205587
18 *360:27 *725:15 0.00964979
19 *360:27 *729:15 0.00910304
20 *360:31 *739:mem_rdata_i[11] 0.00348525
21 *360:31 *739:mem_rdata_i[12] 0.000150547
22 *360:31 *739:mem_rdata_i[13] 0.000109393
23 *360:31 *739:mem_rdata_i[23] 0.000128798
24 *360:31 *739:mem_rdata_i[3] 6.19052e-05
25 *360:31 *364:19 0
26 *360:31 *369:19 0.0558091
27 *360:31 *373:17 5.23888e-05
28 *360:31 *649:15 0
29 *360:31 *650:17 8.6313e-05
30 *360:31 *695:17 0.000201712
31 *360:31 *704:17 0.000109393
32 *360:31 *710:17 8.40658e-05
33 *360:31 *714:13 0.000178288
34 *360:31 *717:11 0.00940786
35 *360:31 *734:17 1.79483e-05
36 *360:35 la_data_out[79] 0
37 *360:35 *361:31 0.000599731
38 *360:35 *362:31 0.00339193
39 *360:35 *367:31 0.016346
40 *360:35 *375:33 0
41 *101:19 *360:31 0.00472791
42 *276:15 *360:27 0.000161325
43 *279:15 *360:19 0.00139206
44 *353:15 *360:17 8.72438e-05
45 *354:31 *360:35 0.00192166
46 *356:41 *360:35 0.00321102
47 *357:17 *360:17 5.31127e-05
48 *357:17 *360:19 0.000235152
49 *358:17 *360:19 0.00629958
50 *359:45 *360:35 0.0235515
*RES
1 *739:la_data_out_o[64] *360:17 8.7935 
2 *360:17 *360:19 295.425 
3 *360:19 *360:25 7.675 
4 *360:25 *360:27 93.255 
5 *360:27 *360:29 2 
6 *360:29 *360:31 636.84 
7 *360:31 *360:33 2 
8 *360:33 *360:35 230.22 
9 *360:35 la_data_out[64] 13.91 
*END

*D_NET *361 0.265051
*CONN
*P la_data_out[65] O
*I *739:la_data_out_o[65] O *D ntt_wb_bridge
*CAP
1 la_data_out[65] 0.000720977
2 *739:la_data_out_o[65] 0.00083341
3 *361:31 0.00524271
4 *361:29 0.00452173
5 *361:27 0.0127854
6 *361:25 0.0127854
7 *361:23 0.00282564
8 *361:21 0.00311024
9 *361:15 0.00565029
10 *361:13 0.0061991
11 *361:15 *362:15 0.0349164
12 *361:15 *398:15 0.00106463
13 *361:15 *726:15 0.0211933
14 *361:21 *362:21 0.000437854
15 *361:23 *394:15 0.000853527
16 *361:23 *701:15 0.00635341
17 *361:23 *729:15 0
18 *361:27 la_data_out[82] 0.0236566
19 *361:27 *368:23 0.0562325
20 *361:27 *374:19 0
21 *361:27 *379:19 0.000133821
22 *361:27 *382:17 0
23 *361:27 *661:27 0
24 *361:27 *733:11 0.00906856
25 *361:27 *733:37 0.00173793
26 *361:27 *734:19 0
27 *361:31 la_data_out[67] 0.00386277
28 *361:31 *362:31 0.0232328
29 *361:31 *365:23 0.0184036
30 *361:31 *368:27 0.000298514
31 *361:31 *375:33 0.000101392
32 *281:17 *361:15 0.00205422
33 *352:13 *361:15 0.00460016
34 *353:15 *361:13 0.000100992
35 *354:31 *361:31 0.000818496
36 *358:17 *361:15 0.000313542
37 *360:19 *361:15 0.000341577
38 *360:27 *361:23 0
39 *360:35 *361:31 0.000599731
*RES
1 *739:la_data_out_o[65] *361:13 9.15403 
2 *361:13 *361:15 321.3 
3 *361:15 *361:21 9.46 
4 *361:21 *361:23 72.555 
5 *361:23 *361:25 2 
6 *361:25 *361:27 638.37 
7 *361:27 *361:29 2 
8 *361:29 *361:31 227.46 
9 *361:31 la_data_out[65] 14.675 
*END

*D_NET *362 0.269301
*CONN
*P la_data_out[66] O
*I *739:la_data_out_o[66] O *D ntt_wb_bridge
*CAP
1 la_data_out[66] 0.000707114
2 *739:la_data_out_o[66] 0.000665371
3 *362:31 0.00458209
4 *362:29 0.00387497
5 *362:27 0.0171813
6 *362:25 0.0171813
7 *362:23 0.00254463
8 *362:21 0.00336618
9 *362:15 0.0052876
10 *362:13 0.00513142
11 *362:15 *368:15 0.00208152
12 *362:15 *398:15 0.00116151
13 *362:15 *726:15 1.34503e-05
14 *362:23 *657:15 0.00124457
15 *362:23 *662:31 0.00280302
16 *362:23 *676:27 0.00208199
17 *362:23 *696:15 0.00519137
18 *362:27 la_data_out[83] 0
19 *362:27 *695:19 0.0457635
20 *362:27 *707:11 0.0225685
21 *362:31 la_data_out[67] 0.00418279
22 *362:31 *367:31 0.0164568
23 *362:31 *368:27 1.54665e-05
24 *362:31 *375:33 0.000202771
25 *362:31 *378:33 0
26 *101:23 *362:23 0.000195558
27 *115:49 *362:27 0.00208984
28 *281:17 *362:15 0.00188841
29 *284:21 *362:31 0.00254906
30 *352:13 *362:15 0.00408971
31 *353:15 *362:13 8.53472e-05
32 *356:41 *362:31 0.000314605
33 *358:17 *362:15 0.000340115
34 *360:19 *362:15 0.0314804
35 *360:35 *362:31 0.00339193
36 *361:15 *362:15 0.0349164
37 *361:21 *362:21 0.000437854
38 *361:31 *362:31 0.0232328
*RES
1 *739:la_data_out_o[66] *362:13 8.82557 
2 *362:13 *362:15 316.47 
3 *362:15 *362:21 16.6 
4 *362:21 *362:23 87.735 
5 *362:23 *362:25 2 
6 *362:25 *362:27 645.51 
7 *362:27 *362:29 2 
8 *362:29 *362:31 229.53 
9 *362:31 la_data_out[66] 14.42 
*END

*D_NET *363 0.273831
*CONN
*P la_data_out[67] O
*I *739:la_data_out_o[67] O *D ntt_wb_bridge
*CAP
1 la_data_out[67] 0.00764073
2 *739:la_data_out_o[67] 0.000127818
3 *363:11 0.0195529
4 *363:9 0.0119122
5 *363:7 0.00963706
6 *363:5 0.00976487
7 la_data_out[67] la_data_out[75] 0.00450621
8 la_data_out[67] *365:23 0.00193016
9 la_data_out[67] *368:27 0.00117578
10 la_data_out[67] *369:23 0.000551321
11 la_data_out[67] *370:23 0.000197928
12 la_data_out[67] *371:23 0.000195692
13 *363:7 *364:13 9.46445e-05
14 *363:7 *365:13 4.42832e-05
15 *363:7 *367:13 0.000593047
16 *363:7 *368:13 0.000542686
17 *363:7 *369:13 0.000492325
18 *363:7 *370:13 0.000441964
19 *363:7 *371:13 0.000391602
20 *363:7 *372:11 8.67064e-05
21 *363:7 *372:13 0.0358919
22 *363:7 *373:11 6.47527e-05
23 *363:7 *374:13 0.000240519
24 *363:7 *375:13 0.000190157
25 *363:7 *376:13 0.000127927
26 *363:7 *378:13 8.94347e-05
27 *363:7 *379:13 3.90734e-05
28 *363:7 *380:9 0.00263477
29 *363:7 *380:13 0.00113121
30 *363:7 *381:23 0.000118286
31 *363:7 *383:23 0.0270437
32 *363:7 *392:21 0.000118286
33 *363:11 *729:11 0.049132
34 *77:35 *363:11 0.00286549
35 *143:19 *363:11 0
36 *288:23 *363:7 0.00012905
37 *291:13 *363:7 0.00135188
38 *293:13 *363:7 0.0012721
39 *352:19 *363:11 0.0530838
40 *353:15 *363:7 0
41 *354:31 la_data_out[67] 5.7289e-05
42 *356:31 *363:11 0.000427748
43 *356:41 la_data_out[67] 0.0198732
44 *356:41 *363:11 2.2625e-05
45 *361:31 la_data_out[67] 0.00386277
46 *362:31 la_data_out[67] 0.00418279
*RES
1 *739:la_data_out_o[67] *363:5 0.363533 
2 *363:5 *363:7 61.5663 
3 *363:7 *363:9 0.5 
4 *363:9 *363:11 625.875 
5 *363:11 la_data_out[67] 43.8622 
*END

*D_NET *364 0.224895
*CONN
*P la_data_out[68] O
*I *739:la_data_out_o[68] O *D ntt_wb_bridge
*CAP
1 la_data_out[68] 0.0094623
2 *739:la_data_out_o[68] 0.000985511
3 *364:19 0.0356346
4 *364:17 0.0261723
5 *364:15 0.0116318
6 *364:13 0.0126173
7 la_data_out[68] la_data_out[76] 0.00766133
8 la_data_out[68] la_data_out[79] 0.000605248
9 la_data_out[68] *375:33 0.0012602
10 *364:15 *375:15 0.0341372
11 *364:15 *379:15 0.00380788
12 *364:15 *390:15 0.00588178
13 *364:15 *394:15 0.00475741
14 *364:15 *701:15 0.00813892
15 *364:15 *711:15 0.00172011
16 *364:15 *725:23 0.0189799
17 *364:15 *737:21 7.94016e-06
18 *364:19 *739:mem_rdata_i[10] 0.000222956
19 *364:19 *739:mem_rdata_i[11] 0.000920541
20 *364:19 *650:17 3.62883e-05
21 *364:19 *688:27 0.0101689
22 *364:19 *695:17 8.71187e-05
23 *364:19 *704:17 4.64544e-05
24 *364:19 *710:17 3.3481e-05
25 *364:19 *714:13 7.62203e-05
26 *364:19 *716:11 0.00234594
27 *364:19 *717:11 0.0229775
28 *364:19 *731:11 0
29 *364:19 *734:17 6.63219e-06
30 *364:19 *735:11 0
31 *354:31 la_data_out[68] 0.0044169
32 *360:31 *364:19 0
33 *363:7 *364:13 9.46445e-05
*RES
1 *739:la_data_out_o[68] *364:13 15.2905 
2 *364:13 *364:15 61.9172 
3 *364:15 *364:17 0.5 
4 *364:17 *364:19 641.685 
5 *364:19 la_data_out[68] 40.4382 
*END

*D_NET *365 0.236906
*CONN
*P la_data_out[69] O
*I *739:la_data_out_o[69] O *D ntt_wb_bridge
*CAP
1 la_data_out[69] 0.000757432
2 *739:la_data_out_o[69] 0.000320515
3 *365:23 0.00379655
4 *365:21 0.00303912
5 *365:19 0.0226581
6 *365:17 0.0226581
7 *365:15 0.0105609
8 *365:13 0.0108814
9 *365:15 *367:15 0.000390708
10 *365:15 *369:15 0.000341577
11 *365:15 *370:15 0.0376771
12 *365:15 *381:15 0.0128694
13 *365:15 *382:15 0.00226381
14 *365:15 *383:35 0
15 *365:19 *370:19 0.0541224
16 *365:19 *372:17 1.01441e-05
17 *365:19 *683:27 0.00404773
18 *365:23 la_data_out[75] 0.00187148
19 *365:23 *368:27 0.0154778
20 la_data_out[67] *365:23 0.00193016
21 *277:15 *365:15 0.00481234
22 *281:19 *365:19 0
23 *282:19 *365:19 0
24 *291:13 *365:15 0
25 *298:17 *365:15 0.00395145
26 *301:25 *365:15 1.91597e-05
27 *302:17 *365:19 0
28 *353:15 *365:15 0.00400063
29 *361:31 *365:23 0.0184036
30 *363:7 *365:13 4.42832e-05
*RES
1 *739:la_data_out_o[69] *365:13 6.3895 
2 *365:13 *365:15 368.22 
3 *365:15 *365:17 2 
4 *365:17 *365:19 628.17 
5 *365:19 *365:21 2 
6 *365:21 *365:23 169.5 
7 *365:23 la_data_out[69] 14.93 
*END

*D_NET *366 0.121188
*CONN
*P la_data_out[6] O
*I *739:la_data_out_o[6] O *D ntt_wb_bridge
*CAP
1 la_data_out[6] 0.0345024
2 *739:la_data_out_o[6] 0.00347593
3 *366:25 0.0498078
4 *366:21 0.0187814
5 *366:21 *399:21 0.00630995
6 *304:13 *366:21 0.00011003
7 *307:13 *366:21 0.000101018
8 *308:13 *366:21 0.000110211
9 *309:25 *366:21 0.00134584
10 *310:21 *366:21 0.000509691
11 *316:19 *366:21 0.000654551
12 *317:15 *366:21 0.000119028
13 *328:15 *366:21 0.000726711
14 *329:13 *366:21 0.000200064
15 *329:23 *366:21 0.000118136
16 *329:25 *366:21 0.000105649
17 *331:37 *366:21 0.000105649
18 *334:39 *366:21 0.00012665
19 *335:29 *366:21 0.000118136
20 *338:23 *366:21 0.00110774
21 *340:25 *366:21 3.59531e-06
22 *344:17 *366:21 9.17547e-05
23 *355:21 *366:21 0.00265634
*RES
1 *739:la_data_out_o[6] *366:21 23.7825 
2 *366:21 *366:25 39.8389 
3 *366:25 la_data_out[6] 611.542 
*END

*D_NET *367 0.242519
*CONN
*P la_data_out[70] O
*I *739:la_data_out_o[70] O *D ntt_wb_bridge
*CAP
1 la_data_out[70] 0.000702314
2 *739:la_data_out_o[70] 0.000557099
3 *367:31 0.00292763
4 *367:29 0.00222531
5 *367:27 0.0214151
6 *367:25 0.0226534
7 *367:21 0.00170624
8 *367:15 0.00787649
9 *367:13 0.00796566
10 *367:15 *369:15 0.000687015
11 *367:15 *371:15 0.0320273
12 *367:15 *389:15 0
13 *367:15 *393:15 0.0197288
14 *367:15 *396:15 0.000119774
15 *367:15 *397:15 0.00385175
16 *367:25 *389:27 0.000120689
17 *367:27 *739:mem_rdata_i[11] 0.00349376
18 *367:27 *373:17 0.0553938
19 *367:27 *649:15 0.00267795
20 *101:19 *367:27 0.00887528
21 *284:17 *367:27 0
22 *290:13 *367:25 0.000213039
23 *301:25 *367:21 0.000161766
24 *301:27 *367:25 0.00235504
25 *302:15 *367:25 0.00403386
26 *353:15 *367:15 0.000322636
27 *356:41 *367:31 0.00350322
28 *359:17 *367:15 0.00313747
29 *360:35 *367:31 0.016346
30 *362:31 *367:31 0.0164568
31 *363:7 *367:13 0.000593047
32 *365:15 *367:15 0.000390708
*RES
1 *739:la_data_out_o[70] *367:13 8.21003 
2 *367:13 *367:15 310.95 
3 *367:15 *367:21 10.99 
4 *367:21 *367:25 44.54 
5 *367:25 *367:27 623.07 
6 *367:27 *367:29 2 
7 *367:29 *367:31 151.56 
8 *367:31 la_data_out[70] 14.165 
*END

*D_NET *368 0.258966
*CONN
*P la_data_out[71] O
*I *739:la_data_out_o[71] O *D ntt_wb_bridge
*CAP
1 la_data_out[71] 0.0007804
2 *739:la_data_out_o[71] 0.000731819
3 *368:27 0.00332253
4 *368:25 0.00254213
5 *368:23 0.00937856
6 *368:21 0.00937856
7 *368:19 0.00234996
8 *368:17 0.00241903
9 *368:15 0.00816137
10 *368:13 0.00882412
11 *368:15 *389:15 0.00736087
12 *368:15 *398:15 0.000219474
13 *368:15 *726:15 0.000211044
14 *368:19 *389:15 0
15 *368:19 *398:15 0.000768962
16 *368:19 *726:15 0.00470574
17 *368:23 *379:19 0.0562434
18 *368:23 *733:11 0.0101567
19 *368:23 *733:37 0.00177256
20 *368:27 la_data_out[75] 0.00162245
21 *368:27 la_data_out[79] 0.000109008
22 *368:27 *369:23 0.0135011
23 *368:27 *370:23 0.000338414
24 *368:27 *371:23 1.52352e-05
25 *368:27 *378:33 0.000139951
26 la_data_out[67] *368:27 0.00117578
27 *279:15 *368:15 0.00239982
28 *299:15 *368:19 0
29 *300:15 *368:19 0.000899771
30 *357:17 *368:15 0.000255081
31 *358:17 *368:15 0.00649232
32 *360:19 *368:15 0.028041
33 *361:27 *368:23 0.0562325
34 *361:31 *368:27 0.000298514
35 *362:15 *368:15 0.00208152
36 *362:31 *368:27 1.54665e-05
37 *363:7 *368:13 0.000542686
38 *365:23 *368:27 0.0154778
*RES
1 *739:la_data_out_o[71] *368:13 10.9416 
2 *368:13 *368:15 300.427 
3 *368:15 *368:17 1.125 
4 *368:17 *368:19 57.5475 
5 *368:19 *368:21 2 
6 *368:21 *368:23 632.76 
7 *368:23 *368:25 2 
8 *368:25 *368:27 147.765 
9 *368:27 la_data_out[71] 15.185 
*END

*D_NET *369 0.265548
*CONN
*P la_data_out[72] O
*I *739:la_data_out_o[72] O *D ntt_wb_bridge
*CAP
1 la_data_out[72] 0.000798933
2 *739:la_data_out_o[72] 0.000493561
3 *369:23 0.00287342
4 *369:21 0.00207448
5 *369:19 0.00936917
6 *369:17 0.00936917
7 *369:15 0.00503626
8 *369:13 0.00552983
9 *369:15 *370:15 0.0371227
10 *369:15 *371:15 0.0365533
11 *369:15 *396:15 0.000119028
12 *369:15 *397:15 0.000711206
13 *369:19 *739:mem_rdata_i[11] 0.00311686
14 *369:19 *373:17 0.0556092
15 *369:19 *649:15 6.88939e-05
16 *369:23 la_data_out[75] 0.00182377
17 *369:23 *370:23 0.0120403
18 la_data_out[67] *369:23 0.000551321
19 *101:19 *369:19 0.00472791
20 *277:15 *369:15 0.00360287
21 *353:15 *369:15 0.00291509
22 *359:17 *369:15 0.000209882
23 *360:31 *369:19 0.0558091
24 *363:7 *369:13 0.000492325
25 *365:15 *369:15 0.000341577
26 *367:15 *369:15 0.000687015
27 *368:27 *369:23 0.0135011
*RES
1 *739:la_data_out_o[72] *369:13 7.5531 
2 *369:13 *369:15 342.345 
3 *369:15 *369:17 2 
4 *369:17 *369:19 628.17 
5 *369:19 *369:21 2 
6 *369:21 *369:23 124.305 
7 *369:23 la_data_out[72] 15.44 
*END

*D_NET *370 0.256417
*CONN
*P la_data_out[73] O
*I *739:la_data_out_o[73] O *D ntt_wb_bridge
*CAP
1 la_data_out[73] 0.000817466
2 *739:la_data_out_o[73] 0.000461877
3 *370:23 0.00282175
4 *370:21 0.00200429
5 *370:19 0.0112989
6 *370:17 0.0112989
7 *370:15 0.00507316
8 *370:13 0.00553504
9 *370:15 *371:15 0.000338098
10 *370:15 *396:15 0.000109729
11 *370:15 *397:15 0.000774302
12 *370:19 *371:19 0.0541234
13 *370:19 *372:17 1.01155e-05
14 *370:19 *683:27 8.73147e-06
15 *370:23 la_data_out[75] 0.00198973
16 *370:23 *371:23 0.011206
17 la_data_out[67] *370:23 0.000197928
18 *277:15 *370:15 0.00329537
19 *353:15 *370:15 0.00330941
20 *363:7 *370:13 0.000441964
21 *365:15 *370:15 0.0376771
22 *365:19 *370:19 0.0541224
23 *368:27 *370:23 0.000338414
24 *369:15 *370:15 0.0371227
25 *369:23 *370:23 0.0120403
*RES
1 *739:la_data_out_o[73] *370:13 7.22463 
2 *370:13 *370:15 342.69 
3 *370:15 *370:17 2 
4 *370:17 *370:19 627.66 
5 *370:19 *370:21 2 
6 *370:21 *370:23 116.37 
7 *370:23 la_data_out[73] 15.695 
*END

*D_NET *371 0.246668
*CONN
*P la_data_out[74] O
*I *739:la_data_out_o[74] O *D ntt_wb_bridge
*CAP
1 la_data_out[74] 0.000836
2 *739:la_data_out_o[74] 0.000488651
3 *371:23 0.00405686
4 *371:21 0.00322086
5 *371:19 0.0113215
6 *371:17 0.0113215
7 *371:15 0.00503719
8 *371:13 0.00552585
9 *371:15 *393:15 0.000945453
10 *371:15 *396:15 0.000130674
11 *371:15 *397:15 0.00402054
12 *371:15 *530:15 0.00357075
13 *371:19 *372:17 0.0539022
14 *371:19 *661:27 0.000138427
15 *371:19 *683:27 1.23015e-05
16 *371:23 la_data_out[75] 0.0018352
17 *371:23 *378:33 0.002539
18 la_data_out[67] *371:23 0.000195692
19 *353:15 *371:15 0.00291509
20 *363:7 *371:13 0.000391602
21 *367:15 *371:15 0.0320273
22 *368:27 *371:23 1.52352e-05
23 *369:15 *371:15 0.0365533
24 *370:15 *371:15 0.000338098
25 *370:19 *371:19 0.0541234
26 *370:23 *371:23 0.011206
*RES
1 *739:la_data_out_o[74] *371:13 7.66117 
2 *371:13 *371:15 337.86 
3 *371:15 *371:17 2 
4 *371:17 *371:19 627.915 
5 *371:19 *371:21 2 
6 *371:21 *371:23 103.605 
7 *371:23 la_data_out[74] 15.95 
*END

*D_NET *372 0.231326
*CONN
*P la_data_out[75] O
*I *739:la_data_out_o[75] O *D ntt_wb_bridge
*CAP
1 la_data_out[75] 0.00614586
2 *739:la_data_out_o[75] 0.000304774
3 *372:17 0.0176015
4 *372:15 0.0114556
5 *372:13 0.00728382
6 *372:11 0.0075886
7 la_data_out[75] la_data_out[79] 0.00133838
8 la_data_out[75] *375:33 1.79809e-05
9 la_data_out[75] *378:33 0.000180279
10 *372:13 *373:13 0.0364118
11 *372:13 *380:13 0.000610906
12 *372:13 *382:15 0.000216252
13 *372:13 *383:35 0.00012905
14 *372:17 *374:19 0.0237211
15 *372:17 *661:27 0.0145543
16 la_data_out[67] la_data_out[75] 0.00450621
17 *291:13 *372:13 0.000118286
18 *353:15 *372:13 0
19 *354:31 la_data_out[75] 9.75877e-05
20 *363:7 *372:11 8.67064e-05
21 *363:7 *372:13 0.0358919
22 *365:19 *372:17 1.01441e-05
23 *365:23 la_data_out[75] 0.00187148
24 *368:27 la_data_out[75] 0.00162245
25 *369:23 la_data_out[75] 0.00182377
26 *370:19 *372:17 1.01155e-05
27 *370:23 la_data_out[75] 0.00198973
28 *371:19 *372:17 0.0539022
29 *371:23 la_data_out[75] 0.0018352
*RES
1 *739:la_data_out_o[75] *372:11 4.1338 
2 *372:11 *372:13 56.2653 
3 *372:13 *372:15 0.5 
4 *372:15 *372:17 625.365 
5 *372:17 la_data_out[75] 29.6164 
*END

*D_NET *373 0.240997
*CONN
*P la_data_out[76] O
*I *739:la_data_out_o[76] O *D ntt_wb_bridge
*CAP
1 la_data_out[76] 0.0022581
2 *739:la_data_out_o[76] 0.000362882
3 *373:17 0.011755
4 *373:15 0.00949691
5 *373:13 0.00706828
6 *373:11 0.00743116
7 la_data_out[76] la_data_out[77] 0.0064073
8 *373:13 *382:15 0.00474199
9 *373:13 *392:19 0.0227696
10 *373:17 *739:mem_rdata_i[11] 0.00311686
11 *373:17 *649:15 0.000157232
12 la_data_out[68] la_data_out[76] 0.00766133
13 *101:19 *373:17 0.00825646
14 *353:15 *373:13 0.00117566
15 *354:31 la_data_out[76] 0.00080673
16 *360:31 *373:17 5.23888e-05
17 *363:7 *373:11 6.47527e-05
18 *367:27 *373:17 0.0553938
19 *369:19 *373:17 0.0556092
20 *372:13 *373:13 0.0364118
*RES
1 *739:la_data_out_o[76] *373:11 4.57033 
2 *373:11 *373:13 54.4008 
3 *373:13 *373:15 0.5 
4 *373:15 *373:17 628.935 
5 *373:17 la_data_out[76] 23.3517 
*END

*D_NET *374 0.230055
*CONN
*P la_data_out[77] O
*I *739:la_data_out_o[77] O *D ntt_wb_bridge
*CAP
1 la_data_out[77] 0.0022029
2 *739:la_data_out_o[77] 0.000855849
3 *374:19 0.0132194
4 *374:17 0.0110165
5 *374:15 0.00809547
6 *374:13 0.00895132
7 *374:15 *376:15 0.0344714
8 *374:15 *385:15 0.0293114
9 *374:15 *725:23 0
10 *374:15 *729:15 0.000209882
11 *374:15 *737:23 0.00787137
12 *374:19 *382:17 5.68368e-05
13 *374:19 *383:37 0.055749
14 *374:19 *661:27 0.0153173
15 la_data_out[76] la_data_out[77] 0.0064073
16 *276:15 *374:15 0.00375184
17 *352:13 *374:15 0.00148226
18 *354:31 la_data_out[77] 0.00712337
19 *361:27 *374:19 0
20 *363:7 *374:13 0.000240519
21 *372:17 *374:19 0.0237211
*RES
1 *739:la_data_out_o[77] *374:13 11.9333 
2 *374:13 *374:15 54.6339 
3 *374:15 *374:17 0.5 
4 *374:17 *374:19 637.095 
5 *374:19 la_data_out[77] 22.6964 
*END

*D_NET *375 0.251691
*CONN
*P la_data_out[78] O
*I *739:la_data_out_o[78] O *D ntt_wb_bridge
*CAP
1 la_data_out[78] 0.000569094
2 *739:la_data_out_o[78] 0.00109603
3 *375:33 0.00333596
4 *375:19 0.0123254
5 *375:17 0.00955857
6 *375:15 0.00809683
7 *375:13 0.00919286
8 *375:15 *378:21 0.0283864
9 *375:15 *379:15 0
10 *375:15 *386:23 0.00515346
11 *375:15 *390:15 0.000109836
12 *375:15 *394:15 0.000119831
13 *375:15 *683:23 0.0069912
14 *375:15 *711:15 0.000481133
15 *375:15 *728:15 0.000112472
16 *375:19 *739:mem_rdata_i[8] 0.00255194
17 *375:19 *378:27 0.0566616
18 *375:19 *708:13 0.00367695
19 *375:19 *724:13 0.000685256
20 *375:33 la_data_out[79] 0.00315987
21 *375:33 la_data_out[81] 0.00168753
22 *375:33 la_data_out[84] 0.000189064
23 *375:33 *383:43 0.000110612
24 la_data_out[68] *375:33 0.0012602
25 la_data_out[75] *375:33 1.79809e-05
26 *284:21 *375:33 0.000101386
27 *353:21 *375:15 0.00422502
28 *354:27 *375:19 0.0568258
29 *354:31 *375:33 0.000377509
30 *359:45 *375:33 0
31 *360:35 *375:33 0
32 *361:31 *375:33 0.000101392
33 *362:31 *375:33 0.000202771
34 *363:7 *375:13 0.000190157
35 *364:15 *375:15 0.0341372
*RES
1 *739:la_data_out_o[78] *375:13 15.9398 
2 *375:13 *375:15 55.2165 
3 *375:15 *375:17 0.5 
4 *375:17 *375:19 639.645 
5 *375:19 *375:33 49.3813 
6 *375:33 la_data_out[78] 10.125 
*END

*D_NET *376 0.240007
*CONN
*P la_data_out[79] O
*I *739:la_data_out_o[79] O *D ntt_wb_bridge
*CAP
1 la_data_out[79] 0.00246166
2 *739:la_data_out_o[79] 0.000951285
3 *376:19 0.0136587
4 *376:17 0.0111971
5 *376:15 0.00726595
6 *376:13 0.00821724
7 la_data_out[79] la_data_out[81] 0
8 la_data_out[79] la_data_out[84] 0.000217076
9 *376:15 *379:15 0.0337426
10 *376:15 *385:15 0.000241443
11 *376:15 *725:15 0.0043687
12 *376:15 *725:23 0.00020823
13 *376:15 *729:15 0.000246578
14 *376:19 *379:19 0.0564683
15 *376:19 *733:11 0.00866884
16 *376:19 *733:37 0.00116021
17 *376:19 *734:19 0.0490654
18 la_data_out[68] la_data_out[79] 0.000605248
19 la_data_out[75] la_data_out[79] 0.00133838
20 *105:19 *376:19 0
21 *360:27 *376:15 0.00205587
22 *360:35 la_data_out[79] 0
23 *363:7 *376:13 0.000127927
24 *368:27 la_data_out[79] 0.000109008
25 *374:15 *376:15 0.0344714
26 *375:33 la_data_out[79] 0.00315987
*RES
1 *739:la_data_out_o[79] *376:13 12.2963 
2 *376:13 *376:15 53.5851 
3 *376:15 *376:17 0.5 
4 *376:17 *376:19 635.565 
5 *376:19 la_data_out[79] 46.0906 
*END

*D_NET *377 0.120185
*CONN
*P la_data_out[7] O
*I *739:la_data_out_o[7] O *D ntt_wb_bridge
*CAP
1 la_data_out[7] 0.0352702
2 *739:la_data_out_o[7] 0.00235997
3 *377:33 0.0477139
4 *377:29 0.0148037
5 *377:29 *388:25 0.00471951
6 *377:33 *399:25 0
7 *126:31 *377:33 0.00727034
8 *310:21 *377:29 0.000413106
9 *311:23 *377:33 0
10 *312:15 *377:29 0.00471951
11 *316:33 *377:29 0.000748233
12 *327:15 *377:29 0.00104012
13 *327:35 *377:29 1.10838e-05
14 *333:29 *377:29 0.000433033
15 *335:27 *377:29 0.000249379
16 *341:47 *377:29 0.000432509
*RES
1 *739:la_data_out_o[7] *377:29 39.0391 
2 *377:29 *377:33 38.994 
3 *377:33 la_data_out[7] 625.312 
*END

*D_NET *378 0.230627
*CONN
*P la_data_out[80] O
*I *739:la_data_out_o[80] O *D ntt_wb_bridge
*CAP
1 la_data_out[80] 0.000883202
2 *739:la_data_out_o[80] 0.00111015
3 *378:33 0.00239871
4 *378:27 0.0132859
5 *378:25 0.0117703
6 *378:23 0.00186214
7 *378:21 0.00648685
8 *378:13 0.00573486
9 *378:21 *384:21 0.00371804
10 *378:21 *711:15 0.00624344
11 *378:21 *728:15 0.00569415
12 *378:23 *384:21 0.000734404
13 *378:23 *656:15 0.00474712
14 *378:23 *668:19 0.00429832
15 *378:23 *675:27 0
16 *378:23 *678:19 1.91597e-05
17 *378:23 *711:15 0.000887267
18 *378:23 *728:15 0.000142249
19 *378:27 *739:mem_rdata_i[8] 0.00238785
20 *378:27 *650:19 0.0472077
21 *378:27 *708:13 0.00412005
22 *378:27 *724:13 0.000612825
23 *378:33 la_data_out[84] 0.000101392
24 la_data_out[75] *378:33 0.000180279
25 *78:31 *378:27 0
26 *105:23 *378:23 0.00038879
27 *353:21 *378:21 0.0176141
28 *353:21 *378:23 0.000110525
29 *354:27 *378:27 7.09037e-05
30 *362:31 *378:33 0
31 *363:7 *378:13 8.94347e-05
32 *368:27 *378:33 0.000139951
33 *371:23 *378:33 0.002539
34 *375:15 *378:21 0.0283864
35 *375:19 *378:27 0.0566616
*RES
1 *739:la_data_out_o[80] *378:13 16.3029 
2 *378:13 *378:21 45.8008 
3 *378:21 *378:23 68.07 
4 *378:23 *378:25 2 
5 *378:25 *378:27 639.39 
6 *378:27 *378:33 37.57 
7 *378:33 la_data_out[80] 14.205 
*END

*D_NET *379 0.219934
*CONN
*P la_data_out[81] O
*I *739:la_data_out_o[81] O *D ntt_wb_bridge
*CAP
1 la_data_out[81] 0.00124529
2 *739:la_data_out_o[81] 0.000867854
3 *379:19 0.0108308
4 *379:17 0.00958549
5 *379:15 0.0111106
6 *379:13 0.0119784
7 *379:15 *725:23 0.00292377
8 *379:15 *729:15 0.00674168
9 *379:15 *737:21 4.00045e-05
10 *379:19 *733:11 0.0094513
11 *379:19 *733:37 0.00121322
12 *379:19 *734:19 2.2142e-05
13 la_data_out[79] la_data_out[81] 0
14 *284:21 la_data_out[81] 0.000110612
15 *354:31 la_data_out[81] 0.00169037
16 *361:27 *379:19 0.000133821
17 *363:7 *379:13 3.90734e-05
18 *364:15 *379:15 0.00380788
19 *368:23 *379:19 0.0562434
20 *375:15 *379:15 0
21 *375:33 la_data_out[81] 0.00168753
22 *376:15 *379:15 0.0337426
23 *376:19 *379:19 0.0564683
*RES
1 *739:la_data_out_o[81] *379:13 12.6594 
2 *379:13 *379:15 51.7788 
3 *379:15 *379:17 0.5 
4 *379:17 *379:19 637.095 
5 *379:19 la_data_out[81] 15.3842 
*END

*D_NET *380 0.163505
*CONN
*P la_data_out[82] O
*I *739:la_data_out_o[82] O *D ntt_wb_bridge
*CAP
1 la_data_out[82] 0.0256237
2 *739:la_data_out_o[82] 0.00071955
3 *380:13 0.0387667
4 *380:9 0.0138625
5 la_data_out[82] *382:17 0
6 la_data_out[82] *383:37 0
7 la_data_out[82] *733:11 0.00943609
8 la_data_out[82] *733:37 0.00162181
9 *380:9 *381:13 0.000316318
10 *380:9 *382:11 0.000131345
11 *380:9 *383:23 0.000636462
12 *380:9 *384:19 2.89732e-06
13 *380:13 *383:23 0.027037
14 *380:13 *384:19 0.000177769
15 *380:13 *385:13 0.000336031
16 *380:13 *386:21 0.000245728
17 *380:13 *387:13 0.000224922
18 *380:13 *389:13 0.000184947
19 *380:13 *390:13 0.000131785
20 *380:13 *391:13 8.42249e-05
21 *380:13 *392:19 4.54891e-05
22 *380:13 *393:13 0.000303036
23 *380:13 *394:13 0.000532267
24 *380:13 *395:13 0.000481905
25 *380:13 *396:13 0.000431544
26 *380:13 *397:13 0.000365193
27 *380:13 *398:13 0.000330822
28 *380:13 *529:13 0.000143269
29 *380:13 *530:13 0.000113747
30 *380:13 *531:21 0.000553442
31 *380:13 *731:41 8.01643e-05
32 *273:13 *380:13 0.000270877
33 *274:13 *380:13 0.000150216
34 *275:13 *380:13 0.000179738
35 *276:13 *380:13 0.000118392
36 *277:13 *380:13 3.52773e-05
37 *278:13 *380:13 0.000103327
38 *279:13 *380:13 0.000577418
39 *280:13 *380:13 0.000287407
40 *281:17 *380:13 0.00046277
41 *282:17 *380:13 0.000426334
42 *284:11 *380:13 0.000180888
43 *284:13 *380:13 0.00262127
44 *285:11 *380:13 0.000167103
45 *285:13 *380:13 0.00020279
46 *286:11 *380:13 7.61246e-05
47 *286:13 *380:13 0.0013347
48 *287:11 *380:13 0.000107678
49 *287:13 *380:13 0.000489459
50 *288:21 *380:13 9.46445e-05
51 *289:11 *380:13 5.75556e-05
52 *289:13 *380:13 0.000228319
53 *290:11 *380:13 4.26652e-05
54 *290:13 *380:13 0.000323784
55 *291:11 *380:13 5.10592e-05
56 *292:13 *380:13 0.000572208
57 *293:11 *380:13 0.000186598
58 *295:29 *380:13 0.000271777
59 *295:31 *380:13 0.000578921
60 *296:13 *380:13 0.000421124
61 *297:11 *380:13 0.000177421
62 *297:13 *380:13 0.000785771
63 *298:17 *380:13 0.000320402
64 *299:13 *380:13 0.000267239
65 *300:13 *380:13 0.000219679
66 *301:25 *380:13 0.000129376
67 *302:15 *380:13 3.08905e-05
68 *361:27 la_data_out[82] 0.0236566
69 *363:7 *380:9 0.00263477
70 *363:7 *380:13 0.00113121
71 *372:13 *380:13 0.000610906
*RES
1 *739:la_data_out_o[82] *380:9 4.2598 
2 *380:9 *380:13 47.2387 
3 *380:13 la_data_out[82] 637.042 
*END

*D_NET *381 0.142162
*CONN
*P la_data_out[83] O
*I *739:la_data_out_o[83] O *D ntt_wb_bridge
*CAP
1 la_data_out[83] 0.0251026
2 *739:la_data_out_o[83] 0.000487377
3 *381:25 0.0251026
4 *381:23 0.00570346
5 *381:21 0.00589989
6 *381:15 0.00447586
7 *381:13 0.00476681
8 la_data_out[83] *704:19 0.0164289
9 la_data_out[83] *707:11 0
10 *381:15 *382:15 0.00511538
11 *381:23 *383:23 0.000731472
12 *381:23 *392:21 0.00546504
13 *277:13 *381:21 0
14 *278:13 *381:21 0
15 *284:13 *381:23 0.0034389
16 *288:23 *381:23 0.0108597
17 *291:13 *381:23 0.000687513
18 *293:13 *381:23 0.00332234
19 *353:23 la_data_out[83] 0.0112701
20 *362:27 la_data_out[83] 0
21 *363:7 *381:23 0.000118286
22 *365:15 *381:15 0.0128694
23 *380:9 *381:13 0.000316318
*RES
1 *739:la_data_out_o[83] *381:13 7.7017 
2 *381:13 *381:15 116.715 
3 *381:15 *381:21 6.91 
4 *381:21 *381:23 185.715 
5 *381:23 *381:25 2 
6 *381:25 la_data_out[83] 637.935 
*END

*D_NET *382 0.175183
*CONN
*P la_data_out[84] O
*I *739:la_data_out_o[84] O *D ntt_wb_bridge
*CAP
1 la_data_out[84] 0.00267079
2 *739:la_data_out_o[84] 0.000411996
3 *382:17 0.0248211
4 *382:15 0.0297036
5 *382:11 0.00796529
6 *382:15 *392:19 0.0227696
7 *382:15 *396:15 0.000159067
8 *382:15 *397:15 0.0014618
9 *382:15 *531:21 0.00255523
10 *382:17 *383:37 0.0555951
11 *382:17 *733:37 0.000455938
12 la_data_out[79] la_data_out[84] 0.000217076
13 la_data_out[82] *382:17 0
14 *138:13 la_data_out[84] 0
15 *277:15 *382:15 0.00975952
16 *301:25 *382:15 0.000368732
17 *353:15 *382:15 0.00334302
18 *359:17 *382:15 0.000109199
19 *361:27 *382:17 0
20 *365:15 *382:15 0.00226381
21 *372:13 *382:15 0.000216252
22 *373:13 *382:15 0.00474199
23 *374:19 *382:17 5.68368e-05
24 *375:33 la_data_out[84] 0.000189064
25 *378:33 la_data_out[84] 0.000101392
26 *380:9 *382:11 0.000131345
27 *381:15 *382:15 0.00511538
*RES
1 *739:la_data_out_o[84] *382:11 5.7018 
2 *382:11 *382:15 48.4332 
3 *382:15 *382:17 626.385 
4 *382:17 la_data_out[84] 19.5801 
*END

*D_NET *383 0.216902
*CONN
*P la_data_out[85] O
*I *739:la_data_out_o[85] O *D ntt_wb_bridge
*CAP
1 la_data_out[85] 0.000661805
2 *739:la_data_out_o[85] 0.00498614
3 *383:43 0.00126975
4 *383:37 0.00992142
5 *383:35 0.0109329
6 *383:23 0.0066056
7 *383:23 *530:13 0
8 *383:35 *389:27 0.000266272
9 *383:35 *395:21 0.000265041
10 *383:37 *733:37 0.000455938
11 la_data_out[82] *383:37 0
12 *284:21 *383:43 0.00450253
13 *288:23 *383:23 0.000954778
14 *290:13 *383:35 0.000645113
15 *291:13 *383:35 0.00324989
16 *302:15 *383:35 0.000647437
17 *302:21 *383:43 0.00450547
18 *363:7 *383:23 0.0270437
19 *365:15 *383:35 0
20 *372:13 *383:35 0.00012905
21 *374:19 *383:37 0.055749
22 *375:33 *383:43 0.000110612
23 *380:9 *383:23 0.000636462
24 *380:13 *383:23 0.027037
25 *381:23 *383:23 0.000731472
26 *382:17 *383:37 0.0555951
*RES
1 *739:la_data_out_o[85] *383:23 48.6342 
2 *383:23 *383:35 45.855 
3 *383:35 *383:37 627.15 
4 *383:37 *383:43 45.505 
5 *383:43 la_data_out[85] 11.91 
*END

*D_NET *384 0.158062
*CONN
*P la_data_out[86] O
*I *739:la_data_out_o[86] O *D ntt_wb_bridge
*CAP
1 la_data_out[86] 0.0364935
2 *739:la_data_out_o[86] 0.00297394
3 *384:23 0.0364935
4 *384:21 0.0043718
5 *384:19 0.00734574
6 la_data_out[86] *530:19 0
7 la_data_out[86] *703:11 0.00368222
8 *384:19 *386:21 0.00327511
9 *384:19 *668:11 0.00120984
10 *384:19 *676:19 0.00381957
11 *384:21 *386:23 0.0296367
12 *384:21 *683:23 2.30292e-05
13 *384:21 *728:15 0.0218516
14 *77:49 la_data_out[86] 0
15 *105:23 *384:21 0.00225227
16 *378:21 *384:21 0.00371804
17 *378:23 *384:21 0.000734404
18 *380:9 *384:19 2.89732e-06
19 *380:13 *384:19 0.000177769
*RES
1 *739:la_data_out_o[86] *384:19 36.2774 
2 *384:19 *384:21 269.55 
3 *384:21 *384:23 2 
4 *384:23 la_data_out[86] 652.47 
*END

*D_NET *385 0.180854
*CONN
*P la_data_out[87] O
*I *739:la_data_out_o[87] O *D ntt_wb_bridge
*CAP
1 la_data_out[87] 0.0266152
2 *739:la_data_out_o[87] 0.000877835
3 *385:17 0.0266152
4 *385:15 0.00991274
5 *385:13 0.0107906
6 la_data_out[87] *651:11 0.0234316
7 *385:15 *387:15 0.0356604
8 *77:59 la_data_out[87] 0.00393865
9 *78:55 la_data_out[87] 0.00129506
10 *274:15 *385:15 0.0053747
11 *275:15 *385:15 0.0049264
12 *276:15 *385:15 0.00118193
13 *352:13 *385:15 0.000344861
14 *374:15 *385:15 0.0293114
15 *376:15 *385:15 0.000241443
16 *380:13 *385:13 0.000336031
*RES
1 *739:la_data_out_o[87] *385:13 12.4103 
2 *385:13 *385:15 56.5567 
3 *385:15 *385:17 0.5 
4 *385:17 la_data_out[87] 647.242 
*END

*D_NET *386 0.160914
*CONN
*P la_data_out[88] O
*I *739:la_data_out_o[88] O *D ntt_wb_bridge
*CAP
1 la_data_out[88] 0.0364475
2 *739:la_data_out_o[88] 0.00234668
3 *386:25 0.0364475
4 *386:23 0.00473603
5 *386:21 0.0070827
6 la_data_out[88] *670:15 0
7 *386:21 *668:11 6.04344e-05
8 *386:21 *668:17 0.000102017
9 *386:21 *676:19 9.70043e-06
10 *386:21 *713:17 0.0054647
11 *386:23 *390:15 0.00545709
12 *386:23 *683:23 0.0233493
13 *105:23 *386:23 0.000979732
14 *352:13 *386:21 6.14394e-05
15 *353:15 *386:21 5.79895e-05
16 *375:15 *386:23 0.00515346
17 *380:13 *386:21 0.000245728
18 *384:19 *386:21 0.00327511
19 *384:21 *386:23 0.0296367
*RES
1 *739:la_data_out_o[88] *386:21 32.2699 
2 *386:21 *386:23 295.77 
3 *386:23 *386:25 2 
4 *386:25 la_data_out[88] 652.215 
*END

*D_NET *387 0.178136
*CONN
*P la_data_out[89] O
*I *739:la_data_out_o[89] O *D ntt_wb_bridge
*CAP
1 la_data_out[89] 0.0361071
2 *739:la_data_out_o[89] 0.000863284
3 *387:17 0.0361071
4 *387:15 0.00874578
5 *387:13 0.00960906
6 *387:15 *391:15 0.0379329
7 *273:15 *387:15 0.00602763
8 *274:15 *387:15 0.000461119
9 *275:15 *387:15 0.000287634
10 *276:15 *387:15 0.00042576
11 *280:15 *387:15 0.00494326
12 *297:17 la_data_out[89] 0
13 *352:13 *387:15 0.000739663
14 *380:13 *387:13 0.000224922
15 *385:15 *387:15 0.0356604
*RES
1 *739:la_data_out_o[89] *387:13 11.7534 
2 *387:13 *387:15 59.2952 
3 *387:15 *387:17 0.5 
4 *387:17 la_data_out[89] 646.732 
*END

*D_NET *388 0.132723
*CONN
*P la_data_out[8] O
*I *739:la_data_out_o[8] O *D ntt_wb_bridge
*CAP
1 la_data_out[8] 0.0357653
2 *739:la_data_out_o[8] 0.00236469
3 *388:29 0.0452075
4 *388:25 0.0118069
5 *272:23 *388:25 1.92979e-05
6 *304:13 *388:25 0.000105621
7 *308:13 *388:25 0.000106603
8 *310:21 *388:25 0.000490588
9 *311:23 *388:25 6.5449e-05
10 *312:15 *388:25 0.000673922
11 *322:23 *388:29 0.0234681
12 *323:21 *388:25 0.000176919
13 *324:15 *388:25 0.00119141
14 *325:15 *388:25 0.00130746
15 *327:15 *388:25 0.000119756
16 *333:33 *388:29 0
17 *335:27 *388:25 0.000212434
18 *337:21 *388:25 0.00131934
19 *344:17 *388:25 0.00360183
20 *377:29 *388:25 0.00471951
*RES
1 *739:la_data_out_o[8] *388:25 24.7838 
2 *388:25 *388:29 36.5468 
3 *388:29 la_data_out[8] 633.982 
*END

*D_NET *389 0.144451
*CONN
*P la_data_out[90] O
*I *739:la_data_out_o[90] O *D ntt_wb_bridge
*CAP
1 la_data_out[90] 0.0262299
2 *739:la_data_out_o[90] 0.000598655
3 *389:31 0.0262299
4 *389:29 0.00396317
5 *389:27 0.00616014
6 *389:15 0.00851042
7 *389:13 0.00691209
8 la_data_out[90] *692:11 0.0258424
9 *389:15 *393:15 0
10 *389:15 *395:15 0.00170126
11 *389:27 *393:23 0
12 *389:27 *395:21 0.000178803
13 *389:27 *395:23 0
14 *389:29 *393:23 0.0114064
15 *278:15 *389:15 0.00720616
16 *279:15 *389:15 0.000109729
17 *282:17 *389:15 0.00182394
18 *288:21 *389:15 0.000777413
19 *299:15 *389:15 0.00320668
20 *301:27 *389:27 0.00332101
21 *301:27 *389:29 0
22 *356:21 *389:15 0.00234054
23 *367:15 *389:15 0
24 *367:25 *389:27 0.000120689
25 *368:15 *389:15 0.00736087
26 *368:19 *389:15 0
27 *380:13 *389:13 0.000184947
28 *383:35 *389:27 0.000266272
*RES
1 *739:la_data_out_o[90] *389:13 10.2474 
2 *389:13 *389:15 220.56 
3 *389:15 *389:27 48.1675 
4 *389:27 *389:29 105.503 
5 *389:29 *389:31 2 
6 *389:31 la_data_out[90] 633.345 
*END

*D_NET *390 0.165435
*CONN
*P la_data_out[91] O
*I *739:la_data_out_o[91] O *D ntt_wb_bridge
*CAP
1 la_data_out[91] 0.0363779
2 *739:la_data_out_o[91] 0.00114215
3 *390:17 0.0363779
4 *390:15 0.0066257
5 *390:13 0.00776785
6 *390:15 *394:15 0.0370424
7 *390:15 *683:23 0.026866
8 *390:15 *701:15 0.00165438
9 *105:23 *390:15 0
10 *276:19 la_data_out[91] 0
11 *364:15 *390:15 0.00588178
12 *375:15 *390:15 0.000109836
13 *380:13 *390:13 0.000131785
14 *386:23 *390:15 0.00545709
*RES
1 *739:la_data_out_o[91] *390:13 18.079 
2 *390:13 *390:15 367.53 
3 *390:15 *390:17 2 
4 *390:17 la_data_out[91] 651.705 
*END

*D_NET *391 0.184604
*CONN
*P la_data_out[92] O
*I *739:la_data_out_o[92] O *D ntt_wb_bridge
*CAP
1 la_data_out[92] 0.0360429
2 *739:la_data_out_o[92] 0.000748202
3 *391:17 0.0360429
4 *391:15 0.0094958
5 *391:13 0.010244
6 *391:15 *398:15 0.0376984
7 *391:15 *726:15 0.000981672
8 *273:15 *391:15 0.000735449
9 *274:15 *391:15 0.000550056
10 *275:15 *391:15 0.000679053
11 *276:15 *391:15 0.000256294
12 *280:15 *391:15 0.000551201
13 *296:15 *391:15 0.00416533
14 *300:15 *391:15 0.00587264
15 *352:13 *391:15 0.00185811
16 *358:17 *391:15 0.00066494
17 *380:13 *391:13 8.42249e-05
18 *387:15 *391:15 0.0379329
*RES
1 *739:la_data_out_o[92] *391:13 11.023 
2 *391:13 *391:15 63.4321 
3 *391:15 *391:17 0.5 
4 *391:17 la_data_out[92] 646.222 
*END

*D_NET *392 0.167208
*CONN
*P la_data_out[93] O
*I *739:la_data_out_o[93] O *D ntt_wb_bridge
*CAP
1 la_data_out[93] 0.034996
2 *739:la_data_out_o[93] 0.00392333
3 *392:23 0.034996
4 *392:21 0.00341594
5 *392:19 0.00733927
6 la_data_out[93] *529:19 0
7 *77:87 la_data_out[93] 0.00066971
8 *78:71 la_data_out[93] 0.00181494
9 *288:23 *392:21 0.00873963
10 *293:13 *392:21 0.0201452
11 *363:7 *392:21 0.000118286
12 *373:13 *392:19 0.0227696
13 *380:13 *392:19 4.54891e-05
14 *381:23 *392:21 0.00546504
15 *382:15 *392:19 0.0227696
*RES
1 *739:la_data_out_o[93] *392:19 42.6393 
2 *392:19 *392:21 184.335 
3 *392:21 *392:23 2 
4 *392:23 la_data_out[93] 638.19 
*END

*D_NET *393 0.164416
*CONN
*P la_data_out[94] O
*I *739:la_data_out_o[94] O *D ntt_wb_bridge
*CAP
1 la_data_out[94] 0.0365646
2 *739:la_data_out_o[94] 0.00053908
3 *393:25 0.0365646
4 *393:23 0.0050916
5 *393:21 0.00539547
6 *393:15 0.00393147
7 *393:13 0.00416668
8 *393:15 *395:15 0.0114839
9 *393:15 *396:15 0.00409663
10 *393:15 *529:15 0.00118507
11 *393:15 *530:15 0.0005339
12 *393:21 *395:21 0.000743651
13 *393:21 *731:41 0.000169865
14 *393:23 *395:23 0.0205889
15 *295:29 *393:21 0.000530387
16 *298:21 *393:21 2.07356e-05
17 *301:27 *393:23 0
18 *359:17 *393:15 0.000425652
19 *367:15 *393:15 0.0197288
20 *371:15 *393:15 0.000945453
21 *380:13 *393:13 0.000303036
22 *389:15 *393:15 0
23 *389:27 *393:23 0
24 *389:29 *393:23 0.0114064
*RES
1 *739:la_data_out_o[94] *393:13 8.8897 
2 *393:13 *393:15 198.135 
3 *393:15 *393:21 13.285 
4 *393:21 *393:23 190.89 
5 *393:23 *393:25 2 
6 *393:25 la_data_out[94] 633.09 
*END

*D_NET *394 0.162681
*CONN
*P la_data_out[95] O
*I *739:la_data_out_o[95] O *D ntt_wb_bridge
*CAP
1 la_data_out[95] 0.036344
2 *739:la_data_out_o[95] 0.00124712
3 *394:17 0.036344
4 *394:15 0.0107472
5 *394:13 0.0119943
6 *394:15 *701:15 0.0226992
7 *105:23 *394:15 0
8 *115:93 la_data_out[95] 0
9 *361:23 *394:15 0.000853527
10 *364:15 *394:15 0.00475741
11 *375:15 *394:15 0.000119831
12 *380:13 *394:13 0.000532267
13 *390:15 *394:15 0.0370424
*RES
1 *739:la_data_out_o[95] *394:13 18.4041 
2 *394:13 *394:15 394.785 
3 *394:15 *394:17 2 
4 *394:17 la_data_out[95] 651.45 
*END

*D_NET *395 0.164061
*CONN
*P la_data_out[96] O
*I *739:la_data_out_o[96] O *D ntt_wb_bridge
*CAP
1 la_data_out[96] 0.0352122
2 *739:la_data_out_o[96] 0.00061833
3 *395:25 0.0352122
4 *395:23 0.00420615
5 *395:21 0.00462042
6 *395:15 0.0040439
7 *395:13 0.00424796
8 *395:15 *396:15 0.00276188
9 *395:15 *529:15 0.00114934
10 *395:21 *731:41 1.08129e-05
11 *115:105 la_data_out[96] 0
12 *274:19 la_data_out[96] 0
13 *278:15 *395:15 0.00515539
14 *292:15 *395:15 0.00670914
15 *295:29 *395:15 0.00122523
16 *295:29 *395:21 1.30972e-05
17 *298:23 *395:23 0.0234
18 *301:27 *395:23 0
19 *353:15 *395:13 3.13831e-05
20 *380:13 *395:13 0.000481905
21 *383:35 *395:21 0.000265041
22 *389:15 *395:15 0.00170126
23 *389:27 *395:21 0.000178803
24 *389:27 *395:23 0
25 *393:15 *395:15 0.0114839
26 *393:21 *395:21 0.000743651
27 *393:23 *395:23 0.0205889
*RES
1 *739:la_data_out_o[96] *395:13 9.66063 
2 *395:13 *395:15 185.025 
3 *395:15 *395:21 14.05 
4 *395:21 *395:23 217.8 
5 *395:23 *395:25 2 
6 *395:25 la_data_out[96] 632.835 
*END

*D_NET *396 0.188331
*CONN
*P la_data_out[97] O
*I *739:la_data_out_o[97] O *D ntt_wb_bridge
*CAP
1 la_data_out[97] 0.0340926
2 *739:la_data_out_o[97] 0.000567086
3 *396:17 0.0340926
4 *396:15 0.0123565
5 *396:13 0.0129236
6 *396:15 *397:15 0.0458604
7 *396:15 *529:15 0.0058354
8 *78:79 la_data_out[97] 0.00203085
9 *115:107 la_data_out[97] 0.00280465
10 *278:15 *396:15 0.00348
11 *279:15 *396:15 0.00519125
12 *282:17 *396:15 0.00103654
13 *288:21 *396:15 0.00157567
14 *292:15 *396:15 0.000142448
15 *295:29 *396:15 0.0059826
16 *299:15 *396:15 0.00249729
17 *359:17 *396:15 0.00993298
18 *367:15 *396:15 0.000119774
19 *369:15 *396:15 0.000119028
20 *370:15 *396:15 0.000109729
21 *371:15 *396:15 0.000130674
22 *380:13 *396:13 0.000431544
23 *382:15 *396:15 0.000159067
24 *393:15 *396:15 0.00409663
25 *395:15 *396:15 0.00276188
*RES
1 *739:la_data_out_o[97] *396:13 7.44967 
2 *396:13 *396:15 69.4336 
3 *396:15 *396:17 0.5 
4 *396:17 la_data_out[97] 642.143 
*END

*D_NET *397 0.194437
*CONN
*P la_data_out[98] O
*I *739:la_data_out_o[98] O *D ntt_wb_bridge
*CAP
1 la_data_out[98] 0.0357695
2 *739:la_data_out_o[98] 0.000573422
3 *397:17 0.0357695
4 *397:15 0.00940265
5 *397:13 0.00997607
6 *397:15 *530:15 0.00191756
7 *78:87 la_data_out[98] 0
8 *277:15 *397:15 0.0438245
9 *278:15 *397:15 0.000158905
10 *279:15 *397:15 0
11 *367:15 *397:15 0.00385175
12 *369:15 *397:15 0.000711206
13 *370:15 *397:15 0.000774302
14 *371:15 *397:15 0.00402054
15 *380:13 *397:13 0.000365193
16 *382:15 *397:15 0.0014618
17 *396:15 *397:15 0.0458604
*RES
1 *739:la_data_out_o[98] *397:13 6.8662 
2 *397:13 *397:15 70.7737 
3 *397:15 *397:17 0.5 
4 *397:17 la_data_out[98] 641.633 
*END

*D_NET *398 0.183675
*CONN
*P la_data_out[99] O
*I *739:la_data_out_o[99] O *D ntt_wb_bridge
*CAP
1 la_data_out[99] 0.0360049
2 *739:la_data_out_o[99] 0.000806886
3 *398:17 0.0360049
4 *398:15 0.0119687
5 *398:13 0.0127756
6 *398:15 *726:15 0.0044603
7 *273:15 *398:15 0.000817566
8 *274:15 *398:15 0.000169158
9 *275:15 *398:15 0.000783426
10 *279:15 *398:15 0.0157183
11 *280:15 *398:15 0.00110612
12 *281:17 *398:15 0.0161931
13 *296:15 *398:15 0.00119798
14 *300:15 *398:15 0.00203784
15 *356:21 *398:15 0.00032943
16 *357:17 *398:15 0.000629279
17 *358:17 *398:15 0.00118794
18 *360:19 *398:15 0.000239572
19 *361:15 *398:15 0.00106463
20 *362:15 *398:15 0.00116151
21 *368:15 *398:15 0.000219474
22 *368:19 *398:15 0.000768962
23 *380:13 *398:13 0.000330822
24 *391:15 *398:15 0.0376984
*RES
1 *739:la_data_out_o[99] *398:13 10.8727 
2 *398:13 *398:15 72.1721 
3 *398:15 *398:17 0.5 
4 *398:17 la_data_out[99] 645.713 
*END

*D_NET *399 0.1198
*CONN
*P la_data_out[9] O
*I *739:la_data_out_o[9] O *D ntt_wb_bridge
*CAP
1 la_data_out[9] 0.0351027
2 *739:la_data_out_o[9] 0.00419945
3 *399:25 0.0480398
4 *399:21 0.0171366
5 *283:23 *399:21 0.000105649
6 *283:23 *399:25 1.08315e-06
7 *304:13 *399:21 0.000117246
8 *305:13 *399:21 0.000101753
9 *307:13 *399:21 0.000108734
10 *308:13 *399:21 0.000118628
11 *310:21 *399:21 0.000538517
12 *326:15 *399:21 0.00117703
13 *326:19 *399:21 0.000109931
14 *329:13 *399:21 0.000212334
15 *331:35 *399:21 0.000109931
16 *332:25 *399:21 0.000102302
17 *334:37 *399:21 0.000102302
18 *338:23 *399:21 3.10119e-05
19 *338:37 *399:21 0.000118136
20 *339:21 *399:21 0.000351447
21 *340:25 *399:21 0.00183011
22 *340:29 *399:21 0.00252917
23 *341:23 *399:21 0.00119105
24 *343:25 *399:21 4.55864e-06
25 *344:17 *399:21 5.05398e-05
26 *355:25 *399:25 0
27 *366:21 *399:21 0.00630995
28 *377:33 *399:25 0
*RES
1 *739:la_data_out_o[9] *399:21 25.7619 
2 *399:21 *399:25 32.7886 
3 *399:25 la_data_out[9] 622.253 
*END

*D_NET *529 0.184344
*CONN
*P user_irq[0] O
*I *739:user_irq_o[0] O *D ntt_wb_bridge
*CAP
1 user_irq[0] 0.00214048
2 *739:user_irq_o[0] 0.000632316
3 *529:23 0.0219466
4 *529:21 0.0198062
5 *529:19 0.0332762
6 *529:17 0.0332762
7 *529:15 0.00641143
8 *529:13 0.00704375
9 *529:15 *530:15 0.0051569
10 io_oeb[0] user_irq[0] 0.000127248
11 la_data_out[93] *529:19 0
12 *128:33 user_irq[0] 0.000968042
13 *278:15 *529:15 0.00657978
14 *292:15 *529:15 0.00217541
15 *292:23 *529:23 0.0364904
16 *380:13 *529:13 0.000143269
17 *393:15 *529:15 0.00118507
18 *395:15 *529:15 0.00114934
19 *396:15 *529:15 0.0058354
*RES
1 *739:user_irq_o[0] *529:13 8.91163 
2 *529:13 *529:15 190.545 
3 *529:15 *529:17 2 
4 *529:17 *529:19 599.61 
5 *529:19 *529:21 2 
6 *529:21 *529:23 463.44 
7 *529:23 user_irq[0] 45.02 
*END

*D_NET *530 0.156251
*CONN
*P user_irq[1] O
*I *739:user_irq_o[1] O *D ntt_wb_bridge
*CAP
1 user_irq[1] 0.00262873
2 *739:user_irq_o[1] 0.000560906
3 *530:23 0.0358413
4 *530:21 0.0332125
5 *530:19 0.0330337
6 *530:17 0.0330337
7 *530:15 0.00304322
8 *530:13 0.00360413
9 la_data_out[86] *530:19 0
10 *115:69 *530:19 0
11 *371:15 *530:15 0.00357075
12 *380:13 *530:13 0.000113747
13 *383:23 *530:13 0
14 *393:15 *530:15 0.0005339
15 *397:15 *530:15 0.00191756
16 *529:15 *530:15 0.0051569
*RES
1 *739:user_irq_o[1] *530:13 8.35857 
2 *530:13 *530:15 86.355 
3 *530:15 *530:17 2 
4 *530:17 *530:19 594.255 
5 *530:19 *530:21 2 
6 *530:21 *530:23 566.25 
7 *530:23 user_irq[1] 49.865 
*END

*D_NET *531 0.195292
*CONN
*P user_irq[2] O
*I *739:user_irq_o[2] O *D ntt_wb_bridge
*CAP
1 user_irq[2] 0.0336123
2 *739:user_irq_o[2] 0.00296723
3 *531:25 0.0336123
4 *531:23 0.0297778
5 *531:21 0.0327451
6 *531:21 *693:11 0.000166647
7 *531:23 *646:43 0.0530146
8 *277:15 *531:21 0.00315726
9 *285:13 *531:21 0.000123238
10 *286:13 *531:21 0.000107264
11 *287:13 *531:21 0.000114263
12 *289:13 *531:21 0.000124661
13 *292:19 *531:21 0.00256466
14 *295:31 *531:21 9.56836e-05
15 *354:27 *531:21 0
16 *380:13 *531:21 0.000553442
17 *382:15 *531:21 0.00255523
*RES
1 *739:user_irq_o[2] *531:21 41.2829 
2 *531:21 *531:23 104.161 
3 *531:23 *531:25 0.5 
4 *531:25 user_irq[2] 611.542 
*END

*D_NET *540 0.730237
*CONN
*P wb_clk_i I
*I *739:wb_clk_i I *D ntt_wb_bridge
*I *740:clk I *D ntt_engine_256
*CAP
1 wb_clk_i 0.00377439
2 *739:wb_clk_i 3.50218e-05
3 *740:clk 0.000371489
4 *540:31 0.0389392
5 *540:17 0.0525457
6 *540:15 0.0521742
7 *540:13 0.0899031
8 *540:11 0.0899031
9 *540:9 0.0560128
10 *540:5 0.020883
11 *540:9 *541:9 0
12 *540:13 wbs_dat_o[14] 0
13 *540:13 *740:mem_wdata[24] 0
14 *540:17 *658:39 0.00171619
15 *540:17 *663:11 0.00485311
16 *540:17 *675:13 0.00103312
17 *540:17 *679:11 0.0421703
18 *540:17 *685:21 0.00564498
19 *540:17 *704:45 0.00077505
20 *540:17 *714:39 0.0107867
21 *540:17 *733:57 0.000642152
22 *540:17 *734:41 4.9691e-05
23 *540:17 *734:43 0.0494645
24 *540:31 *541:9 0
25 io_out[37] *540:9 0
26 *119:57 *540:13 0.208559
*RES
1 wb_clk_i *540:5 68.3925 
2 *540:5 *540:9 40.6255 
3 *540:9 *540:11 0.5 
4 *540:11 *540:13 2409.34 
5 *540:13 *540:15 0.5 
6 *540:15 *540:17 202.923 
7 *540:17 *740:clk 6.74 
8 *540:9 *540:31 93.8765 
9 *540:31 *739:wb_clk_i 0.0620667 
*END

*D_NET *541 0.116732
*CONN
*P wb_rst_i I
*I *739:wb_rst_i I *D ntt_wb_bridge
*CAP
1 wb_rst_i 0.00421426
2 *739:wb_rst_i 3.31118e-05
3 *541:9 0.0540227
4 *541:7 0.0539896
5 *541:5 0.00421426
6 *541:9 *575:17 0
7 io_out[37] *541:9 0.000174816
8 *124:33 *541:9 8.29304e-05
9 *540:9 *541:9 0
10 *540:31 *541:9 0
*RES
1 wb_rst_i *541:5 73.4925 
2 *541:5 *541:7 0.5 
3 *541:7 *541:9 133.265 
4 *541:9 *739:wb_rst_i 0.0620667 
*END

*D_NET *542 0.173361
*CONN
*P wbs_ack_o O
*I *739:wbs_ack_o O *D ntt_wb_bridge
*CAP
1 wbs_ack_o 0.00109666
2 *739:wbs_ack_o 3.50218e-05
3 *542:11 0.0235208
4 *542:9 0.0224241
5 *542:7 0.0534567
6 *542:5 0.0534917
7 wbs_ack_o *575:11 0.000330938
8 *542:7 *600:9 0
9 *542:7 *608:7 0
10 *542:11 *575:13 0.00340419
11 *542:11 *644:5 0
12 *123:27 *542:11 0
13 *124:33 *542:11 0
14 *125:27 *542:11 0.0156008
*RES
1 *739:wbs_ack_o *542:5 0.0620667 
2 *542:5 *542:7 131.284 
3 *542:7 *542:9 0.5 
4 *542:9 *542:11 428.505 
5 *542:11 wbs_ack_o 14.5541 
*END

*D_NET *543 0.117265
*CONN
*P wbs_adr_i[0] I
*I *739:wbs_adr_i[0] I *D ntt_wb_bridge
*CAP
1 wbs_adr_i[0] 0.00635743
2 *739:wbs_adr_i[0] 3.31118e-05
3 *543:9 0.0522749
4 *543:7 0.0522418
5 *543:5 0.00635743
6 *543:9 *554:9 0
7 *543:9 *643:9 0
*RES
1 wbs_adr_i[0] *543:5 114.293 
2 *543:5 *543:7 0.5 
3 *543:7 *543:9 129.477 
4 *543:9 *739:wbs_adr_i[0] 0.0620667 
*END

*D_NET *544 0.105488
*CONN
*P wbs_adr_i[10] I
*I *739:wbs_adr_i[10] I *D ntt_wb_bridge
*CAP
1 wbs_adr_i[10] 0.00930377
2 *739:wbs_adr_i[10] 3.31118e-05
3 *544:9 0.0421905
4 *544:7 0.0421574
5 *544:5 0.00930377
6 *544:9 *545:9 0
7 *544:9 *574:9 0
8 *88:27 *544:5 0.00114586
9 *116:43 *544:9 0.00135328
*RES
1 wbs_adr_i[10] *544:5 165.292 
2 *544:5 *544:7 0.5 
3 *544:7 *544:9 104.015 
4 *544:9 *739:wbs_adr_i[10] 0.0620667 
*END

*D_NET *545 0.100328
*CONN
*P wbs_adr_i[11] I
*I *739:wbs_adr_i[11] I *D ntt_wb_bridge
*CAP
1 wbs_adr_i[11] 0.00959764
2 *739:wbs_adr_i[11] 3.31118e-05
3 *545:9 0.0399506
4 *545:7 0.0399175
5 *545:5 0.00959764
6 *545:9 *546:9 0
7 *85:25 *545:5 0.00123131
8 *544:9 *545:9 0
*RES
1 wbs_adr_i[11] *545:5 170.393 
2 *545:5 *545:7 0.5 
3 *545:7 *545:9 101.801 
4 *545:9 *739:wbs_adr_i[11] 0.0620667 
*END

*D_NET *546 0.100313
*CONN
*P wbs_adr_i[12] I
*I *739:wbs_adr_i[12] I *D ntt_wb_bridge
*CAP
1 wbs_adr_i[12] 0.00990127
2 *739:wbs_adr_i[12] 3.50218e-05
3 *546:9 0.0402555
4 *546:7 0.0402204
5 *546:5 0.00990127
6 *546:9 *547:9 0
7 *83:29 *546:5 0
8 *545:9 *546:9 0
*RES
1 wbs_adr_i[12] *546:5 175.492 
2 *546:5 *546:7 0.5 
3 *546:7 *546:9 99.5283 
4 *546:9 *739:wbs_adr_i[12] 0.0620667 
*END

*D_NET *547 0.10508
*CONN
*P wbs_adr_i[13] I
*I *739:wbs_adr_i[13] I *D ntt_wb_bridge
*CAP
1 wbs_adr_i[13] 0.0101896
2 *739:wbs_adr_i[13] 3.31118e-05
3 *547:9 0.0393498
4 *547:7 0.0393167
5 *547:5 0.0101896
6 *547:9 *548:13 0
7 *84:29 *547:5 0
8 *87:25 *547:5 0
9 *129:27 *547:5 0.00600133
10 *546:9 *547:9 0
*RES
1 wbs_adr_i[13] *547:5 180.592 
2 *547:5 *547:7 0.5 
3 *547:7 *547:9 97.3142 
4 *547:9 *739:wbs_adr_i[13] 0.0620667 
*END

*D_NET *548 0.104965
*CONN
*P wbs_adr_i[14] I
*I *739:wbs_adr_i[14] I *D ntt_wb_bridge
*CAP
1 wbs_adr_i[14] 0.00140641
2 *739:wbs_adr_i[14] 3.50218e-05
3 *548:13 0.0383082
4 *548:11 0.0382732
5 *548:9 0.00601734
6 *548:7 0.00742375
7 *548:13 *549:9 0
8 *118:27 *548:9 0.0135006
9 *547:9 *548:13 0
*RES
1 wbs_adr_i[14] *548:7 25.1025 
2 *548:7 *548:9 161.145 
3 *548:9 *548:11 0.5 
4 *548:11 *548:13 95.1001 
5 *548:13 *739:wbs_adr_i[14] 0.0620667 
*END

*D_NET *549 0.0963089
*CONN
*P wbs_adr_i[15] I
*I *739:wbs_adr_i[15] I *D ntt_wb_bridge
*CAP
1 wbs_adr_i[15] 0.0108425
2 *739:wbs_adr_i[15] 3.31118e-05
3 *549:9 0.037312
4 *549:7 0.0372788
5 *549:5 0.0108425
6 *549:9 *550:9 0
7 *548:13 *549:9 0
*RES
1 wbs_adr_i[15] *549:5 190.792 
2 *549:5 *549:7 0.5 
3 *549:7 *549:9 92.8277 
4 *549:9 *739:wbs_adr_i[15] 0.0620667 
*END

*D_NET *550 0.0929408
*CONN
*P wbs_adr_i[16] I
*I *739:wbs_adr_i[16] I *D ntt_wb_bridge
*CAP
1 wbs_adr_i[16] 0.0111299
2 *739:wbs_adr_i[16] 3.31118e-05
3 *550:9 0.0353405
4 *550:7 0.0353074
5 *550:5 0.0111299
6 *550:9 *551:9 0
7 *549:9 *550:9 0
*RES
1 wbs_adr_i[16] *550:5 195.893 
2 *550:5 *550:7 0.5 
3 *550:7 *550:9 90.5553 
4 *550:9 *739:wbs_adr_i[16] 0.0620667 
*END

*D_NET *551 0.0940954
*CONN
*P wbs_adr_i[17] I
*I *739:wbs_adr_i[17] I *D ntt_wb_bridge
*CAP
1 wbs_adr_i[17] 0.0114169
2 *739:wbs_adr_i[17] 3.50218e-05
3 *551:9 0.0356308
4 *551:7 0.0355958
5 *551:5 0.0114169
6 *551:9 *552:9 0
7 *550:9 *551:9 0
*RES
1 wbs_adr_i[17] *551:5 200.992 
2 *551:5 *551:7 0.5 
3 *551:7 *551:9 88.3411 
4 *551:9 *739:wbs_adr_i[17] 0.0620667 
*END

*D_NET *552 0.0928157
*CONN
*P wbs_adr_i[18] I
*I *739:wbs_adr_i[18] I *D ntt_wb_bridge
*CAP
1 wbs_adr_i[18] 0.0117032
2 *739:wbs_adr_i[18] 3.31118e-05
3 *552:9 0.0347047
4 *552:7 0.0346716
5 *552:5 0.0117032
6 *552:9 *553:9 0
7 *551:9 *552:9 0
*RES
1 wbs_adr_i[18] *552:5 206.092 
2 *552:5 *552:7 0.5 
3 *552:7 *552:9 86.0687 
4 *552:9 *739:wbs_adr_i[18] 0.0620667 
*END

*D_NET *553 0.0895193
*CONN
*P wbs_adr_i[19] I
*I *739:wbs_adr_i[19] I *D ntt_wb_bridge
*CAP
1 wbs_adr_i[19] 0.0119907
2 *739:wbs_adr_i[19] 3.31118e-05
3 *553:9 0.032769
4 *553:7 0.0327359
5 *553:5 0.0119907
6 *553:5 *585:13 0
7 *553:9 *555:9 0
8 *552:9 *553:9 0
*RES
1 wbs_adr_i[19] *553:5 211.193 
2 *553:5 *553:7 0.5 
3 *553:7 *553:9 83.8546 
4 *553:9 *739:wbs_adr_i[19] 0.0620667 
*END

*D_NET *554 0.112666
*CONN
*P wbs_adr_i[1] I
*I *739:wbs_adr_i[1] I *D ntt_wb_bridge
*CAP
1 wbs_adr_i[1] 0.00665164
2 *739:wbs_adr_i[1] 3.31118e-05
3 *554:9 0.0496814
4 *554:7 0.0496482
5 *554:5 0.00665164
6 *554:9 *565:9 0
7 *543:9 *554:9 0
*RES
1 wbs_adr_i[1] *554:5 119.393 
2 *554:5 *554:7 0.5 
3 *554:7 *554:9 126.506 
4 *554:9 *739:wbs_adr_i[1] 0.0620667 
*END

*D_NET *555 0.0909439
*CONN
*P wbs_adr_i[20] I
*I *739:wbs_adr_i[20] I *D ntt_wb_bridge
*CAP
1 wbs_adr_i[20] 0.012248
2 *739:wbs_adr_i[20] 3.50218e-05
3 *555:9 0.0286305
4 *555:7 0.0285955
5 *555:5 0.012248
6 *555:9 *556:9 0
7 io_out[36] *555:9 0.00918681
8 *553:9 *555:9 0
*RES
1 wbs_adr_i[20] *555:5 215.783 
2 *555:5 *555:7 0.5 
3 *555:7 *555:9 81.5822 
4 *555:9 *739:wbs_adr_i[20] 0.0620667 
*END

*D_NET *556 0.0879089
*CONN
*P wbs_adr_i[21] I
*I *739:wbs_adr_i[21] I *D ntt_wb_bridge
*CAP
1 wbs_adr_i[21] 0.0125404
2 *739:wbs_adr_i[21] 3.31118e-05
3 *556:9 0.0255958
4 *556:7 0.0255627
5 *556:5 0.0125404
6 *556:9 *557:9 0
7 io_out[36] *556:9 0.0116365
8 *555:9 *556:9 0
*RES
1 wbs_adr_i[21] *556:5 220.883 
2 *556:5 *556:7 0.5 
3 *556:7 *556:9 79.3098 
4 *556:9 *739:wbs_adr_i[21] 0.0620667 
*END

*D_NET *557 0.0876479
*CONN
*P wbs_adr_i[22] I
*I *739:wbs_adr_i[22] I *D ntt_wb_bridge
*CAP
1 wbs_adr_i[22] 0.0128278
2 *739:wbs_adr_i[22] 3.50218e-05
3 *557:9 0.0309961
4 *557:7 0.0309611
5 *557:5 0.0128278
6 *556:9 *557:9 0
*RES
1 wbs_adr_i[22] *557:5 225.982 
2 *557:5 *557:7 0.5 
3 *557:7 *557:9 77.0957 
4 *557:9 *739:wbs_adr_i[22] 0.0620667 
*END

*D_NET *558 0.0845629
*CONN
*P wbs_adr_i[23] I
*I *739:wbs_adr_i[23] I *D ntt_wb_bridge
*CAP
1 wbs_adr_i[23] 0.01314
2 *739:wbs_adr_i[23] 3.31118e-05
3 *558:9 0.0291415
4 *558:7 0.0291084
5 *558:5 0.01314
6 *558:9 *559:9 0
*RES
1 wbs_adr_i[23] *558:5 231.592 
2 *558:5 *558:7 0.5 
3 *558:7 *558:9 74.8233 
4 *558:9 *739:wbs_adr_i[23] 0.0620667 
*END

*D_NET *559 0.0833848
*CONN
*P wbs_adr_i[24] I
*I *739:wbs_adr_i[24] I *D ntt_wb_bridge
*CAP
1 wbs_adr_i[24] 0.0134274
2 *739:wbs_adr_i[24] 3.31118e-05
3 *559:9 0.0282651
4 *559:7 0.0282319
5 *559:5 0.0134274
6 *559:9 *560:9 0
7 *558:9 *559:9 0
*RES
1 wbs_adr_i[24] *559:5 236.693 
2 *559:5 *559:7 0.5 
3 *559:7 *559:9 72.6091 
4 *559:9 *739:wbs_adr_i[24] 0.0620667 
*END

*D_NET *560 0.0839186
*CONN
*P wbs_adr_i[25] I
*I *739:wbs_adr_i[25] I *D ntt_wb_bridge
*CAP
1 wbs_adr_i[25] 0.0137144
2 *739:wbs_adr_i[25] 3.50218e-05
3 *560:9 0.0282449
4 *560:7 0.0282099
5 *560:5 0.0137144
6 *560:9 *561:9 0
7 *559:9 *560:9 0
*RES
1 wbs_adr_i[25] *560:5 241.792 
2 *560:5 *560:7 0.5 
3 *560:7 *560:9 70.3367 
4 *560:9 *739:wbs_adr_i[25] 0.0620667 
*END

*D_NET *561 0.0828218
*CONN
*P wbs_adr_i[26] I
*I *739:wbs_adr_i[26] I *D ntt_wb_bridge
*CAP
1 wbs_adr_i[26] 0.0139988
2 *739:wbs_adr_i[26] 3.31118e-05
3 *561:9 0.0274121
4 *561:7 0.0273789
5 *561:5 0.0139988
6 *561:9 *562:9 0
7 *560:9 *561:9 0
*RES
1 wbs_adr_i[26] *561:5 246.893 
2 *561:5 *561:7 0.5 
3 *561:7 *561:9 68.1226 
4 *561:9 *739:wbs_adr_i[26] 0.0620667 
*END

*D_NET *562 0.080079
*CONN
*P wbs_adr_i[27] I
*I *739:wbs_adr_i[27] I *D ntt_wb_bridge
*CAP
1 wbs_adr_i[27] 0.0142862
2 *739:wbs_adr_i[27] 3.31118e-05
3 *562:9 0.0257533
4 *562:7 0.0257202
5 *562:5 0.0142862
6 *562:9 *563:9 0
7 *561:9 *562:9 0
*RES
1 wbs_adr_i[27] *562:5 251.992 
2 *562:5 *562:7 0.5 
3 *562:7 *562:9 65.8502 
4 *562:9 *739:wbs_adr_i[27] 0.0620667 
*END

*D_NET *563 0.0788608
*CONN
*P wbs_adr_i[28] I
*I *739:wbs_adr_i[28] I *D ntt_wb_bridge
*CAP
1 wbs_adr_i[28] 0.0145736
2 *739:wbs_adr_i[28] 3.31118e-05
3 *563:9 0.0248568
4 *563:7 0.0248237
5 *563:5 0.0145736
6 *563:9 *564:9 0
7 *562:9 *563:9 0
*RES
1 wbs_adr_i[28] *563:5 257.092 
2 *563:5 *563:7 0.5 
3 *563:7 *563:9 63.6361 
4 *563:9 *739:wbs_adr_i[28] 0.0620667 
*END

*D_NET *564 0.0776022
*CONN
*P wbs_adr_i[29] I
*I *739:wbs_adr_i[29] I *D ntt_wb_bridge
*CAP
1 wbs_adr_i[29] 0.014861
2 *739:wbs_adr_i[29] 3.31118e-05
3 *564:9 0.0239401
4 *564:7 0.023907
5 *564:5 0.014861
6 *564:9 *566:9 0
7 *563:9 *564:9 0
*RES
1 wbs_adr_i[29] *564:5 262.193 
2 *564:5 *564:7 0.5 
3 *564:7 *564:9 61.3637 
4 *564:9 *739:wbs_adr_i[29] 0.0620667 
*END

*D_NET *565 0.111382
*CONN
*P wbs_adr_i[2] I
*I *739:wbs_adr_i[2] I *D ntt_wb_bridge
*CAP
1 wbs_adr_i[2] 0.00720141
2 *739:wbs_adr_i[2] 3.31118e-05
3 *565:9 0.0484898
4 *565:7 0.0484566
5 *565:5 0.00720141
6 *565:9 *568:9 0
7 *554:9 *565:9 0
*RES
1 wbs_adr_i[2] *565:5 124.493 
2 *565:5 *565:7 0.5 
3 *565:7 *565:9 123.534 
4 *565:9 *739:wbs_adr_i[2] 0.0620667 
*END

*D_NET *566 0.0763836
*CONN
*P wbs_adr_i[30] I
*I *739:wbs_adr_i[30] I *D ntt_wb_bridge
*CAP
1 wbs_adr_i[30] 0.0151484
2 *739:wbs_adr_i[30] 3.31118e-05
3 *566:9 0.0230434
4 *566:7 0.0230103
5 *566:5 0.0151484
6 *566:9 *567:9 0
7 *564:9 *566:9 0
*RES
1 wbs_adr_i[30] *566:5 267.293 
2 *566:5 *566:7 0.5 
3 *566:7 *566:9 59.0913 
4 *566:9 *739:wbs_adr_i[30] 0.0620667 
*END

*D_NET *567 0.0752055
*CONN
*P wbs_adr_i[31] I
*I *739:wbs_adr_i[31] I *D ntt_wb_bridge
*CAP
1 wbs_adr_i[31] 0.0154358
2 *739:wbs_adr_i[31] 3.31118e-05
3 *567:9 0.022167
4 *567:7 0.0221339
5 *567:5 0.0154358
6 *567:9 *576:9 0
7 *566:9 *567:9 0
*RES
1 wbs_adr_i[31] *567:5 272.392 
2 *567:5 *567:7 0.5 
3 *567:7 *567:9 56.8771 
4 *567:9 *739:wbs_adr_i[31] 0.0620667 
*END

*D_NET *568 0.109041
*CONN
*P wbs_adr_i[3] I
*I *739:wbs_adr_i[3] I *D ntt_wb_bridge
*CAP
1 wbs_adr_i[3] 0.00723934
2 *739:wbs_adr_i[3] 3.31118e-05
3 *568:9 0.047281
4 *568:7 0.0472479
5 *568:5 0.00723934
6 *568:9 *569:9 0
7 *565:9 *568:9 0
*RES
1 wbs_adr_i[3] *568:5 129.592 
2 *568:5 *568:7 0.5 
3 *568:7 *568:9 120.504 
4 *568:9 *739:wbs_adr_i[3] 0.0620667 
*END

*D_NET *569 0.107323
*CONN
*P wbs_adr_i[4] I
*I *739:wbs_adr_i[4] I *D ntt_wb_bridge
*CAP
1 wbs_adr_i[4] 0.00754038
2 *739:wbs_adr_i[4] 3.31118e-05
3 *569:9 0.0461211
4 *569:7 0.046088
5 *569:5 0.00754038
6 *569:9 *570:9 0
7 *568:9 *569:9 0
*RES
1 wbs_adr_i[4] *569:5 134.693 
2 *569:5 *569:7 0.5 
3 *569:7 *569:9 117.533 
4 *569:9 *739:wbs_adr_i[4] 0.0620667 
*END

*D_NET *570 0.106815
*CONN
*P wbs_adr_i[5] I
*I *739:wbs_adr_i[5] I *D ntt_wb_bridge
*CAP
1 wbs_adr_i[5] 0.00784754
2 *739:wbs_adr_i[5] 3.31118e-05
3 *570:9 0.0452214
4 *570:7 0.0451883
5 *570:5 0.00784754
6 *570:9 *571:9 0
7 *130:19 *570:5 0.000677507
8 *569:9 *570:9 0
*RES
1 wbs_adr_i[5] *570:5 139.792 
2 *570:5 *570:7 0.5 
3 *570:7 *570:9 115.26 
4 *570:9 *739:wbs_adr_i[5] 0.0620667 
*END

*D_NET *571 0.112393
*CONN
*P wbs_adr_i[6] I
*I *739:wbs_adr_i[6] I *D ntt_wb_bridge
*CAP
1 wbs_adr_i[6] 0.00813456
2 *739:wbs_adr_i[6] 3.50218e-05
3 *571:9 0.0458057
4 *571:7 0.0457707
5 *571:5 0.00813456
6 *571:9 *572:9 0
7 *122:25 *571:5 0.00451284
8 *570:9 *571:9 0
*RES
1 wbs_adr_i[6] *571:5 144.893 
2 *571:5 *571:7 0.5 
3 *571:7 *571:9 113.046 
4 *571:9 *739:wbs_adr_i[6] 0.0620667 
*END

*D_NET *572 0.106718
*CONN
*P wbs_adr_i[7] I
*I *739:wbs_adr_i[7] I *D ntt_wb_bridge
*CAP
1 wbs_adr_i[7] 0.00842548
2 *739:wbs_adr_i[7] 3.31118e-05
3 *572:9 0.0449335
4 *572:7 0.0449004
5 *572:5 0.00842548
6 *572:9 *573:13 0
7 *571:9 *572:9 0
*RES
1 wbs_adr_i[7] *572:5 149.992 
2 *572:5 *572:7 0.5 
3 *572:7 *572:9 110.774 
4 *572:9 *739:wbs_adr_i[7] 0.0620667 
*END

*D_NET *573 0.108631
*CONN
*P wbs_adr_i[8] I
*I *739:wbs_adr_i[8] I *D ntt_wb_bridge
*CAP
1 wbs_adr_i[8] 0.00138057
2 *739:wbs_adr_i[8] 3.31118e-05
3 *573:13 0.0426806
4 *573:11 0.0426475
5 *573:9 0.004854
6 *573:7 0.00623457
7 *573:13 *574:9 0
8 *121:25 *573:9 0.0108005
9 *572:9 *573:13 0
*RES
1 wbs_adr_i[8] *573:7 25.1025 
2 *573:7 *573:9 130.545 
3 *573:9 *573:11 0.5 
4 *573:11 *573:13 108.501 
5 *573:13 *739:wbs_adr_i[8] 0.0620667 
*END

*D_NET *574 0.104184
*CONN
*P wbs_adr_i[9] I
*I *739:wbs_adr_i[9] I *D ntt_wb_bridge
*CAP
1 wbs_adr_i[9] 0.009011
2 *739:wbs_adr_i[9] 3.50218e-05
3 *574:9 0.0430812
4 *574:7 0.0430461
5 *574:5 0.009011
6 *544:9 *574:9 0
7 *573:13 *574:9 0
*RES
1 wbs_adr_i[9] *574:5 160.193 
2 *574:5 *574:7 0.5 
3 *574:7 *574:9 106.287 
4 *574:9 *739:wbs_adr_i[9] 0.0620667 
*END

*D_NET *575 0.117804
*CONN
*P wbs_cyc_i I
*I *739:wbs_cyc_i I *D ntt_wb_bridge
*CAP
1 wbs_cyc_i 0.000820831
2 *739:wbs_cyc_i 3.50218e-05
3 *575:17 0.0531721
4 *575:15 0.0531371
5 *575:13 0.00148684
6 *575:11 0.00230767
7 *575:13 *644:5 0.00251584
8 *575:17 *644:9 0
9 wbs_ack_o *575:11 0.000330938
10 *125:27 *575:13 0.000593423
11 *541:9 *575:17 0
12 *542:11 *575:13 0.00340419
*RES
1 wbs_cyc_i *575:11 13.4032 
2 *575:11 *575:13 66.915 
3 *575:13 *575:15 0.5 
4 *575:15 *575:17 131.167 
5 *575:17 *739:wbs_cyc_i 0.0620667 
*END

*D_NET *576 0.131215
*CONN
*P wbs_dat_i[0] I
*I *739:wbs_dat_i[0] I *D ntt_wb_bridge
*CAP
1 wbs_dat_i[0] 0.0153322
2 *739:wbs_dat_i[0] 3.31118e-05
3 *576:9 0.0502751
4 *576:7 0.050242
5 *576:5 0.0153322
6 *576:9 *587:9 0
7 *567:9 *576:9 0
*RES
1 wbs_dat_i[0] *576:5 277.492 
2 *576:5 *576:7 0.5 
3 *576:7 *576:9 128.778 
4 *576:9 *739:wbs_dat_i[0] 0.0620667 
*END

*D_NET *577 0.121301
*CONN
*P wbs_dat_i[10] I
*I *739:wbs_dat_i[10] I *D ntt_wb_bridge
*CAP
1 wbs_dat_i[10] 0.0190083
2 *739:wbs_dat_i[10] 3.31118e-05
3 *577:9 0.0416423
4 *577:7 0.0416092
5 *577:5 0.0190083
6 *577:9 *578:17 0
7 *577:9 *607:9 0
*RES
1 wbs_dat_i[10] *577:5 328.492 
2 *577:5 *577:7 0.5 
3 *577:7 *577:9 103.316 
4 *577:9 *739:wbs_dat_i[10] 0.0620667 
*END

*D_NET *578 0.122181
*CONN
*P wbs_dat_i[11] I
*I *739:wbs_dat_i[11] I *D ntt_wb_bridge
*CAP
1 wbs_dat_i[11] 0.000623347
2 *739:wbs_dat_i[11] 3.50218e-05
3 *578:17 0.0218544
4 *578:15 0.0218194
5 *578:13 0.0176463
6 *578:11 0.0368941
7 *578:7 0.0198712
8 *578:11 *585:11 0.000813164
9 *578:17 *579:9 0
10 la_data_out[0] *578:13 0
11 *116:55 *578:13 0.00262424
12 *577:9 *578:17 0
*RES
1 wbs_dat_i[11] *578:7 11.7725 
2 *578:7 *578:11 47.2096 
3 *578:11 *578:13 322.425 
4 *578:13 *578:15 0.5 
5 *578:15 *578:17 54.3717 
6 *578:17 *739:wbs_dat_i[11] 0.0620667 
*END

*D_NET *579 0.116383
*CONN
*P wbs_dat_i[12] I
*I *739:wbs_dat_i[12] I *D ntt_wb_bridge
*CAP
1 wbs_dat_i[12] 0.0189442
2 *739:wbs_dat_i[12] 3.31118e-05
3 *579:9 0.0392474
4 *579:7 0.0392143
5 *579:5 0.0189442
6 *579:9 *580:9 0
7 *578:17 *579:9 0
*RES
1 wbs_dat_i[12] *579:5 338.693 
2 *579:5 *579:7 0.5 
3 *579:7 *579:9 98.8291 
4 *579:9 *739:wbs_dat_i[12] 0.0620667 
*END

*D_NET *580 0.115698
*CONN
*P wbs_dat_i[13] I
*I *739:wbs_dat_i[13] I *D ntt_wb_bridge
*CAP
1 wbs_dat_i[13] 0.0192883
2 *739:wbs_dat_i[13] 3.31118e-05
3 *580:9 0.0375703
4 *580:7 0.0375372
5 *580:5 0.0192883
6 *580:9 *581:9 0
7 *80:29 *580:5 0
8 *82:25 *580:5 0
9 *84:29 *580:5 0
10 *93:23 *580:5 0.00198103
11 *579:9 *580:9 0
*RES
1 wbs_dat_i[13] *580:5 343.793 
2 *580:5 *580:7 0.5 
3 *580:7 *580:9 96.5567 
4 *580:9 *739:wbs_dat_i[13] 0.0620667 
*END

*D_NET *581 0.119754
*CONN
*P wbs_dat_i[14] I
*I *739:wbs_dat_i[14] I *D ntt_wb_bridge
*CAP
1 wbs_dat_i[14] 0.0138249
2 *739:wbs_dat_i[14] 3.50218e-05
3 *581:9 0.0377911
4 *581:7 0.0377561
5 *581:5 0.0138249
6 *581:9 *582:9 0
7 *81:19 *581:5 0.0165224
8 *580:9 *581:9 0
*RES
1 wbs_dat_i[14] *581:5 348.892 
2 *581:5 *581:7 0.5 
3 *581:7 *581:9 94.2843 
4 *581:9 *739:wbs_dat_i[14] 0.0620667 
*END

*D_NET *582 0.115738
*CONN
*P wbs_dat_i[15] I
*I *739:wbs_dat_i[15] I *D ntt_wb_bridge
*CAP
1 wbs_dat_i[15] 0.0199042
2 *739:wbs_dat_i[15] 3.31118e-05
3 *582:9 0.0372516
4 *582:7 0.0372185
5 *582:5 0.0199042
6 *582:9 *583:9 0
7 *116:59 *582:9 0.00142656
8 *581:9 *582:9 0
*RES
1 wbs_dat_i[15] *582:5 353.992 
2 *582:5 *582:7 0.5 
3 *582:7 *582:9 92.0702 
4 *582:9 *739:wbs_dat_i[15] 0.0620667 
*END

*D_NET *583 0.110188
*CONN
*P wbs_dat_i[16] I
*I *739:wbs_dat_i[16] I *D ntt_wb_bridge
*CAP
1 wbs_dat_i[16] 0.020198
2 *739:wbs_dat_i[16] 3.31118e-05
3 *583:9 0.0348962
4 *583:7 0.0348631
5 *583:5 0.020198
6 *583:9 *584:9 0
7 *582:9 *583:9 0
*RES
1 wbs_dat_i[16] *583:5 359.092 
2 *583:5 *583:7 0.5 
3 *583:7 *583:9 89.7978 
4 *583:9 *739:wbs_dat_i[16] 0.0620667 
*END

*D_NET *584 0.144315
*CONN
*P wbs_dat_i[17] I
*I *739:wbs_dat_i[17] I *D ntt_wb_bridge
*CAP
1 wbs_dat_i[17] 0.0212093
2 *739:wbs_dat_i[17] 3.50218e-05
3 *584:9 0.0230085
4 *584:7 0.0229735
5 *584:5 0.0212093
6 *584:9 *585:17 0
7 io_out[35] *584:9 0.0558791
8 *583:9 *584:9 0
*RES
1 wbs_dat_i[17] *584:5 364.193 
2 *584:5 *584:7 0.5 
3 *584:7 *584:9 87.5837 
4 *584:9 *739:wbs_dat_i[17] 0.0620667 
*END

*D_NET *585 0.110638
*CONN
*P wbs_dat_i[18] I
*I *739:wbs_dat_i[18] I *D ntt_wb_bridge
*CAP
1 wbs_dat_i[18] 0.00103363
2 *739:wbs_dat_i[18] 3.31118e-05
3 *585:17 0.0337349
4 *585:15 0.0337017
5 *585:13 0.0201437
6 *585:11 0.0211774
7 *585:13 wbs_dat_o[18] 0
8 *585:17 *586:9 0
9 io_out[35] *585:17 0
10 *553:5 *585:13 0
11 *578:11 *585:11 0.000813164
12 *584:9 *585:17 0
*RES
1 wbs_dat_i[18] *585:11 14.0441 
2 *585:11 *585:13 357.615 
3 *585:13 *585:15 0.5 
4 *585:15 *585:17 84.0877 
5 *585:17 *739:wbs_dat_i[18] 0.0620667 
*END

*D_NET *586 0.10683
*CONN
*P wbs_dat_i[19] I
*I *739:wbs_dat_i[19] I *D ntt_wb_bridge
*CAP
1 wbs_dat_i[19] 0.0210835
2 *739:wbs_dat_i[19] 3.31118e-05
3 *586:9 0.0323316
4 *586:7 0.0322985
5 *586:5 0.0210835
6 *586:9 *588:9 0
7 *585:17 *586:9 0
*RES
1 wbs_dat_i[19] *586:5 374.392 
2 *586:5 *586:7 0.5 
3 *586:7 *586:9 83.0971 
4 *586:9 *739:wbs_dat_i[19] 0.0620667 
*END

*D_NET *587 0.133651
*CONN
*P wbs_dat_i[1] I
*I *739:wbs_dat_i[1] I *D ntt_wb_bridge
*CAP
1 wbs_dat_i[1] 0.0162305
2 *739:wbs_dat_i[1] 3.50218e-05
3 *587:9 0.0505952
4 *587:7 0.0505602
5 *587:5 0.0162305
6 *587:9 *598:9 0
7 *576:9 *587:9 0
*RES
1 wbs_dat_i[1] *587:5 282.592 
2 *587:5 *587:7 0.5 
3 *587:7 *587:9 125.748 
4 *587:9 *739:wbs_dat_i[1] 0.0620667 
*END

*D_NET *588 0.107638
*CONN
*P wbs_dat_i[20] I
*I *739:wbs_dat_i[20] I *D ntt_wb_bridge
*CAP
1 wbs_dat_i[20] 0.0213755
2 *739:wbs_dat_i[20] 3.50218e-05
3 *588:9 0.0324437
4 *588:7 0.0324087
5 *588:5 0.0213755
6 *588:9 *589:9 0
7 *586:9 *588:9 0
*RES
1 wbs_dat_i[20] *588:5 379.492 
2 *588:5 *588:7 0.5 
3 *588:7 *588:9 80.8247 
4 *588:9 *739:wbs_dat_i[20] 0.0620667 
*END

*D_NET *589 0.106395
*CONN
*P wbs_dat_i[21] I
*I *739:wbs_dat_i[21] I *D ntt_wb_bridge
*CAP
1 wbs_dat_i[21] 0.0216683
2 *739:wbs_dat_i[21] 3.31118e-05
3 *589:9 0.0315294
4 *589:7 0.0314962
5 *589:5 0.0216683
6 *589:9 *590:9 0
7 *588:9 *589:9 0
*RES
1 wbs_dat_i[21] *589:5 384.592 
2 *589:5 *589:7 0.5 
3 *589:7 *589:9 78.6106 
4 *589:9 *739:wbs_dat_i[21] 0.0620667 
*END

*D_NET *590 0.10322
*CONN
*P wbs_dat_i[22] I
*I *739:wbs_dat_i[22] I *D ntt_wb_bridge
*CAP
1 wbs_dat_i[22] 0.0219625
2 *739:wbs_dat_i[22] 3.31118e-05
3 *590:9 0.0296477
4 *590:7 0.0296146
5 *590:5 0.0219625
6 *590:9 *591:9 0
7 *589:9 *590:9 0
*RES
1 wbs_dat_i[22] *590:5 389.693 
2 *590:5 *590:7 0.5 
3 *590:7 *590:9 76.3382 
4 *590:9 *739:wbs_dat_i[22] 0.0620667 
*END

*D_NET *591 0.102033
*CONN
*P wbs_dat_i[23] I
*I *739:wbs_dat_i[23] I *D ntt_wb_bridge
*CAP
1 wbs_dat_i[23] 0.0222563
2 *739:wbs_dat_i[23] 3.31118e-05
3 *591:9 0.02876
4 *591:7 0.0287269
5 *591:5 0.0222563
6 *591:9 *592:9 0
7 *590:9 *591:9 0
*RES
1 wbs_dat_i[23] *591:5 394.793 
2 *591:5 *591:7 0.5 
3 *591:7 *591:9 74.0658 
4 *591:9 *739:wbs_dat_i[23] 0.0620667 
*END

*D_NET *592 0.100886
*CONN
*P wbs_dat_i[24] I
*I *739:wbs_dat_i[24] I *D ntt_wb_bridge
*CAP
1 wbs_dat_i[24] 0.0225502
2 *739:wbs_dat_i[24] 3.31118e-05
3 *592:9 0.0278926
4 *592:7 0.0278595
5 *592:5 0.0225502
6 *592:9 *593:9 0
7 *591:9 *592:9 0
*RES
1 wbs_dat_i[24] *592:5 399.892 
2 *592:5 *592:7 0.5 
3 *592:7 *592:9 71.8517 
4 *592:9 *739:wbs_dat_i[24] 0.0620667 
*END

*D_NET *593 0.0996986
*CONN
*P wbs_dat_i[25] I
*I *739:wbs_dat_i[25] I *D ntt_wb_bridge
*CAP
1 wbs_dat_i[25] 0.0228444
2 *739:wbs_dat_i[25] 3.31118e-05
3 *593:9 0.0270049
4 *593:7 0.0269718
5 *593:5 0.0228444
6 *593:9 *594:9 0
7 *592:9 *593:9 0
*RES
1 wbs_dat_i[25] *593:5 404.992 
2 *593:5 *593:7 0.5 
3 *593:7 *593:9 69.5793 
4 *593:9 *739:wbs_dat_i[25] 0.0620667 
*END

*D_NET *594 0.0987095
*CONN
*P wbs_dat_i[26] I
*I *739:wbs_dat_i[26] I *D ntt_wb_bridge
*CAP
1 wbs_dat_i[26] 0.0231383
2 *739:wbs_dat_i[26] 3.31118e-05
3 *594:9 0.0262165
4 *594:7 0.0261834
5 *594:5 0.0231383
6 *594:9 *595:9 0
7 *593:9 *594:9 0
*RES
1 wbs_dat_i[26] *594:5 410.092 
2 *594:5 *594:7 0.5 
3 *594:7 *594:9 67.3651 
4 *594:9 *739:wbs_dat_i[26] 0.0620667 
*END

*D_NET *595 0.0992785
*CONN
*P wbs_dat_i[27] I
*I *739:wbs_dat_i[27] I *D ntt_wb_bridge
*CAP
1 wbs_dat_i[27] 0.0234317
2 *739:wbs_dat_i[27] 3.50218e-05
3 *595:9 0.0262075
4 *595:7 0.0261725
5 *595:5 0.0234317
6 *595:9 *596:9 0
7 *594:9 *595:9 0
*RES
1 wbs_dat_i[27] *595:5 415.193 
2 *595:5 *595:7 0.5 
3 *595:7 *595:9 65.0927 
4 *595:9 *739:wbs_dat_i[27] 0.0620667 
*END

*D_NET *596 0.0980231
*CONN
*P wbs_dat_i[28] I
*I *739:wbs_dat_i[28] I *D ntt_wb_bridge
*CAP
1 wbs_dat_i[28] 0.0237272
2 *739:wbs_dat_i[28] 3.31118e-05
3 *596:9 0.0252844
4 *596:7 0.0252513
5 *596:5 0.0237272
6 *596:9 *597:9 0
7 *116:63 *596:5 0
8 *595:9 *596:9 0
*RES
1 wbs_dat_i[28] *596:5 420.293 
2 *596:5 *596:7 0.5 
3 *596:7 *596:9 62.8786 
4 *596:9 *739:wbs_dat_i[28] 0.0620667 
*END

*D_NET *597 0.0952531
*CONN
*P wbs_dat_i[29] I
*I *739:wbs_dat_i[29] I *D ntt_wb_bridge
*CAP
1 wbs_dat_i[29] 0.024023
2 *739:wbs_dat_i[29] 3.31118e-05
3 *597:9 0.0236036
4 *597:7 0.0235705
5 *597:5 0.024023
6 *597:9 *599:9 0
7 *596:9 *597:9 0
*RES
1 wbs_dat_i[29] *597:5 425.392 
2 *597:5 *597:7 0.5 
3 *597:7 *597:9 60.6062 
4 *597:9 *739:wbs_dat_i[29] 0.0620667 
*END

*D_NET *598 0.130692
*CONN
*P wbs_dat_i[2] I
*I *739:wbs_dat_i[2] I *D ntt_wb_bridge
*CAP
1 wbs_dat_i[2] 0.0159299
2 *739:wbs_dat_i[2] 3.31118e-05
3 *598:9 0.0494162
4 *598:7 0.0493831
5 *598:5 0.0159299
6 *598:9 *601:9 0
7 *587:9 *598:9 0
*RES
1 wbs_dat_i[2] *598:5 287.693 
2 *598:5 *598:7 0.5 
3 *598:7 *598:9 122.777 
4 *598:9 *739:wbs_dat_i[2] 0.0620667 
*END

*D_NET *599 0.0955465
*CONN
*P wbs_dat_i[30] I
*I *739:wbs_dat_i[30] I *D ntt_wb_bridge
*CAP
1 wbs_dat_i[30] 0.0243146
2 *739:wbs_dat_i[30] 3.50218e-05
3 *599:9 0.0234586
4 *599:7 0.0234236
5 *599:5 0.0243146
6 *599:9 *600:9 0
7 *597:9 *599:9 0
*RES
1 wbs_dat_i[30] *599:5 430.492 
2 *599:5 *599:7 0.5 
3 *599:7 *599:9 58.3921 
4 *599:9 *739:wbs_dat_i[30] 0.0620667 
*END

*D_NET *600 0.0942975
*CONN
*P wbs_dat_i[31] I
*I *739:wbs_dat_i[31] I *D ntt_wb_bridge
*CAP
1 wbs_dat_i[31] 0.0246074
2 *739:wbs_dat_i[31] 3.31118e-05
3 *600:9 0.0225414
4 *600:7 0.0225083
5 *600:5 0.0246074
6 *542:7 *600:9 0
7 *599:9 *600:9 0
*RES
1 wbs_dat_i[31] *600:5 435.592 
2 *600:5 *600:7 0.5 
3 *600:7 *600:9 56.1197 
4 *600:9 *739:wbs_dat_i[31] 0.0620667 
*END

*D_NET *601 0.128877
*CONN
*P wbs_dat_i[3] I
*I *739:wbs_dat_i[3] I *D ntt_wb_bridge
*CAP
1 wbs_dat_i[3] 0.0162299
2 *739:wbs_dat_i[3] 3.50218e-05
3 *601:9 0.0482085
4 *601:7 0.0481735
5 *601:5 0.0162299
6 *601:9 *602:17 0
7 *598:9 *601:9 0
*RES
1 wbs_dat_i[3] *601:5 292.793 
2 *601:5 *601:7 0.5 
3 *601:7 *601:9 119.747 
4 *601:9 *739:wbs_dat_i[3] 0.0620667 
*END

*D_NET *602 0.126479
*CONN
*P wbs_dat_i[4] I
*I *739:wbs_dat_i[4] I *D ntt_wb_bridge
*CAP
1 wbs_dat_i[4] 0.00266765
2 *739:wbs_dat_i[4] 3.31118e-05
3 *602:17 0.0215341
4 *602:15 0.021501
5 *602:13 0.0140648
6 *602:11 0.0140648
7 *602:9 0.0249729
8 *602:7 0.0276406
9 *602:17 *603:9 0
10 *601:9 *602:17 0
*RES
1 wbs_dat_i[4] *602:7 47.9825 
2 *602:7 *602:9 63.3156 
3 *602:9 *602:11 0.5 
4 *602:11 *602:13 250.515 
5 *602:13 *602:15 0.5 
6 *602:15 *602:17 53.4977 
7 *602:17 *739:wbs_dat_i[4] 0.0620667 
*END

*D_NET *603 0.123466
*CONN
*P wbs_dat_i[5] I
*I *739:wbs_dat_i[5] I *D ntt_wb_bridge
*CAP
1 wbs_dat_i[5] 0.0168416
2 *739:wbs_dat_i[5] 3.31118e-05
3 *603:9 0.0446889
4 *603:7 0.0446558
5 *603:5 0.0168416
6 *603:9 *604:9 0
7 *116:53 *603:9 0.000405289
8 *602:17 *603:9 0
*RES
1 wbs_dat_i[5] *603:5 302.992 
2 *603:5 *603:7 0.5 
3 *603:7 *603:9 114.503 
4 *603:9 *739:wbs_dat_i[5] 0.0620667 
*END

*D_NET *604 0.124795
*CONN
*P wbs_dat_i[6] I
*I *739:wbs_dat_i[6] I *D ntt_wb_bridge
*CAP
1 wbs_dat_i[6] 0.017142
2 *739:wbs_dat_i[6] 3.50218e-05
3 *604:9 0.0452555
4 *604:7 0.0452205
5 *604:5 0.017142
6 *604:9 *605:9 0
7 *603:9 *604:9 0
*RES
1 wbs_dat_i[6] *604:5 308.092 
2 *604:5 *604:7 0.5 
3 *604:7 *604:9 112.289 
4 *604:9 *739:wbs_dat_i[6] 0.0620667 
*END

*D_NET *605 0.125033
*CONN
*P wbs_dat_i[7] I
*I *739:wbs_dat_i[7] I *D ntt_wb_bridge
*CAP
1 wbs_dat_i[7] 0.0180805
2 *739:wbs_dat_i[7] 3.31118e-05
3 *605:9 0.043715
4 *605:7 0.0436819
5 *605:5 0.0180805
6 io_oeb[35] *605:9 0
7 *96:24 *605:9 0.00144159
8 *604:9 *605:9 0
*RES
1 wbs_dat_i[7] *605:5 313.193 
2 *605:5 *605:7 0.5 
3 *605:7 *605:9 110.016 
4 *605:9 *739:wbs_dat_i[7] 0.0620667 
*END

*D_NET *606 0.123837
*CONN
*P wbs_dat_i[8] I
*I *739:wbs_dat_i[8] I *D ntt_wb_bridge
*CAP
1 wbs_dat_i[8] 0.0183934
2 *739:wbs_dat_i[8] 3.31118e-05
3 *606:9 0.0330055
4 *606:7 0.0329724
5 *606:5 0.0183934
6 *606:9 *607:9 0
7 io_oeb[35] *606:9 0.0210395
8 *96:24 *606:9 0
*RES
1 wbs_dat_i[8] *606:5 318.293 
2 *606:5 *606:7 0.5 
3 *606:7 *606:9 107.802 
4 *606:9 *739:wbs_dat_i[8] 0.0620667 
*END

*D_NET *607 0.122478
*CONN
*P wbs_dat_i[9] I
*I *739:wbs_dat_i[9] I *D ntt_wb_bridge
*CAP
1 wbs_dat_i[9] 0.0187009
2 *739:wbs_dat_i[9] 3.50218e-05
3 *607:9 0.0425384
4 *607:7 0.0425033
5 *607:5 0.0187009
6 *577:9 *607:9 0
7 *606:9 *607:9 0
*RES
1 wbs_dat_i[9] *607:5 323.392 
2 *607:5 *607:7 0.5 
3 *607:7 *607:9 105.53 
4 *607:9 *739:wbs_dat_i[9] 0.0620667 
*END

*D_NET *608 0.151599
*CONN
*P wbs_dat_o[0] O
*I *739:wbs_dat_o[0] O *D ntt_wb_bridge
*CAP
1 wbs_dat_o[0] 0.0245925
2 *739:wbs_dat_o[0] 3.31118e-05
3 *608:9 0.0245925
4 *608:7 0.0511738
5 *608:5 0.0512069
6 *608:7 *619:7 0
7 *542:7 *608:7 0
*RES
1 *739:wbs_dat_o[0] *608:5 0.0620667 
2 *608:5 *608:7 128.021 
3 *608:7 *608:9 0.5 
4 *608:9 wbs_dat_o[0] 445.793 
*END

*D_NET *609 0.15743
*CONN
*P wbs_dat_o[10] O
*I *739:wbs_dat_o[10] O *D ntt_wb_bridge
*CAP
1 wbs_dat_o[10] 0.0276538
2 *739:wbs_dat_o[10] 3.50218e-05
3 *609:9 0.0276538
4 *609:7 0.0410431
5 *609:5 0.0410781
6 *609:7 *610:7 0
7 *609:7 *639:7 0
8 *89:25 wbs_dat_o[10] 0.0199664
*RES
1 *739:wbs_dat_o[10] *609:5 0.0620667 
2 *609:5 *609:7 102.558 
3 *609:7 *609:9 0.5 
4 *609:9 wbs_dat_o[10] 496.793 
*END

*D_NET *610 0.136195
*CONN
*P wbs_dat_o[11] O
*I *739:wbs_dat_o[11] O *D ntt_wb_bridge
*CAP
1 wbs_dat_o[11] 0.0279648
2 *739:wbs_dat_o[11] 3.31118e-05
3 *610:9 0.0279648
4 *610:7 0.0400994
5 *610:5 0.0401325
6 *610:7 *611:7 0
7 *83:29 wbs_dat_o[11] 0
8 *609:7 *610:7 0
*RES
1 *739:wbs_dat_o[11] *610:5 0.0620667 
2 *610:5 *610:7 100.286 
3 *610:7 *610:9 0.5 
4 *610:9 wbs_dat_o[11] 501.892 
*END

*D_NET *611 0.132587
*CONN
*P wbs_dat_o[12] O
*I *739:wbs_dat_o[12] O *D ntt_wb_bridge
*CAP
1 wbs_dat_o[12] 0.0282724
2 *739:wbs_dat_o[12] 3.31118e-05
3 *611:9 0.0282724
4 *611:7 0.0379879
5 *611:5 0.038021
6 *611:7 *612:7 0
7 io_oeb[34] *611:7 0
8 *610:7 *611:7 0
*RES
1 *739:wbs_dat_o[12] *611:5 0.0620667 
2 *611:5 *611:7 98.0717 
3 *611:7 *611:9 0.5 
4 *611:9 wbs_dat_o[12] 506.992 
*END

*D_NET *612 0.18148
*CONN
*P wbs_dat_o[13] O
*I *739:wbs_dat_o[13] O *D ntt_wb_bridge
*CAP
1 wbs_dat_o[13] 0.0216246
2 *739:wbs_dat_o[13] 3.50218e-05
3 *612:9 0.0216246
4 *612:7 0.0258292
5 *612:5 0.0258642
6 *612:7 *613:7 0
7 io_oeb[34] *612:7 0.0621769
8 *116:85 *612:7 0.000707389
9 *120:29 wbs_dat_o[13] 0.0234535
10 *123:25 wbs_dat_o[13] 0.000164394
11 *611:7 *612:7 0
*RES
1 *739:wbs_dat_o[13] *612:5 0.0620667 
2 *612:5 *612:7 95.7993 
3 *612:7 *612:9 0.5 
4 *612:9 wbs_dat_o[13] 512.093 
*END

*D_NET *613 0.134476
*CONN
*P wbs_dat_o[14] O
*I *739:wbs_dat_o[14] O *D ntt_wb_bridge
*CAP
1 wbs_dat_o[14] 0.0299955
2 *739:wbs_dat_o[14] 3.31118e-05
3 *613:9 0.0299955
4 *613:7 0.0372096
5 *613:5 0.0372427
6 *613:7 *614:7 0
7 *81:19 wbs_dat_o[14] 0
8 *82:23 wbs_dat_o[14] 0
9 *119:57 wbs_dat_o[14] 0
10 *540:13 wbs_dat_o[14] 0
11 *612:7 *613:7 0
*RES
1 *739:wbs_dat_o[14] *613:5 0.0620667 
2 *613:5 *613:7 93.5851 
3 *613:7 *613:9 0.5 
4 *613:9 wbs_dat_o[14] 517.193 
*END

*D_NET *614 0.129001
*CONN
*P wbs_dat_o[15] O
*I *739:wbs_dat_o[15] O *D ntt_wb_bridge
*CAP
1 wbs_dat_o[15] 0.029259
2 *739:wbs_dat_o[15] 3.31118e-05
3 *614:9 0.029259
4 *614:7 0.0352082
5 *614:5 0.0352413
6 *614:7 *615:7 0
7 *613:7 *614:7 0
*RES
1 *739:wbs_dat_o[15] *614:5 0.0620667 
2 *614:5 *614:7 91.3127 
3 *614:7 *614:9 0.5 
4 *614:9 wbs_dat_o[15] 522.292 
*END

*D_NET *615 0.128002
*CONN
*P wbs_dat_o[16] O
*I *739:wbs_dat_o[16] O *D ntt_wb_bridge
*CAP
1 wbs_dat_o[16] 0.0295593
2 *739:wbs_dat_o[16] 3.31118e-05
3 *615:9 0.0295593
4 *615:7 0.0344085
5 *615:5 0.0344416
6 *615:7 *616:7 0
7 *614:7 *615:7 0
*RES
1 *739:wbs_dat_o[16] *615:5 0.0620667 
2 *615:5 *615:7 89.0403 
3 *615:7 *615:9 0.5 
4 *615:9 wbs_dat_o[16] 527.393 
*END

*D_NET *616 0.126885
*CONN
*P wbs_dat_o[17] O
*I *739:wbs_dat_o[17] O *D ntt_wb_bridge
*CAP
1 wbs_dat_o[17] 0.0298604
2 *739:wbs_dat_o[17] 3.31118e-05
3 *616:9 0.0298604
4 *616:7 0.0335491
5 *616:5 0.0335822
6 *616:7 *617:7 0
7 *615:7 *616:7 0
*RES
1 *739:wbs_dat_o[17] *616:5 0.0620667 
2 *616:5 *616:7 86.8262 
3 *616:7 *616:9 0.5 
4 *616:9 wbs_dat_o[17] 532.492 
*END

*D_NET *617 0.125727
*CONN
*P wbs_dat_o[18] O
*I *739:wbs_dat_o[18] O *D ntt_wb_bridge
*CAP
1 wbs_dat_o[18] 0.0301611
2 *739:wbs_dat_o[18] 3.31118e-05
3 *617:9 0.0301611
4 *617:7 0.0326694
5 *617:5 0.0327025
6 *617:7 *618:7 0
7 *585:13 wbs_dat_o[18] 0
8 *616:7 *617:7 0
*RES
1 *739:wbs_dat_o[18] *617:5 0.0620667 
2 *617:5 *617:7 84.5538 
3 *617:7 *617:9 0.5 
4 *617:9 wbs_dat_o[18] 537.593 
*END

*D_NET *618 0.124608
*CONN
*P wbs_dat_o[19] O
*I *739:wbs_dat_o[19] O *D ntt_wb_bridge
*CAP
1 wbs_dat_o[19] 0.030461
2 *739:wbs_dat_o[19] 3.31118e-05
3 *618:9 0.030461
4 *618:7 0.03181
5 *618:5 0.0318431
6 *618:7 *620:7 0
7 *617:7 *618:7 0
*RES
1 *739:wbs_dat_o[19] *618:5 0.0620667 
2 *618:5 *618:7 82.3397 
3 *618:7 *618:9 0.5 
4 *618:9 wbs_dat_o[19] 542.693 
*END

*D_NET *619 0.148383
*CONN
*P wbs_dat_o[1] O
*I *739:wbs_dat_o[1] O *D ntt_wb_bridge
*CAP
1 wbs_dat_o[1] 0.0249
2 *739:wbs_dat_o[1] 3.31118e-05
3 *619:9 0.0249
4 *619:7 0.0484505
5 *619:5 0.0484836
6 *619:7 *630:7 0
7 *116:77 *619:7 0.00161552
8 *608:7 *619:7 0
*RES
1 *739:wbs_dat_o[1] *619:5 0.0620667 
2 *619:5 *619:7 124.991 
3 *619:7 *619:9 0.5 
4 *619:9 wbs_dat_o[1] 450.892 
*END

*D_NET *620 0.127599
*CONN
*P wbs_dat_o[20] O
*I *739:wbs_dat_o[20] O *D ntt_wb_bridge
*CAP
1 wbs_dat_o[20] 0.0318464
2 *739:wbs_dat_o[20] 3.50218e-05
3 *620:9 0.0318464
4 *620:7 0.0319181
5 *620:5 0.0319531
6 *620:7 *621:7 0
7 *116:87 wbs_dat_o[20] 0
8 *618:7 *620:7 0
*RES
1 *739:wbs_dat_o[20] *620:5 0.0620667 
2 *620:5 *620:7 80.0673 
3 *620:7 *620:9 0.5 
4 *620:9 wbs_dat_o[20] 547.792 
*END

*D_NET *621 0.126431
*CONN
*P wbs_dat_o[21] O
*I *739:wbs_dat_o[21] O *D ntt_wb_bridge
*CAP
1 wbs_dat_o[21] 0.0321584
2 *739:wbs_dat_o[21] 3.31118e-05
3 *621:9 0.0321584
4 *621:7 0.0310238
5 *621:5 0.031057
6 *621:7 *622:7 0
7 *620:7 *621:7 0
*RES
1 *739:wbs_dat_o[21] *621:5 0.0620667 
2 *621:5 *621:7 77.8531 
3 *621:7 *621:9 0.5 
4 *621:9 wbs_dat_o[21] 552.893 
*END

*D_NET *622 0.123363
*CONN
*P wbs_dat_o[22] O
*I *739:wbs_dat_o[22] O *D ntt_wb_bridge
*CAP
1 wbs_dat_o[22] 0.0324658
2 *739:wbs_dat_o[22] 3.31118e-05
3 *622:9 0.0324658
4 *622:7 0.0291826
5 *622:5 0.0292157
6 *622:7 *623:7 0
7 *116:79 wbs_dat_o[22] 0
8 *621:7 *622:7 0
*RES
1 *739:wbs_dat_o[22] *622:5 0.0620667 
2 *622:5 *622:7 75.5807 
3 *622:7 *622:9 0.5 
4 *622:9 wbs_dat_o[22] 557.992 
*END

*D_NET *623 0.124135
*CONN
*P wbs_dat_o[23] O
*I *739:wbs_dat_o[23] O *D ntt_wb_bridge
*CAP
1 wbs_dat_o[23] 0.0327733
2 *739:wbs_dat_o[23] 3.50218e-05
3 *623:9 0.0327733
4 *623:7 0.0292593
5 *623:5 0.0292943
6 *623:7 *624:7 0
7 *622:7 *623:7 0
*RES
1 *739:wbs_dat_o[23] *623:5 0.0620667 
2 *623:5 *623:7 73.3666 
3 *623:7 *623:9 0.5 
4 *623:9 wbs_dat_o[23] 563.093 
*END

*D_NET *624 0.122893
*CONN
*P wbs_dat_o[24] O
*I *739:wbs_dat_o[24] O *D ntt_wb_bridge
*CAP
1 wbs_dat_o[24] 0.0330516
2 *739:wbs_dat_o[24] 3.31118e-05
3 *624:9 0.0330516
4 *624:7 0.0283619
5 *624:5 0.028395
6 *624:7 *625:7 0
7 *623:7 *624:7 0
*RES
1 *739:wbs_dat_o[24] *624:5 0.0620667 
2 *624:5 *624:7 71.0942 
3 *624:7 *624:9 0.5 
4 *624:9 wbs_dat_o[24] 567.682 
*END

*D_NET *625 0.117792
*CONN
*P wbs_dat_o[25] O
*I *739:wbs_dat_o[25] O *D ntt_wb_bridge
*CAP
1 wbs_dat_o[25] 0.0322343
2 *739:wbs_dat_o[25] 3.31118e-05
3 *625:9 0.0322343
4 *625:7 0.0266285
5 *625:5 0.0266616
6 *625:7 *626:7 0
7 *624:7 *625:7 0
*RES
1 *739:wbs_dat_o[25] *625:5 0.0620667 
2 *625:5 *625:7 68.8801 
3 *625:7 *625:9 0.5 
4 *625:9 wbs_dat_o[25] 572.782 
*END

*D_NET *626 0.118441
*CONN
*P wbs_dat_o[26] O
*I *739:wbs_dat_o[26] O *D ntt_wb_bridge
*CAP
1 wbs_dat_o[26] 0.0325327
2 *739:wbs_dat_o[26] 3.50218e-05
3 *626:9 0.0325327
4 *626:7 0.0266526
5 *626:5 0.0266876
6 *625:7 *626:7 0
*RES
1 *739:wbs_dat_o[26] *626:5 0.0620667 
2 *626:5 *626:7 66.6077 
3 *626:7 *626:9 0.5 
4 *626:9 wbs_dat_o[26] 577.883 
*END

*D_NET *627 0.117947
*CONN
*P wbs_dat_o[27] O
*I *739:wbs_dat_o[27] O *D ntt_wb_bridge
*CAP
1 wbs_dat_o[27] 0.034003
2 *739:wbs_dat_o[27] 3.31118e-05
3 *627:9 0.034003
4 *627:7 0.0249376
5 *627:5 0.0249707
6 *627:7 *628:7 0
*RES
1 *739:wbs_dat_o[27] *627:5 0.0620667 
2 *627:5 *627:7 64.3353 
3 *627:7 *627:9 0.5 
4 *627:9 wbs_dat_o[27] 583.492 
*END

*D_NET *628 0.116845
*CONN
*P wbs_dat_o[28] O
*I *739:wbs_dat_o[28] O *D ntt_wb_bridge
*CAP
1 wbs_dat_o[28] 0.0343104
2 *739:wbs_dat_o[28] 3.31118e-05
3 *628:9 0.0343104
4 *628:7 0.0240791
5 *628:5 0.0241122
6 *628:7 *629:7 0
7 *627:7 *628:7 0
*RES
1 *739:wbs_dat_o[28] *628:5 0.0620667 
2 *628:5 *628:7 62.1211 
3 *628:7 *628:9 0.5 
4 *628:9 wbs_dat_o[28] 588.593 
*END

*D_NET *629 0.11721
*CONN
*P wbs_dat_o[29] O
*I *739:wbs_dat_o[29] O *D ntt_wb_bridge
*CAP
1 wbs_dat_o[29] 0.0346178
2 *739:wbs_dat_o[29] 3.50218e-05
3 *629:9 0.0346178
4 *629:7 0.023952
5 *629:5 0.023987
6 *629:7 *631:7 0
7 *628:7 *629:7 0
*RES
1 *739:wbs_dat_o[29] *629:5 0.0620667 
2 *629:5 *629:7 59.8487 
3 *629:7 *629:9 0.5 
4 *629:9 wbs_dat_o[29] 593.693 
*END

*D_NET *630 0.148143
*CONN
*P wbs_dat_o[2] O
*I *739:wbs_dat_o[2] O *D ntt_wb_bridge
*CAP
1 wbs_dat_o[2] 0.0252064
2 *739:wbs_dat_o[2] 3.50218e-05
3 *630:9 0.0252064
4 *630:7 0.0488299
5 *630:5 0.0488649
6 *630:7 *633:7 0
7 *619:7 *630:7 0
*RES
1 *739:wbs_dat_o[2] *630:5 0.0620667 
2 *630:5 *630:7 122.019 
3 *630:7 *630:9 0.5 
4 *630:9 wbs_dat_o[2] 455.992 
*END

*D_NET *631 0.116086
*CONN
*P wbs_dat_o[30] O
*I *739:wbs_dat_o[30] O *D ntt_wb_bridge
*CAP
1 wbs_dat_o[30] 0.0349253
2 *739:wbs_dat_o[30] 3.31118e-05
3 *631:9 0.0349253
4 *631:7 0.0230848
5 *631:5 0.023118
6 *631:7 *632:7 0
7 *629:7 *631:7 0
*RES
1 *739:wbs_dat_o[30] *631:5 0.0620667 
2 *631:5 *631:7 57.6346 
3 *631:7 *631:9 0.5 
4 *631:9 wbs_dat_o[30] 598.792 
*END

*D_NET *632 0.11491
*CONN
*P wbs_dat_o[31] O
*I *739:wbs_dat_o[31] O *D ntt_wb_bridge
*CAP
1 wbs_dat_o[31] 0.0352327
2 *739:wbs_dat_o[31] 3.50218e-05
3 *632:9 0.0352327
4 *632:7 0.0221874
5 *632:5 0.0222225
6 *631:7 *632:7 0
*RES
1 *739:wbs_dat_o[31] *632:5 0.0620667 
2 *632:5 *632:7 55.3622 
3 *632:7 *632:9 0.5 
4 *632:9 wbs_dat_o[31] 603.893 
*END

*D_NET *633 0.148282
*CONN
*P wbs_dat_o[3] O
*I *739:wbs_dat_o[3] O *D ntt_wb_bridge
*CAP
1 wbs_dat_o[3] 0.0264893
2 *739:wbs_dat_o[3] 3.31118e-05
3 *633:9 0.0264893
4 *633:7 0.0476186
5 *633:5 0.0476518
6 *633:7 *634:7 0
7 *630:7 *633:7 0
*RES
1 *739:wbs_dat_o[3] *633:5 0.0620667 
2 *633:5 *633:7 118.989 
3 *633:7 *633:9 0.5 
4 *633:9 wbs_dat_o[3] 461.092 
*END

*D_NET *634 0.146502
*CONN
*P wbs_dat_o[4] O
*I *739:wbs_dat_o[4] O *D ntt_wb_bridge
*CAP
1 wbs_dat_o[4] 0.00298093
2 *739:wbs_dat_o[4] 3.31118e-05
3 *634:17 0.00298093
4 *634:15 0.0269156
5 *634:13 0.0269156
6 *634:11 0.0232237
7 *634:9 0.0232237
8 *634:7 0.0200978
9 *634:5 0.0201309
10 *634:7 *635:7 0
11 *633:7 *634:7 0
*RES
1 *739:wbs_dat_o[4] *634:5 0.0620667 
2 *634:5 *634:7 51.7497 
3 *634:7 *634:9 0.5 
4 *634:9 *634:11 413.205 
5 *634:11 *634:13 0.5 
6 *634:13 *634:15 64.3061 
7 *634:15 *634:17 0.5 
8 *634:17 wbs_dat_o[4] 53.0925 
*END

*D_NET *635 0.144951
*CONN
*P wbs_dat_o[5] O
*I *739:wbs_dat_o[5] O *D ntt_wb_bridge
*CAP
1 wbs_dat_o[5] 0.0261296
2 *739:wbs_dat_o[5] 3.50218e-05
3 *635:9 0.0261296
4 *635:7 0.046311
5 *635:5 0.046346
6 *635:7 *636:7 0
7 *634:7 *635:7 0
*RES
1 *739:wbs_dat_o[5] *635:5 0.0620667 
2 *635:5 *635:7 113.804 
3 *635:7 *635:9 0.5 
4 *635:9 wbs_dat_o[5] 471.293 
*END

*D_NET *636 0.142325
*CONN
*P wbs_dat_o[6] O
*I *739:wbs_dat_o[6] O *D ntt_wb_bridge
*CAP
1 wbs_dat_o[6] 0.026436
2 *739:wbs_dat_o[6] 3.31118e-05
3 *636:9 0.026436
4 *636:7 0.0446934
5 *636:5 0.0447265
6 *636:7 *637:7 0
7 *635:7 *636:7 0
*RES
1 *739:wbs_dat_o[6] *636:5 0.0620667 
2 *636:5 *636:7 111.531 
3 *636:7 *636:9 0.5 
4 *636:9 wbs_dat_o[6] 476.392 
*END

*D_NET *637 0.138426
*CONN
*P wbs_dat_o[7] O
*I *739:wbs_dat_o[7] O *D ntt_wb_bridge
*CAP
1 wbs_dat_o[7] 0.0267363
2 *739:wbs_dat_o[7] 3.31118e-05
3 *637:9 0.0267363
4 *637:7 0.0424434
5 *637:5 0.0424766
6 *637:7 *638:7 0
7 *636:7 *637:7 0
*RES
1 *739:wbs_dat_o[7] *637:5 0.0620667 
2 *637:5 *637:7 109.259 
3 *637:7 *637:9 0.5 
4 *637:9 wbs_dat_o[7] 481.492 
*END

*D_NET *638 0.152468
*CONN
*P wbs_dat_o[8] O
*I *739:wbs_dat_o[8] O *D ntt_wb_bridge
*CAP
1 wbs_dat_o[8] 0.0270409
2 *739:wbs_dat_o[8] 3.50218e-05
3 *638:9 0.0270409
4 *638:7 0.0428911
5 *638:5 0.0429262
6 *638:7 *639:7 0
7 *127:27 wbs_dat_o[8] 0.0125337
8 *637:7 *638:7 0
*RES
1 *739:wbs_dat_o[8] *638:5 0.0620667 
2 *638:5 *638:7 107.045 
3 *638:7 *638:9 0.5 
4 *638:9 wbs_dat_o[8] 486.592 
*END

*D_NET *639 0.138656
*CONN
*P wbs_dat_o[9] O
*I *739:wbs_dat_o[9] O *D ntt_wb_bridge
*CAP
1 wbs_dat_o[9] 0.0273473
2 *739:wbs_dat_o[9] 3.31118e-05
3 *639:9 0.0273473
4 *639:7 0.0419474
5 *639:5 0.0419806
6 *609:7 *639:7 0
7 *638:7 *639:7 0
*RES
1 *739:wbs_dat_o[9] *639:5 0.0620667 
2 *639:5 *639:7 104.772 
3 *639:7 *639:9 0.5 
4 *639:9 wbs_dat_o[9] 491.693 
*END

*D_NET *640 0.113551
*CONN
*P wbs_sel_i[0] I
*I *739:wbs_sel_i[0] I *D ntt_wb_bridge
*CAP
1 wbs_sel_i[0] 0.00523888
2 *739:wbs_sel_i[0] 3.50218e-05
3 *640:9 0.0515369
4 *640:7 0.0515018
5 *640:5 0.00523888
6 *640:9 *641:9 0
7 *640:9 *645:9 0
*RES
1 wbs_sel_i[0] *640:5 93.8925 
2 *640:5 *640:7 0.5 
3 *640:7 *640:9 127.263 
4 *640:9 *739:wbs_sel_i[0] 0.0620667 
*END

*D_NET *641 0.111704
*CONN
*P wbs_sel_i[1] I
*I *739:wbs_sel_i[1] I *D ntt_wb_bridge
*CAP
1 wbs_sel_i[1] 0.00552517
2 *739:wbs_sel_i[1] 3.31118e-05
3 *641:9 0.0503267
4 *641:7 0.0502936
5 *641:5 0.00552517
6 *641:9 *642:9 0
7 *640:9 *641:9 0
*RES
1 wbs_sel_i[1] *641:5 98.9925 
2 *641:5 *641:7 0.5 
3 *641:7 *641:9 124.233 
4 *641:9 *739:wbs_sel_i[1] 0.0620667 
*END

*D_NET *642 0.107292
*CONN
*P wbs_sel_i[2] I
*I *739:wbs_sel_i[2] I *D ntt_wb_bridge
*CAP
1 wbs_sel_i[2] 0.00602617
2 *739:wbs_sel_i[2] 3.31118e-05
3 *642:9 0.0476201
4 *642:7 0.047587
5 *642:5 0.00602617
6 *642:9 *643:9 0
7 *641:9 *642:9 0
*RES
1 wbs_sel_i[2] *642:5 104.092 
2 *642:5 *642:7 0.5 
3 *642:7 *642:9 121.262 
4 *642:9 *739:wbs_sel_i[2] 0.0620667 
*END

*D_NET *643 0.110996
*CONN
*P wbs_sel_i[3] I
*I *739:wbs_sel_i[3] I *D ntt_wb_bridge
*CAP
1 wbs_sel_i[3] 0.00609774
2 *739:wbs_sel_i[3] 3.50218e-05
3 *643:9 0.0478644
4 *643:7 0.0478294
5 *643:5 0.00609774
6 *131:19 *643:5 0.00307168
7 *543:9 *643:9 0
8 *642:9 *643:9 0
*RES
1 wbs_sel_i[3] *643:5 109.192 
2 *643:5 *643:7 0.5 
3 *643:7 *643:9 118.29 
4 *643:9 *739:wbs_sel_i[3] 0.0620667 
*END

*D_NET *644 0.115904
*CONN
*P wbs_stb_i I
*I *739:wbs_stb_i I *D ntt_wb_bridge
*CAP
1 wbs_stb_i 0.00359598
2 *739:wbs_stb_i 3.31118e-05
3 *644:9 0.0530979
4 *644:7 0.0530648
5 *644:5 0.00359598
6 *644:9 *645:9 0
7 *542:11 *644:5 0
8 *575:13 *644:5 0.00251584
9 *575:17 *644:9 0
*RES
1 wbs_stb_i *644:5 83.6925 
2 *644:5 *644:7 0.5 
3 *644:7 *644:9 130.992 
4 *644:9 *739:wbs_stb_i 0.0620667 
*END

*D_NET *645 0.112163
*CONN
*P wbs_we_i I
*I *739:wbs_we_i I *D ntt_wb_bridge
*CAP
1 wbs_we_i 0.00495187
2 *739:wbs_we_i 3.31118e-05
3 *645:9 0.0511298
4 *645:7 0.0510967
5 *645:5 0.00495187
6 *640:9 *645:9 0
7 *644:9 *645:9 0
*RES
1 wbs_we_i *645:5 88.7925 
2 *645:5 *645:7 0.5 
3 *645:7 *645:9 130.235 
4 *645:9 *739:wbs_we_i 0.0620667 
*END

*D_NET *646 0.654548
*CONN
*I *739:busy_i I *D ntt_wb_bridge
*I *740:busy O *D ntt_engine_256
*CAP
1 *739:busy_i 3.66064e-05
2 *740:busy 0.000431194
3 *646:43 0.0217293
4 *646:41 0.02476
5 *646:23 0.0623412
6 *646:21 0.0592739
7 *646:19 0.00780225
8 *646:17 0.00786393
9 *646:11 0.0164224
10 *646:9 0.0167919
11 *646:11 *658:49 0.0098355
12 *646:11 *663:11 0.000289577
13 *646:11 *673:11 0.0338654
14 *646:11 *685:13 0.0107939
15 *646:11 *714:39 0.0420972
16 *646:11 *715:23 0.0424729
17 *646:17 *740:mem_wdata[3] 0.000102616
18 *646:19 *648:15 0.000321229
19 *646:19 *658:39 0.0495593
20 *646:19 *679:11 0.00983689
21 *646:19 *685:21 0.000156318
22 *646:19 *714:31 0
23 *646:19 *715:23 0.0018282
24 *646:19 *732:27 0.040982
25 *646:23 *740:mem_addr[3] 0.00313821
26 *646:23 *658:27 0.000261357
27 *646:23 *658:35 0
28 *646:23 *682:15 0.0777031
29 *646:23 *682:23 0.0214366
30 *646:23 *685:33 0.00668334
31 *646:23 *685:47 0.00371
32 *646:23 *700:19 0.0121247
33 *646:23 *714:19 0.00462578
34 *646:23 *724:23 0.00243026
35 *646:41 *700:11 0.00225053
36 *77:143 *646:41 0.000433397
37 *114:25 *646:41 0.00616984
38 *114:35 *646:41 0.000786284
39 *114:37 *646:23 0
40 *115:233 *646:11 0.000185889
41 *531:23 *646:43 0.0530146
*RES
1 *740:busy *646:9 7.985 
2 *646:9 *646:11 126.069 
3 *646:11 *646:17 3.7525 
4 *646:17 *646:19 450.675 
5 *646:19 *646:21 2 
6 *646:21 *646:23 1786.51 
7 *646:23 *646:41 16.7342 
8 *646:41 *646:43 83.3593 
9 *646:43 *739:busy_i 0.0620667 
*END

*D_NET *647 0.321928
*CONN
*I *739:done_i I *D ntt_wb_bridge
*I *740:done O *D ntt_engine_256
*CAP
1 *739:done_i 0.00312521
2 *740:done 0.000899869
3 *647:11 0.0297305
4 *647:9 0.0275051
5 *739:done_i *649:15 0
6 *739:done_i *661:27 0
7 *739:done_i *683:27 0
8 *647:11 *649:11 0.0275714
9 *647:11 *664:19 0.108876
10 *647:11 *695:23 0.0557455
11 *647:11 *704:31 0.00793336
12 *647:11 *710:23 0.0126022
13 *647:11 *710:31 0.0145312
14 *647:11 *712:24 0.000185699
15 *647:11 *734:23 0.0190784
16 *281:19 *739:done_i 0.00241839
17 *282:19 *739:done_i 0.00233372
18 *354:25 *647:11 0.00939202
*RES
1 *740:done *647:9 15.125 
2 *647:9 *647:11 185.443 
3 *647:11 *739:done_i 47.891 
*END

*D_NET *648 0.511716
*CONN
*I *740:rst_n I *D ntt_engine_256
*I *739:engine_rst_n_o O *D ntt_wb_bridge
*CAP
1 *740:rst_n 0.000431743
2 *739:engine_rst_n_o 3.62631e-05
3 *648:15 0.00626466
4 *648:13 0.00583291
5 *648:11 0.063678
6 *648:9 0.063678
7 *648:7 0.0332918
8 *648:5 0.0333281
9 *648:11 *653:11 0.120099
10 *648:11 *659:15 0.0367331
11 *648:11 *671:17 0
12 *648:15 *740:mem_slot[1] 6.23243e-05
13 *648:15 *653:23 0.0246135
14 *648:15 *663:11 0.00193604
15 *648:15 *671:15 0.00387045
16 *648:15 *685:21 3.0807e-05
17 *648:15 *714:31 0.00106732
18 *648:15 *715:23 0.00182525
19 *648:15 *720:23 4.06895e-05
20 *648:15 *732:27 0.0326657
21 *74:31 *648:11 0
22 *76:23 *648:11 0
23 *78:137 *648:11 0.0185496
24 *78:153 *648:11 0.00921556
25 *115:211 *648:11 0.0305734
26 *141:17 *648:11 0.0235702
27 *646:19 *648:15 0.000321229
*RES
1 *739:engine_rst_n_o *648:5 0.0620667 
2 *648:5 *648:7 85.8939 
3 *648:7 *648:9 0.5 
4 *648:9 *648:11 2418.91 
5 *648:11 *648:13 2 
6 *648:13 *648:15 309.225 
7 *648:15 *740:rst_n 9.1925 
*END

*D_NET *649 0.158483
*CONN
*I *739:mem_rvalid_i I *D ntt_wb_bridge
*I *740:mem_rvalid O *D ntt_engine_256
*CAP
1 *739:mem_rvalid_i 0.00134983
2 *740:mem_rvalid 0.000801393
3 *649:15 0.00372731
4 *649:13 0.00237748
5 *649:11 0.0145978
6 *649:9 0.0153991
7 *649:9 *704:29 2.67006e-05
8 *649:11 *704:23 0.0149167
9 *649:11 *704:31 0.000103154
10 *649:11 *706:15 0.011805
11 *649:11 *712:24 9.49421e-05
12 *649:11 *716:15 0.00819674
13 *649:11 *719:13 0.0156361
14 *649:11 *727:15 0.000173151
15 *649:11 *731:43 0.0368251
16 *649:15 *739:mem_rdata_i[11] 0
17 *649:15 *717:11 0
18 *739:done_i *649:15 0
19 *101:19 *649:15 0.000788275
20 *281:19 *649:15 0
21 *284:17 *649:15 0.0011891
22 *357:25 *649:11 0
23 *360:31 *649:15 0
24 *367:27 *649:15 0.00267795
25 *369:19 *649:15 6.88939e-05
26 *373:17 *649:15 0.000157232
27 *647:11 *649:11 0.0275714
*RES
1 *740:mem_rvalid *649:9 13.595 
2 *649:9 *649:11 96.9937 
3 *649:11 *649:13 0.5 
4 *649:13 *649:15 57.735 
5 *649:15 *739:mem_rvalid_i 3.0764 
*END

*D_NET *650 0.505271
*CONN
*I *740:mac_init I *D ntt_engine_256
*I *739:mac_init_o O *D ntt_wb_bridge
*CAP
1 *740:mac_init 0.00790097
2 *739:mac_init_o 0.00224654
3 *650:31 0.0277716
4 *650:29 0.0200296
5 *650:23 0.00371056
6 *650:21 0.00355152
7 *650:19 0.0125384
8 *650:17 0.0147849
9 *740:mac_init *661:11 0.022775
10 *650:17 *737:9 0
11 *650:19 *739:mem_rdata_i[8] 0.00360292
12 *650:19 *710:19 0.0272677
13 *650:23 *662:31 0
14 *650:23 *664:27 0.0173082
15 *650:23 *676:19 0.000688222
16 *650:23 *677:23 0.0204979
17 *650:31 *657:15 5.99563e-05
18 *650:31 *661:15 4.81696e-05
19 *650:31 *662:29 0.000205113
20 *650:31 *664:19 0.131695
21 *650:31 *675:25 0.000268163
22 *650:31 *677:15 0.128332
23 *650:31 *687:11 0.000901951
24 *92:27 *740:mac_init 2.86023e-05
25 *93:23 *740:mac_init 0.00900354
26 *354:27 *650:19 0.000129215
27 *358:25 *650:29 0.000236261
28 *358:25 *650:31 5.83844e-05
29 *359:25 *650:23 0.00230121
30 *360:31 *650:17 8.6313e-05
31 *364:19 *650:17 3.62883e-05
32 *378:27 *650:19 0.0472077
*RES
1 *739:mac_init_o *650:17 24.8787 
2 *650:17 *650:19 534.075 
3 *650:19 *650:21 2 
4 *650:21 *650:23 190.2 
5 *650:23 *650:29 5.7925 
6 *650:29 *650:31 196.018 
7 *650:31 *740:mac_init 45.8818 
*END

*D_NET *651 0.152281
*CONN
*I *740:mem_addr[0] I *D ntt_engine_256
*I *739:mem_addr_o[0] O *D ntt_wb_bridge
*CAP
1 *740:mem_addr[0] 0.000675875
2 *739:mem_addr_o[0] 0.00649326
3 *651:15 0.017212
4 *651:13 0.0165361
5 *651:11 0.0192885
6 *651:9 0.0257817
7 *651:15 *660:11 0.0359706
8 *651:15 *670:13 0.000230362
9 *651:15 *699:15 0
10 *651:15 *705:21 0.00358007
11 la_data_out[87] *651:11 0.0234316
12 *77:59 *651:11 0.00308091
13 *101:23 *651:15 0
*RES
1 *739:mem_addr_o[0] *651:9 15.4872 
2 *651:9 *651:11 505.515 
3 *651:11 *651:13 0.5 
4 *651:13 *651:15 66.9281 
5 *651:15 *740:mem_addr[0] 12.23 
*END

*D_NET *652 0.315303
*CONN
*I *740:mem_addr[1] I *D ntt_engine_256
*I *739:mem_addr_o[1] O *D ntt_wb_bridge
*CAP
1 *740:mem_addr[1] 0.000412324
2 *739:mem_addr_o[1] 2.1597e-05
3 *652:11 0.0337096
4 *652:9 0.0332973
5 *652:7 0.0324914
6 *652:5 0.032513
7 *652:11 *740:mem_wdata[18] 0.000229581
8 *652:11 *654:11 0.0298063
9 *652:11 *663:23 0.0172434
10 *652:11 *666:9 0.0510825
11 *652:11 *667:15 0.0149695
12 *652:11 *672:6 0.0338144
13 *652:11 *673:15 0.0161244
14 *652:11 *730:17 0
15 *114:25 *652:11 0.0195881
*RES
1 *739:mem_addr_o[1] *652:5 0.0620667 
2 *652:5 *652:7 83.7089 
3 *652:7 *652:9 0.5 
4 *652:9 *652:11 189.79 
5 *652:11 *740:mem_addr[1] 1.2714 
*END

*D_NET *653 0.467734
*CONN
*I *740:mem_addr[2] I *D ntt_engine_256
*I *739:mem_addr_o[2] O *D ntt_wb_bridge
*CAP
1 *740:mem_addr[2] 0.00046461
2 *739:mem_addr_o[2] 2.1597e-05
3 *653:23 0.00394333
4 *653:21 0.00407088
5 *653:11 0.0478632
6 *653:9 0.0472711
7 *653:7 0.0323226
8 *653:5 0.0323442
9 *653:11 *659:15 0.0353024
10 *653:21 *673:15 3.8718e-05
11 *653:21 *682:11 0.000235321
12 *653:21 *714:27 7.90693e-05
13 *653:21 *721:15 0.00140511
14 *653:23 *663:19 0.0164105
15 *653:23 *714:31 0.00275859
16 *653:23 *715:23 0.00537434
17 *653:23 *720:23 8.05167e-05
18 *76:23 *653:11 0.0891783
19 *78:63 *653:7 0.00335954
20 *115:81 *653:7 0.000497763
21 *648:11 *653:11 0.120099
22 *648:15 *653:23 0.0246135
*RES
1 *739:mem_addr_o[2] *653:5 0.0620667 
2 *653:5 *653:7 86.0105 
3 *653:7 *653:9 0.5 
4 *653:9 *653:11 2309.9 
5 *653:11 *653:21 6.1331 
6 *653:21 *653:23 222.63 
7 *653:23 *740:mem_addr[2] 9.4475 
*END

*D_NET *654 0.36386
*CONN
*I *740:mem_addr[3] I *D ntt_engine_256
*I *739:mem_addr_o[3] O *D ntt_wb_bridge
*CAP
1 *740:mem_addr[3] 0.00882556
2 *739:mem_addr_o[3] 2.35071e-05
3 *654:11 0.0514562
4 *654:9 0.0426306
5 *654:7 0.0345343
6 *654:5 0.0345578
7 *740:mem_addr[3] *690:9 0
8 *654:11 *658:19 0.00125999
9 *654:11 *666:9 0.0510893
10 *654:11 *667:15 0.00154497
11 *654:11 *679:15 0.00738124
12 *654:11 *685:47 0
13 *654:11 *685:49 0.00544308
14 *654:11 *714:27 0.00806061
15 *654:11 *715:11 0.0103558
16 *654:11 *724:21 0
17 *654:11 *724:23 0.00554474
18 *654:11 *730:17 0.00128127
19 *77:145 *654:11 0.00812323
20 *78:63 *654:7 0
21 *114:37 *654:11 0.00185588
22 *114:45 *740:mem_addr[3] 0.00568241
23 *114:45 *654:11 0.051265
24 *646:23 *740:mem_addr[3] 0.00313821
25 *652:11 *654:11 0.0298063
*RES
1 *739:mem_addr_o[3] *654:5 0.0620667 
2 *654:5 *654:7 83.942 
3 *654:7 *654:9 0.5 
4 *654:9 *654:11 215.544 
5 *654:11 *740:mem_addr[3] 29.0563 
*END

*D_NET *655 0.379591
*CONN
*I *740:mem_addr[4] I *D ntt_engine_256
*I *739:mem_addr_o[4] O *D ntt_wb_bridge
*CAP
1 *740:mem_addr[4] 0.00205211
2 *739:mem_addr_o[4] 2.1597e-05
3 *655:11 0.155538
4 *655:9 0.153486
5 *655:7 0.0342356
6 *655:5 0.0342572
7 *69:21 *655:11 0
*RES
1 *739:mem_addr_o[4] *655:5 0.0620667 
2 *655:5 *655:7 87.5545 
3 *655:7 *655:9 0.5 
4 *655:9 *655:11 333.46 
5 *655:11 *740:mem_addr[4] 4.73447 
*END

*D_NET *656 0.641447
*CONN
*I *740:mem_addr[5] I *D ntt_engine_256
*I *739:mem_addr_o[5] O *D ntt_wb_bridge
*CAP
1 *740:mem_addr[5] 0.000850125
2 *739:mem_addr_o[5] 0.000527573
3 *656:35 0.014585
4 *656:33 0.0138263
5 *656:27 0.0158808
6 *656:25 0.0157894
7 *656:23 0.0237477
8 *656:21 0.0237665
9 *656:15 0.0382872
10 *656:13 0.0382685
11 *656:11 0.00867294
12 *656:9 0.00920051
13 *656:11 *657:11 0.0394721
14 *656:11 *728:11 0.0398712
15 *656:15 *740:mem_we 0.000501491
16 *656:15 *668:19 0.0133548
17 *656:15 *675:27 0
18 *656:15 *678:19 0.000692445
19 *656:15 *683:23 0
20 *656:15 *701:15 0
21 *656:15 *701:23 0.000996368
22 *656:15 *711:15 0.0107403
23 *656:15 *728:15 0.000196952
24 *656:15 *728:23 0.0067886
25 *656:23 *676:19 1.45029e-05
26 *656:23 *683:15 0.000117365
27 *656:23 *701:23 0.0640366
28 *656:23 *725:23 0
29 *656:23 *729:23 0
30 *656:27 *677:11 0.0208539
31 *656:27 *691:19 0.0638861
32 *656:27 *702:22 0.0769838
33 *656:27 *729:27 0
34 *656:33 *677:9 3.99991e-05
35 *656:35 *677:11 5.79754e-05
36 *656:35 *691:11 0.0337638
37 *656:35 *702:30 0.04327
38 *656:35 *709:27 0.000130989
39 *656:35 *718:27 0.0148289
40 *118:27 *656:27 0.000775337
41 *118:27 *656:35 0.00111315
42 *342:39 *656:23 0.000168418
43 *343:25 *656:23 0.000642474
44 *349:31 *656:15 0
45 *350:27 *656:15 0
46 *352:19 *656:11 0
47 *378:23 *656:15 0.00474712
*RES
1 *739:mem_addr_o[5] *656:9 1.55893 
2 *656:9 *656:11 464.078 
3 *656:11 *656:13 2 
4 *656:13 *656:15 752.205 
5 *656:15 *656:21 2.7325 
6 *656:21 *656:23 95.5371 
7 *656:23 *656:25 0.5 
8 *656:25 *656:27 882.405 
9 *656:27 *656:33 1.18367 
10 *656:33 *656:35 106.671 
11 *656:35 *740:mem_addr[5] 2.31767 
*END

*D_NET *657 0.239315
*CONN
*I *740:mem_addr[6] I *D ntt_engine_256
*I *739:mem_addr_o[6] O *D ntt_wb_bridge
*CAP
1 *740:mem_addr[6] 0.00113294
2 *739:mem_addr_o[6] 0.000528475
3 *657:15 0.0161573
4 *657:13 0.0150243
5 *657:11 0.00984324
6 *657:9 0.0103717
7 *740:mem_addr[6] *661:21 2.67006e-05
8 *657:11 *722:13 0
9 *657:11 *722:15 0.0344527
10 *657:11 *731:11 0
11 *657:15 *740:mem_slot[0] 0.000102406
12 *657:15 *661:15 0.000103154
13 *657:15 *664:27 0.000116825
14 *657:15 *676:19 0.00165294
15 *657:15 *676:27 0.00010708
16 *657:15 *677:15 0.0160967
17 *657:15 *687:11 0.0210748
18 *657:15 *696:15 0.00304207
19 *657:15 *696:23 0.0576752
20 *352:17 *657:15 0
21 *352:19 *657:11 0
22 *356:29 *657:15 0.000123555
23 *356:31 *657:11 0
24 *358:25 *657:15 4.9929e-05
25 *359:25 *657:15 0.0108567
26 *362:23 *657:15 0.00124457
27 *650:31 *657:15 5.99563e-05
28 *656:11 *657:11 0.0394721
*RES
1 *739:mem_addr_o[6] *657:9 1.53107 
2 *657:9 *657:11 462.165 
3 *657:11 *657:13 0.5 
4 *657:13 *657:15 107.598 
5 *657:15 *740:mem_addr[6] 18.695 
*END

*D_NET *658 0.73238
*CONN
*I *740:mem_addr[7] I *D ntt_engine_256
*I *739:mem_addr_o[7] O *D ntt_wb_bridge
*CAP
1 *740:mem_addr[7] 0.000523382
2 *739:mem_addr_o[7] 0.00334803
3 *658:49 0.00717803
4 *658:39 0.020662
5 *658:37 0.0140073
6 *658:35 0.0488581
7 *658:33 0.0490945
8 *658:27 0.00511994
9 *658:25 0.00505092
10 *658:19 0.00109523
11 *658:17 0.000927804
12 *658:15 0.0172366
13 *658:13 0.0172366
14 *658:11 0.0210554
15 *658:9 0.0244034
16 *658:11 *682:41 0.0114932
17 *658:11 *695:19 0.00503725
18 *658:15 *682:35 0.0522713
19 *658:19 *685:49 0.00576691
20 *658:19 *715:11 0.00577894
21 *658:25 *714:25 0.000267944
22 *658:27 *682:15 0.00649723
23 *658:27 *700:19 0.0208412
24 *658:27 *730:19 0.027113
25 *658:33 *685:31 0
26 *658:35 *685:33 0
27 *658:35 *714:27 0.127082
28 *658:35 *720:21 1.88904e-05
29 *658:39 *679:11 0.0108332
30 *658:39 *685:21 0.0741636
31 *658:39 *714:31 0
32 *658:39 *715:23 0.00345832
33 *658:49 *673:11 0.0082747
34 *658:49 *682:11 0.000246249
35 *658:49 *685:13 0.0167792
36 *658:49 *714:31 0.00428097
37 *77:135 *658:15 0.000610493
38 *114:37 *658:19 5.38986e-06
39 *114:45 *658:35 0.0290433
40 *140:17 *658:11 0.0240874
41 *540:17 *658:39 0.00171619
42 *646:11 *658:49 0.0098355
43 *646:19 *658:39 0.0495593
44 *646:23 *658:27 0.000261357
45 *646:23 *658:35 0
46 *654:11 *658:19 0.00125999
*RES
1 *739:mem_addr_o[7] *658:9 7.59207 
2 *658:9 *658:11 80.8311 
3 *658:11 *658:13 0.5 
4 *658:13 *658:15 77.0957 
5 *658:15 *658:17 0.5 
6 *658:17 *658:19 65.0025 
7 *658:19 *658:25 7.21 
8 *658:25 *658:27 312.99 
9 *658:27 *658:33 7.555 
10 *658:33 *658:35 1421.22 
11 *658:35 *658:37 2 
12 *658:37 *658:39 670.785 
13 *658:39 *658:49 43.3806 
14 *658:49 *740:mem_addr[7] 8.85 
*END

*D_NET *659 0.402668
*CONN
*I *740:mem_addr[8] I *D ntt_engine_256
*I *739:mem_addr_o[8] O *D ntt_wb_bridge
*CAP
1 *740:mem_addr[8] 0.00144243
2 *739:mem_addr_o[8] 2.1597e-05
3 *659:15 0.0762516
4 *659:13 0.0795996
5 *659:7 0.0336412
6 *659:5 0.0288724
7 *659:15 *669:11 0.0723332
8 *659:15 *669:17 0.00186246
9 *659:15 *674:13 0
10 *659:15 *681:11 0.00650141
11 *659:15 *686:21 0.00439837
12 *659:15 *723:11 0
13 *659:15 *738:11 0
14 *75:17 *659:15 0.00545808
15 *76:23 *659:15 0.00586756
16 *102:27 *659:15 0.00274458
17 *115:211 *659:15 0.00684198
18 *141:17 *659:15 0.00479638
19 *648:11 *659:15 0.0367331
20 *653:11 *659:15 0.0353024
*RES
1 *739:mem_addr_o[8] *659:5 0.0620667 
2 *659:5 *659:7 73.9201 
3 *659:7 *659:13 12.7816 
4 *659:13 *659:15 289.101 
5 *659:15 *740:mem_addr[8] 3.30567 
*END

*D_NET *660 0.121856
*CONN
*I *739:mem_rdata_i[0] I *D ntt_wb_bridge
*I *740:mem_rdata[0] O *D ntt_engine_256
*CAP
1 *739:mem_rdata_i[0] 0.00667564
2 *740:mem_rdata[0] 0.000685177
3 *660:15 0.0209977
4 *660:13 0.014322
5 *660:11 0.00626311
6 *660:9 0.00694829
7 *660:11 *740:mem_re 0.00628855
8 *660:11 *684:13 0.00420896
9 *660:11 *699:15 0
10 *660:11 *705:21 0.0194959
11 *651:15 *660:11 0.0359706
*RES
1 *740:mem_rdata[0] *660:9 12.065 
2 *660:9 *660:11 53.352 
3 *660:11 *660:13 0.5 
4 *660:13 *660:15 255.105 
5 *660:15 *739:mem_rdata_i[0] 16.3612 
*END

*D_NET *661 0.537278
*CONN
*I *739:mem_rdata_i[10] I *D ntt_wb_bridge
*I *740:mem_rdata[10] O *D ntt_engine_256
*CAP
1 *739:mem_rdata_i[10] 0.00198345
2 *740:mem_rdata[10] 0.00142371
3 *661:27 0.00536263
4 *661:25 0.00337918
5 *661:23 0.0187173
6 *661:21 0.0188301
7 *661:15 0.0176185
8 *661:13 0.0175057
9 *661:11 0.0990244
10 *661:9 0.100448
11 *739:mem_rdata_i[10] *739:mem_rdata_i[11] 0
12 *739:mem_rdata_i[10] *688:27 0.000224622
13 *739:mem_rdata_i[10] *712:12 0.000229581
14 *661:15 *662:29 0.0272267
15 *661:15 *662:31 0.0109862
16 *661:15 *676:19 0.00749632
17 *661:15 *677:15 0.0215449
18 *661:15 *696:23 0.0345835
19 *661:23 *662:31 0
20 *661:23 *675:27 0.0720085
21 *661:23 *676:19 0.0014196
22 *661:23 *677:23 0.0230197
23 *661:27 *683:27 0
24 *739:done_i *661:27 0
25 *740:mac_init *661:11 0.022775
26 *740:mem_addr[6] *661:21 2.67006e-05
27 *86:33 *661:11 0
28 *91:27 *661:11 0
29 *92:27 *661:11 0
30 *93:23 *661:11 2.73219e-05
31 *129:27 *661:11 0
32 *359:25 *661:23 0.00103166
33 *361:27 *661:27 0
34 *364:19 *739:mem_rdata_i[10] 0.000222956
35 *371:19 *661:27 0.000138427
36 *372:17 *661:27 0.0145543
37 *374:19 *661:27 0.0153173
38 *650:31 *661:15 4.81696e-05
39 *657:15 *661:15 0.000103154
*RES
1 *740:mem_rdata[10] *661:9 3.36647 
2 *661:9 *661:11 228.722 
3 *661:11 *661:13 0.5 
4 *661:13 *661:15 116.367 
5 *661:15 *661:21 4.2625 
6 *661:21 *661:23 651.465 
7 *661:23 *661:25 2 
8 *661:25 *661:27 181.665 
9 *661:27 *739:mem_rdata_i[10] 18.154 
*END

*D_NET *662 0.596749
*CONN
*I *739:mem_rdata_i[11] I *D ntt_wb_bridge
*I *740:mem_rdata[11] O *D ntt_engine_256
*CAP
1 *739:mem_rdata_i[11] 0.0114835
2 *740:mem_rdata[11] 0.00502558
3 *662:31 0.0725999
4 *662:29 0.066145
5 *662:19 0.0421698
6 *662:17 0.0421668
7 *739:mem_rdata_i[11] *739:mem_rdata_i[7] 0
8 *739:mem_rdata_i[11] *717:11 0.000976369
9 *662:17 *695:45 0.00390473
10 *662:17 *733:57 0.005911
11 *662:19 *675:15 0.000103158
12 *662:19 *695:35 0.157357
13 *662:19 *734:35 2.33534e-05
14 *662:29 *677:15 0.0138183
15 *662:31 *675:27 0
16 *662:31 *677:15 0.0100352
17 *662:31 *677:23 0
18 *662:31 *687:11 0.00137748
19 *662:31 *696:15 0.002962
20 *739:mem_rdata_i[10] *739:mem_rdata_i[11] 0
21 *80:29 *662:19 0.0899481
22 *101:19 *739:mem_rdata_i[11] 0.0093647
23 *116:109 *662:29 0.00267604
24 *353:21 *739:mem_rdata_i[11] 0
25 *356:29 *662:31 0.00334657
26 *358:25 *739:mem_rdata_i[11] 0
27 *360:31 *739:mem_rdata_i[11] 0.00348525
28 *362:23 *662:31 0.00280302
29 *364:19 *739:mem_rdata_i[11] 0.000920541
30 *367:27 *739:mem_rdata_i[11] 0.00349376
31 *369:19 *739:mem_rdata_i[11] 0.00311686
32 *373:17 *739:mem_rdata_i[11] 0.00311686
33 *649:15 *739:mem_rdata_i[11] 0
34 *650:23 *662:31 0
35 *650:31 *662:29 0.000205113
36 *661:15 *662:29 0.0272267
37 *661:15 *662:31 0.0109862
38 *661:23 *662:31 0
*RES
1 *740:mem_rdata[11] *662:17 26.3648 
2 *662:17 *662:19 1822.84 
3 *662:19 *662:29 43.6493 
4 *662:29 *662:31 1092.38 
5 *662:31 *739:mem_rdata_i[11] 38.7717 
*END

*D_NET *663 0.680755
*CONN
*I *739:mem_rdata_i[12] I *D ntt_wb_bridge
*I *740:mem_rdata[12] O *D ntt_engine_256
*CAP
1 *739:mem_rdata_i[12] 0.00134646
2 *740:mem_rdata[12] 0.000386161
3 *663:27 0.0291763
4 *663:25 0.0278298
5 *663:23 0.0691205
6 *663:21 0.0691205
7 *663:19 0.00237717
8 *663:17 0.00246169
9 *663:11 0.0154013
10 *663:9 0.015703
11 *739:mem_rdata_i[12] *717:11 8.69606e-05
12 *663:11 *679:11 0.093559
13 *663:11 *714:39 0.0249972
14 *663:11 *715:23 0.0764555
15 *663:11 *732:27 0.00359981
16 *663:19 *714:31 0.00354109
17 *663:19 *715:23 0.00392737
18 *663:19 *720:23 0.00794908
19 *663:23 *740:mem_slot[1] 0.000381881
20 *663:23 *667:15 0.17626
21 *663:23 *672:6 0.0161563
22 *663:23 *715:11 0
23 *663:23 *732:25 3.55814e-05
24 *115:167 *663:27 0
25 *360:31 *739:mem_rdata_i[12] 0.000150547
26 *540:17 *663:11 0.00485311
27 *646:11 *663:11 0.000289577
28 *648:15 *663:11 0.00193604
29 *652:11 *663:23 0.0172434
30 *653:23 *663:19 0.0164105
*RES
1 *740:mem_rdata[12] *663:9 7.31 
2 *663:9 *663:11 151.007 
3 *663:11 *663:17 3.4975 
4 *663:17 *663:19 148.455 
5 *663:19 *663:21 2 
6 *663:21 *663:23 1994.46 
7 *663:23 *663:25 2 
8 *663:25 *663:27 482.415 
9 *663:27 *739:mem_rdata_i[12] 6.71983 
*END

*D_NET *664 0.476261
*CONN
*I *739:mem_rdata_i[13] I *D ntt_wb_bridge
*I *740:mem_rdata[13] O *D ntt_engine_256
*CAP
1 *739:mem_rdata_i[13] 0.00251607
2 *740:mem_rdata[13] 0.00122631
3 *664:31 0.00672045
4 *664:29 0.00420437
5 *664:27 0.00238697
6 *664:25 0.00255399
7 *664:19 0.0218823
8 *664:17 0.0217153
9 *664:15 0.011512
10 *664:13 0.0127383
11 *739:mem_rdata_i[13] *717:11 6.31497e-05
12 *664:13 *718:25 7.65498e-05
13 *664:15 *676:17 0.00816096
14 *664:15 *677:11 0.00027649
15 *664:15 *718:19 0.0089914
16 *664:15 *729:27 0.00325023
17 *664:15 *729:35 0.0214534
18 *664:15 *736:26 0.00171174
19 *664:15 *736:34 0.0287036
20 *664:19 *675:25 0.00261132
21 *664:19 *695:23 0.00345695
22 *664:19 *710:31 0.00757135
23 *664:25 *696:21 4.97019e-05
24 *664:27 *676:27 0.0145222
25 *664:27 *696:15 0.00170302
26 *664:31 *676:31 0.00853182
27 *664:31 *691:27 0.0147575
28 *101:23 *664:27 0.000123032
29 *354:25 *664:19 0.000100383
30 *354:25 *664:25 4.61621e-05
31 *356:29 *664:25 0.000168936
32 *357:27 *664:31 0
33 *358:25 *664:19 0.00206928
34 *359:25 *664:27 0.00230121
35 *360:31 *739:mem_rdata_i[13] 0.000109393
36 *647:11 *664:19 0.108876
37 *650:23 *664:27 0.0173082
38 *650:31 *664:19 0.131695
39 *657:15 *664:27 0.000116825
*RES
1 *740:mem_rdata[13] *664:13 2.7686 
2 *664:13 *664:15 68.2556 
3 *664:15 *664:17 0.5 
4 *664:17 *664:19 200.563 
5 *664:19 *664:25 6.0475 
6 *664:25 *664:27 158.115 
7 *664:27 *664:29 2 
8 *664:29 *664:31 166.875 
9 *664:31 *739:mem_rdata_i[13] 26.1687 
*END

*D_NET *665 0.418848
*CONN
*I *739:mem_rdata_i[14] I *D ntt_wb_bridge
*I *740:mem_rdata[14] O *D ntt_engine_256
*CAP
1 *739:mem_rdata_i[14] 3.66064e-05
2 *740:mem_rdata[14] 0.00168599
3 *665:23 0.0343063
4 *665:21 0.0380612
5 *665:11 0.029666
6 *665:9 0.0275605
7 *665:11 *680:11 0.0290582
8 *665:11 *686:11 0.147666
9 *665:21 *686:11 0.000969287
10 *665:21 *721:11 0.000309305
11 *73:24 *665:11 0.0670912
12 *73:24 *665:21 0.00182799
13 *77:119 *665:23 0
14 *102:27 *665:21 0.00823893
15 *115:203 *665:11 0.0323707
*RES
1 *740:mem_rdata[14] *665:9 3.8288 
2 *665:9 *665:11 1651.48 
3 *665:11 *665:21 16.7089 
4 *665:21 *665:23 86.6223 
5 *665:23 *739:mem_rdata_i[14] 0.0620667 
*END

*D_NET *666 0.203308
*CONN
*I *739:mem_rdata_i[15] I *D ntt_wb_bridge
*I *740:mem_rdata[15] O *D ntt_engine_256
*CAP
1 *739:mem_rdata_i[15] 3.85164e-05
2 *740:mem_rdata[15] 0.000149893
3 *666:13 0.0343815
4 *666:11 0.034343
5 *666:9 0.0103045
6 *666:7 0.0104544
7 *666:9 *679:15 0.00324388
8 *666:9 *714:27 0.00330584
9 *77:119 *666:13 0.00127311
10 *77:145 *666:9 0.00364172
11 *652:11 *666:9 0.0510825
12 *654:11 *666:9 0.0510893
*RES
1 *740:mem_rdata[15] *666:7 0.752067 
2 *666:7 *666:9 93.5357 
3 *666:9 *666:11 0.5 
4 *666:11 *666:13 83.8255 
5 *666:13 *739:mem_rdata_i[15] 0.0620667 
*END

*D_NET *667 0.639492
*CONN
*I *739:mem_rdata_i[16] I *D ntt_wb_bridge
*I *740:mem_rdata[16] O *D ntt_engine_256
*CAP
1 *739:mem_rdata_i[16] 3.66064e-05
2 *740:mem_rdata[16] 0.00053654
3 *667:19 0.032881
4 *667:17 0.0328444
5 *667:15 0.0280967
6 *667:13 0.0280967
7 *667:11 0.0106266
8 *667:9 0.0111631
9 *667:11 *673:11 0.0576458
10 *667:11 *682:11 0.0576458
11 *667:15 *673:15 0.173572
12 *667:15 *715:11 0
13 *114:45 *667:15 0.013573
14 *652:11 *667:15 0.0149695
15 *654:11 *667:15 0.00154497
16 *663:23 *667:15 0.17626
*RES
1 *740:mem_rdata[16] *667:9 9.35 
2 *667:9 *667:11 88.0207 
3 *667:11 *667:13 0.5 
4 *667:13 *667:15 1973.81 
5 *667:15 *667:17 0.5 
6 *667:17 *667:19 83.7381 
7 *667:19 *739:mem_rdata_i[16] 0.0620667 
*END

*D_NET *668 0.250126
*CONN
*I *739:mem_rdata_i[17] I *D ntt_wb_bridge
*I *740:mem_rdata[17] O *D ntt_engine_256
*CAP
1 *739:mem_rdata_i[17] 0.000350301
2 *740:mem_rdata[17] 0.00130857
3 *668:23 0.00287268
4 *668:21 0.00252238
5 *668:19 0.00388926
6 *668:17 0.00398822
7 *668:11 0.0104512
8 *668:9 0.0116608
9 *668:11 *740:mem_we 0.0013635
10 *668:11 *676:19 0.000197207
11 *668:11 *678:11 0.0686127
12 *668:11 *701:23 0.0171572
13 *668:11 *711:15 4.02891e-05
14 *668:11 *713:17 0.00124075
15 *668:11 *728:23 0.0484992
16 *668:19 *678:19 0.0266422
17 *668:19 *711:15 0.00114078
18 *668:23 *678:23 0.00739136
19 *668:23 *687:15 0.0121134
20 *668:23 *712:24 0.0019131
21 *668:23 *719:9 0.00272148
22 *353:21 *668:19 0.00502438
23 *378:23 *668:19 0.00429832
24 *384:19 *668:11 0.00120984
25 *386:21 *668:11 6.04344e-05
26 *386:21 *668:17 0.000102017
27 *656:15 *668:19 0.0133548
*RES
1 *740:mem_rdata[17] *668:9 21.245 
2 *668:9 *668:11 104.044 
3 *668:11 *668:17 4.2625 
4 *668:17 *668:19 241.26 
5 *668:19 *668:21 2 
6 *668:21 *668:23 138.188 
7 *668:23 *739:mem_rdata_i[17] 1.16627 
*END

*D_NET *669 0.472016
*CONN
*I *739:mem_rdata_i[18] I *D ntt_wb_bridge
*I *740:mem_rdata[18] O *D ntt_engine_256
*CAP
1 *739:mem_rdata_i[18] 3.66064e-05
2 *740:mem_rdata[18] 0.00174895
3 *669:19 0.0341682
4 *669:17 0.0352667
5 *669:11 0.0371221
6 *669:9 0.037736
7 *669:11 *674:13 0
8 *669:11 *680:11 0.116729
9 *669:11 *686:11 0.000257066
10 *669:11 *721:11 0.033025
11 *669:17 *721:11 0.001001
12 *669:19 *686:21 1.41448e-05
13 *669:19 *708:15 0
14 *669:19 *738:17 4.63518e-05
15 *73:24 *669:11 0.00225359
16 *75:17 *669:11 0.0295267
17 *76:23 *669:11 0.0330243
18 *102:27 *669:11 0.000630957
19 *102:27 *669:17 0.00458741
20 *113:19 *669:11 0.0295267
21 *113:19 *669:17 0.00111931
22 *659:15 *669:11 0.0723332
23 *659:15 *669:17 0.00186246
*RES
1 *740:mem_rdata[18] *669:9 3.711 
2 *669:9 *669:11 241.411 
3 *669:11 *669:17 8.93347 
4 *669:17 *669:19 86.3892 
5 *669:19 *739:mem_rdata_i[18] 0.0620667 
*END

*D_NET *670 0.0337106
*CONN
*I *739:mem_rdata_i[19] I *D ntt_wb_bridge
*I *740:mem_rdata[19] O *D ntt_engine_256
*CAP
1 *739:mem_rdata_i[19] 0.00618736
2 *740:mem_rdata[19] 0.00108073
3 *670:15 0.013914
4 *670:13 0.00880734
5 *739:mem_rdata_i[19] *708:15 0.0034908
6 la_data_out[88] *670:15 0
7 *101:23 *670:13 0
8 *651:15 *670:13 0.000230362
*RES
1 *740:mem_rdata[19] *670:13 16.1435 
2 *670:13 *670:15 136.275 
3 *670:15 *739:mem_rdata_i[19] 18.1092 
*END

*D_NET *671 0.54428
*CONN
*I *739:mem_rdata_i[1] I *D ntt_wb_bridge
*I *740:mem_rdata[1] O *D ntt_engine_256
*CAP
1 *739:mem_rdata_i[1] 3.22171e-05
2 *740:mem_rdata[1] 0.00347605
3 *671:21 0.0358588
4 *671:19 0.0358266
5 *671:17 0.0463815
6 *671:15 0.0498576
7 *671:15 *679:11 0.0167512
8 *671:15 *715:23 0.0175048
9 *671:15 *720:21 0.00100984
10 *671:15 *721:15 0.000241248
11 *671:15 *732:25 6.55447e-05
12 *671:15 *732:27 0.00353072
13 *671:17 *674:13 0.0197369
14 *671:17 *681:11 0.0126003
15 *671:17 *720:11 0.184437
16 *671:17 *723:11 0.00640925
17 *78:153 *671:17 0.0387224
18 *115:149 *671:21 0.000387171
19 *115:211 *671:17 0.000288455
20 *141:17 *671:17 0.0672923
21 *648:11 *671:17 0
22 *648:15 *671:15 0.00387045
*RES
1 *740:mem_rdata[1] *671:15 34.9259 
2 *671:15 *671:17 2063.56 
3 *671:17 *671:19 0.5 
4 *671:19 *671:21 85.6609 
5 *671:21 *739:mem_rdata_i[1] 0.0620667 
*END

*D_NET *672 0.168446
*CONN
*I *739:mem_rdata_i[20] I *D ntt_wb_bridge
*I *740:mem_rdata[20] O *D ntt_engine_256
*CAP
1 *739:mem_rdata_i[20] 3.66064e-05
2 *740:mem_rdata[20] 0
3 *672:10 0.0328249
4 *672:8 0.0327883
5 *672:6 0.0075098
6 *672:4 0.0075098
7 *672:6 *740:mem_wdata[6] 0.000318057
8 *672:6 *679:15 0.00397576
9 *77:127 *672:10 0
10 *77:143 *672:6 0.0198357
11 *114:25 *672:6 0.0135567
12 *114:35 *672:6 0.000119374
13 *652:11 *672:6 0.0338144
14 *663:23 *672:6 0.0161563
*RES
1 *740:mem_rdata[20] *672:4 0.5 
2 *672:4 *672:6 62.0109 
3 *672:6 *672:8 0.5 
4 *672:8 *672:10 83.5924 
5 *672:10 *739:mem_rdata_i[20] 0.0620667 
*END

*D_NET *673 0.702925
*CONN
*I *739:mem_rdata_i[21] I *D ntt_wb_bridge
*I *740:mem_rdata[21] O *D ntt_engine_256
*CAP
1 *739:mem_rdata_i[21] 3.66064e-05
2 *740:mem_rdata[21] 0.0004775
3 *673:19 0.0329433
4 *673:17 0.0329067
5 *673:15 0.0277482
6 *673:13 0.0277482
7 *673:11 0.0146754
8 *673:9 0.0151529
9 *673:11 *682:11 0.00898887
10 *673:11 *714:31 0.0180583
11 *673:11 *715:23 2.71043e-05
12 *673:11 *721:15 0.0509094
13 *673:15 *679:15 0.170137
14 *673:15 *714:27 2.2876e-05
15 *673:15 *715:11 0
16 *114:45 *673:15 0.013573
17 *646:11 *673:11 0.0338654
18 *652:11 *673:15 0.0161244
19 *653:21 *673:15 3.8718e-05
20 *658:49 *673:11 0.0082747
21 *667:11 *673:11 0.0576458
22 *667:15 *673:15 0.173572
*RES
1 *740:mem_rdata[21] *673:9 8.495 
2 *673:9 *673:11 125.661 
3 *673:11 *673:13 0.5 
4 *673:13 *673:15 1942.69 
5 *673:15 *673:17 0.5 
6 *673:17 *673:19 83.7963 
7 *673:19 *739:mem_rdata_i[21] 0.0620667 
*END

*D_NET *674 0.467778
*CONN
*I *739:mem_rdata_i[22] I *D ntt_wb_bridge
*I *740:mem_rdata[22] O *D ntt_engine_256
*CAP
1 *739:mem_rdata_i[22] 3.66064e-05
2 *740:mem_rdata[22] 0.00143194
3 *674:17 0.0338031
4 *674:15 0.0337665
5 *674:13 0.0494038
6 *674:11 0.0508358
7 *674:13 *681:11 0.0504753
8 *674:13 *694:11 0.0316224
9 *674:13 *720:11 0.0109445
10 *674:13 *723:11 0.141787
11 *674:13 *732:11 0.0353599
12 *78:153 *674:13 0.00623787
13 *141:17 *674:13 0.00233715
14 *659:15 *674:13 0
15 *669:11 *674:13 0
16 *671:17 *674:13 0.0197369
*RES
1 *740:mem_rdata[22] *674:11 3.0194 
2 *674:11 *674:13 258.783 
3 *674:13 *674:15 0.5 
4 *674:15 *674:17 85.4569 
5 *674:17 *739:mem_rdata_i[22] 0.0620667 
*END

*D_NET *675 0.550901
*CONN
*I *739:mem_rdata_i[23] I *D ntt_wb_bridge
*I *740:mem_rdata[23] O *D ntt_engine_256
*CAP
1 *739:mem_rdata_i[23] 0.00225156
2 *740:mem_rdata[23] 0.0012986
3 *675:31 0.00397326
4 *675:29 0.0017217
5 *675:27 0.0618634
6 *675:25 0.0633634
7 *675:15 0.0669278
8 *675:13 0.0667263
9 *739:mem_rdata_i[23] *717:11 7.44413e-05
10 *675:13 *704:45 0.00129632
11 *675:13 *734:41 0.000720263
12 *675:15 *734:35 0.157185
13 *675:25 *704:31 5.37926e-05
14 *675:25 *710:31 0.000677809
15 *675:25 *734:31 0
16 *675:27 *676:19 0.00504447
17 *675:27 *677:23 0.000335654
18 *675:27 *683:15 0.0215891
19 *675:31 *677:27 0.00819633
20 *675:31 *733:37 0.000816027
21 *675:31 *734:19 0.00913677
22 *82:25 *675:15 0
23 *105:19 *675:31 0.000544894
24 *359:25 *675:27 0.000951055
25 *360:31 *739:mem_rdata_i[23] 0.000128798
26 *378:23 *675:27 0
27 *540:17 *675:13 0.00103312
28 *650:31 *675:25 0.000268163
29 *656:15 *675:27 0
30 *661:23 *675:27 0.0720085
31 *662:19 *675:15 0.000103158
32 *662:31 *675:27 0
33 *664:19 *675:25 0.00261132
*RES
1 *740:mem_rdata[23] *675:13 10.8969 
2 *675:13 *675:15 1817.23 
3 *675:15 *675:25 12.8351 
4 *675:25 *675:27 1316.62 
5 *675:27 *675:29 2 
6 *675:29 *675:31 103.89 
7 *675:31 *739:mem_rdata_i[23] 20.9898 
*END

*D_NET *676 0.389072
*CONN
*I *739:mem_rdata_i[24] I *D ntt_wb_bridge
*I *740:mem_rdata[24] O *D ntt_engine_256
*CAP
1 *739:mem_rdata_i[24] 0.00253605
2 *740:mem_rdata[24] 0.0031372
3 *676:31 0.00646726
4 *676:29 0.00393121
5 *676:27 0.00204448
6 *676:25 0.00211602
7 *676:19 0.0226649
8 *676:17 0.0257306
9 *739:mem_rdata_i[24] *706:11 0.000111059
10 *739:mem_rdata_i[24] *716:11 0.000109393
11 *676:17 *677:11 0.00823886
12 *676:17 *683:13 0.000158845
13 *676:17 *691:19 0.00171319
14 *676:17 *709:19 0.00153211
15 *676:19 *677:23 0.00141666
16 *676:19 *678:11 0.00242513
17 *676:19 *683:15 0.116418
18 *676:19 *696:23 0.117537
19 *676:19 *713:17 1.20008e-05
20 *676:27 *696:15 0.0109952
21 *676:31 *691:27 1.07797e-05
22 *101:23 *676:27 0.000166455
23 *352:17 *676:19 0.00323584
24 *357:27 *676:31 0
25 *359:25 *676:19 6.04344e-05
26 *359:25 *676:25 4.66474e-05
27 *359:25 *676:27 0.00251062
28 *362:23 *676:27 0.00208199
29 *384:19 *676:19 0.00381957
30 *386:21 *676:19 9.70043e-06
31 *650:23 *676:19 0.000688222
32 *656:23 *676:19 1.45029e-05
33 *657:15 *676:19 0.00165294
34 *657:15 *676:27 0.00010708
35 *661:15 *676:19 0.00749632
36 *661:23 *676:19 0.0014196
37 *664:15 *676:17 0.00816096
38 *664:27 *676:27 0.0145222
39 *664:31 *676:31 0.00853182
40 *668:11 *676:19 0.000197207
41 *675:27 *676:19 0.00504447
*RES
1 *740:mem_rdata[24] *676:17 18.6941 
2 *676:17 *676:19 204.874 
3 *676:19 *676:25 3.4975 
4 *676:25 *676:27 132.24 
5 *676:27 *676:29 2 
6 *676:29 *676:31 99.81 
7 *676:31 *739:mem_rdata_i[24] 28.5208 
*END

*D_NET *677 0.557144
*CONN
*I *739:mem_rdata_i[25] I *D ntt_wb_bridge
*I *740:mem_rdata[25] O *D ntt_engine_256
*CAP
1 *739:mem_rdata_i[25] 0.00206606
2 *740:mem_rdata[25] 0.00102114
3 *677:27 0.00369398
4 *677:25 0.00162792
5 *677:23 0.00370001
6 *677:21 0.003894
7 *677:15 0.025809
8 *677:13 0.025615
9 *677:11 0.0265699
10 *677:9 0.0275911
11 *739:mem_rdata_i[25] *706:11 6.3332e-05
12 *739:mem_rdata_i[25] *716:11 6.19052e-05
13 *677:11 *683:13 0.0155198
14 *677:11 *688:11 0.00664104
15 *677:11 *691:11 0.0142445
16 *677:11 *691:19 0.00642439
17 *677:11 *702:22 0.0197741
18 *677:11 *709:19 0.000106321
19 *677:11 *718:27 0.0167878
20 *677:11 *736:34 0.0434422
21 *677:21 *687:11 0
22 *677:27 *733:37 0.000511606
23 *677:27 *734:19 2.42236e-05
24 *105:19 *677:27 0.00794648
25 *116:109 *677:15 0.00267155
26 *116:111 *677:11 0.0118852
27 *118:27 *677:11 0.014181
28 *354:27 *677:27 0
29 *359:25 *677:23 0.00251062
30 *650:23 *677:23 0.0204979
31 *650:31 *677:15 0.128332
32 *656:27 *677:11 0.0208539
33 *656:33 *677:9 3.99991e-05
34 *656:35 *677:11 5.79754e-05
35 *657:15 *677:15 0.0160967
36 *661:15 *677:15 0.0215449
37 *661:23 *677:23 0.0230197
38 *662:29 *677:15 0.0138183
39 *662:31 *677:15 0.0100352
40 *662:31 *677:23 0
41 *664:15 *677:11 0.00027649
42 *675:27 *677:23 0.000335654
43 *675:31 *677:27 0.00819633
44 *676:17 *677:11 0.00823886
45 *676:19 *677:23 0.00141666
*RES
1 *740:mem_rdata[25] *677:9 2.3734 
2 *677:9 *677:11 148.187 
3 *677:11 *677:13 0.5 
4 *677:13 *677:15 189.958 
5 *677:15 *677:21 5.5375 
6 *677:21 *677:23 214.35 
7 *677:23 *677:25 2 
8 *677:25 *677:27 93.945 
9 *677:27 *739:mem_rdata_i[25] 22.4047 
*END

*D_NET *678 0.262423
*CONN
*I *739:mem_rdata_i[26] I *D ntt_wb_bridge
*I *740:mem_rdata[26] O *D ntt_engine_256
*CAP
1 *739:mem_rdata_i[26] 7.52931e-05
2 *740:mem_rdata[26] 0.00127401
3 *678:23 0.00166578
4 *678:21 0.00159049
5 *678:19 0.00363656
6 *678:17 0.00380653
7 *678:11 0.0116631
8 *678:9 0.0127672
9 *678:11 *683:15 0.0729946
10 *678:11 *701:23 0.00494222
11 *678:19 *711:15 0.00162855
12 *678:19 *728:15 0.0283485
13 *678:23 *712:24 0.000250388
14 *678:23 *719:9 0.00739136
15 *353:21 *678:19 0.00460531
16 *378:23 *678:19 1.91597e-05
17 *656:15 *678:19 0.000692445
18 *668:11 *678:11 0.0686127
19 *668:19 *678:19 0.0266422
20 *668:23 *678:23 0.00739136
21 *676:19 *678:11 0.00242513
*RES
1 *740:mem_rdata[26] *678:9 20.735 
2 *678:9 *678:11 114.124 
3 *678:11 *678:17 5.0275 
4 *678:17 *678:19 256.785 
5 *678:19 *678:21 2 
6 *678:21 *678:23 85.1475 
7 *678:23 *739:mem_rdata_i[26] 0.664667 
*END

*D_NET *679 0.746287
*CONN
*I *739:mem_rdata_i[27] I *D ntt_wb_bridge
*I *740:mem_rdata[27] O *D ntt_engine_256
*CAP
1 *739:mem_rdata_i[27] 3.66064e-05
2 *740:mem_rdata[27] 0.000281381
3 *679:19 0.0330156
4 *679:17 0.032979
5 *679:15 0.0275377
6 *679:13 0.0275377
7 *679:11 0.0305652
8 *679:9 0.0308466
9 *679:11 *685:21 0.0308463
10 *679:11 *715:23 0.000145317
11 *679:11 *732:25 0.000206749
12 *679:15 *714:27 0.00823849
13 *679:15 *715:11 0.00643383
14 *77:145 *679:15 0.140872
15 *78:183 *679:11 0
16 *114:45 *679:15 0.0188568
17 *540:17 *679:11 0.0421703
18 *646:19 *679:11 0.00983689
19 *654:11 *679:15 0.00738124
20 *658:39 *679:11 0.0108332
21 *663:11 *679:11 0.093559
22 *666:9 *679:15 0.00324388
23 *671:15 *679:11 0.0167512
24 *672:6 *679:15 0.00397576
25 *673:15 *679:15 0.170137
*RES
1 *740:mem_rdata[27] *679:9 5.42 
2 *679:9 *679:11 163.826 
3 *679:11 *679:13 0.5 
4 *679:13 *679:15 1903.94 
5 *679:15 *679:17 0.5 
6 *679:17 *679:19 83.8546 
7 *679:19 *739:mem_rdata_i[27] 0.0620667 
*END

*D_NET *680 0.387241
*CONN
*I *739:mem_rdata_i[28] I *D ntt_wb_bridge
*I *740:mem_rdata[28] O *D ntt_engine_256
*CAP
1 *739:mem_rdata_i[28] 3.66064e-05
2 *740:mem_rdata[28] 0.00149939
3 *680:15 0.0343083
4 *680:13 0.0342717
5 *680:11 0.0408126
6 *680:9 0.042312
7 *680:11 *686:11 0.0259998
8 *73:24 *680:11 0.0215926
9 *102:27 *680:11 0.0406206
10 *665:11 *680:11 0.0290582
11 *669:11 *680:11 0.116729
*RES
1 *740:mem_rdata[28] *680:9 3.483 
2 *680:9 *680:11 212.96 
3 *680:11 *680:13 0.5 
4 *680:13 *680:15 86.3892 
5 *680:15 *739:mem_rdata_i[28] 0.0620667 
*END

*D_NET *681 0.206025
*CONN
*I *739:mem_rdata_i[29] I *D ntt_wb_bridge
*I *740:mem_rdata[29] O *D ntt_engine_256
*CAP
1 *739:mem_rdata_i[29] 3.66064e-05
2 *740:mem_rdata[29] 0.00120356
3 *681:15 0.0339069
4 *681:13 0.0338703
5 *681:11 0.0189566
6 *681:9 0.0201602
7 *681:11 *720:11 0.0112532
8 *78:137 *681:11 0.0071417
9 *141:17 *681:11 0.00991918
10 *659:15 *681:11 0.00650141
11 *671:17 *681:11 0.0126003
12 *674:13 *681:11 0.0504753
*RES
1 *740:mem_rdata[29] *681:9 2.66727 
2 *681:9 *681:11 92.2007 
3 *681:11 *681:13 0.5 
4 *681:13 *681:15 85.5735 
5 *681:15 *739:mem_rdata_i[29] 0.0620667 
*END

*D_NET *682 0.584109
*CONN
*I *739:mem_rdata_i[2] I *D ntt_wb_bridge
*I *740:mem_rdata[2] O *D ntt_engine_256
*CAP
1 *739:mem_rdata_i[2] 0.00347318
2 *740:mem_rdata[2] 0.00055421
3 *682:41 0.0155773
4 *682:35 0.030515
5 *682:33 0.0184109
6 *682:31 0.00113244
7 *682:29 0.00134371
8 *682:23 0.00592987
9 *682:21 0.00580862
10 *682:15 0.0245883
11 *682:13 0.0244983
12 *682:11 0.0306544
13 *682:9 0.0312086
14 *682:11 *721:15 2.21542e-05
15 *682:15 *685:25 0.126835
16 *682:15 *730:19 0.000127273
17 *682:21 *685:47 0.000113026
18 *682:23 *685:47 0.00359524
19 *682:23 *714:27 0
20 *682:23 *724:23 0.00146873
21 *682:29 *685:47 0.000109407
22 *682:29 *715:17 0.000299201
23 *682:31 *690:11 0.00570733
24 *682:31 *738:19 0.00570733
25 *682:35 *690:15 0
26 *78:183 *682:11 0.000254718
27 *114:37 *682:23 0.00596307
28 *140:17 *682:41 0.00369385
29 *646:23 *682:15 0.0777031
30 *646:23 *682:23 0.0214366
31 *653:21 *682:11 0.000235321
32 *658:11 *682:41 0.0114932
33 *658:15 *682:35 0.0522713
34 *658:27 *682:15 0.00649723
35 *658:49 *682:11 0.000246249
36 *667:11 *682:11 0.0576458
37 *673:11 *682:11 0.00898887
*RES
1 *740:mem_rdata[2] *682:9 9.515 
2 *682:9 *682:11 114.182 
3 *682:11 *682:13 0.5 
4 *682:13 *682:15 1496.95 
5 *682:15 *682:21 1.2128 
6 *682:21 *682:23 239.805 
7 *682:23 *682:29 1.50413 
8 *682:29 *682:31 65.895 
9 *682:31 *682:33 0.5 
10 *682:33 *682:35 77.6201 
11 *682:35 *682:41 44.5353 
12 *682:41 *739:mem_rdata_i[2] 7.32513 
*END

*D_NET *683 0.395427
*CONN
*I *739:mem_rdata_i[30] I *D ntt_wb_bridge
*I *740:mem_rdata[30] O *D ntt_engine_256
*CAP
1 *739:mem_rdata_i[30] 0.00165907
2 *740:mem_rdata[30] 0.0060111
3 *683:27 0.00429483
4 *683:25 0.00263576
5 *683:23 0.00574775
6 *683:21 0.00601175
7 *683:15 0.019609
8 *683:13 0.0253561
9 *739:mem_rdata_i[30] *706:11 6.3332e-05
10 *739:mem_rdata_i[30] *716:11 6.19052e-05
11 *683:13 *688:11 0.00462942
12 *683:15 *701:23 0.0181513
13 *683:23 *701:15 0.00298267
14 *683:23 *728:15 0.00312176
15 *739:done_i *683:27 0
16 *94:21 *683:13 0.000547286
17 *116:111 *683:13 0.00308537
18 *118:27 *683:13 0.00336265
19 *282:19 *683:27 0
20 *365:19 *683:27 0.00404773
21 *370:19 *683:27 8.73147e-06
22 *371:19 *683:27 1.23015e-05
23 *375:15 *683:23 0.0069912
24 *384:21 *683:23 2.30292e-05
25 *386:23 *683:23 0.0233493
26 *390:15 *683:23 0.026866
27 *656:15 *683:23 0
28 *656:23 *683:15 0.000117365
29 *661:27 *683:27 0
30 *675:27 *683:15 0.0215891
31 *676:17 *683:13 0.000158845
32 *676:19 *683:15 0.116418
33 *677:11 *683:13 0.0155198
34 *678:11 *683:15 0.0729946
*RES
1 *740:mem_rdata[30] *683:13 31.8218 
2 *683:13 *683:15 172.362 
3 *683:15 *683:21 6.5575 
4 *683:21 *683:23 310.605 
5 *683:23 *683:25 2 
6 *683:25 *683:27 58.245 
7 *683:27 *739:mem_rdata_i[30] 15.2458 
*END

*D_NET *684 0.0736774
*CONN
*I *739:mem_rdata_i[31] I *D ntt_wb_bridge
*I *740:mem_rdata[31] O *D ntt_engine_256
*CAP
1 *739:mem_rdata_i[31] 0.00852587
2 *740:mem_rdata[31] 0.00662536
3 *684:15 0.0123739
4 *684:13 0.0104734
5 *684:13 *740:mem_re 0.00628855
6 *684:13 *740:mem_wdata[11] 0.0142191
7 *684:13 *699:15 0
8 *684:13 *705:21 0.0109623
9 *660:11 *684:13 0.00420896
*RES
1 *740:mem_rdata[31] *684:13 47.8831 
2 *684:13 *684:15 66.405 
3 *684:15 *739:mem_rdata_i[31] 20.7312 
*END

*D_NET *685 0.664416
*CONN
*I *739:mem_rdata_i[3] I *D ntt_wb_bridge
*I *740:mem_rdata[3] O *D ntt_engine_256
*CAP
1 *739:mem_rdata_i[3] 0.00118332
2 *740:mem_rdata[3] 0.000558484
3 *685:53 0.0291342
4 *685:51 0.0279509
5 *685:49 0.0104974
6 *685:47 0.0271987
7 *685:33 0.0192793
8 *685:31 0.00268756
9 *685:25 0.0366403
10 *685:23 0.0365308
11 *685:21 0.0282331
12 *685:19 0.028462
13 *685:13 0.0178091
14 *685:11 0.0181387
15 *739:mem_rdata_i[3] *717:11 3.53624e-05
16 *685:21 *740:mem_slot[1] 0.00063815
17 *685:21 *714:31 0
18 *685:25 *708:27 0.00367258
19 *685:25 *715:19 0
20 *685:25 *730:19 0.0542733
21 *685:33 *714:27 0
22 *685:47 *740:mem_wdata[16] 0
23 *685:47 *700:19 0.00479717
24 *685:47 *715:17 8.61327e-05
25 *685:47 *724:23 0.00677999
26 *685:49 *714:19 0
27 *685:49 *715:11 0.0129763
28 *78:161 *685:25 0
29 *114:37 *685:49 0.00509323
30 *114:45 *685:47 0.00102648
31 *115:219 *685:25 0
32 *115:233 *685:21 0
33 *360:31 *739:mem_rdata_i[3] 6.19052e-05
34 *540:17 *685:21 0.00564498
35 *646:11 *685:13 0.0107939
36 *646:19 *685:21 0.000156318
37 *646:23 *685:33 0.00668334
38 *646:23 *685:47 0.00371
39 *648:15 *685:21 3.0807e-05
40 *654:11 *685:47 0
41 *654:11 *685:49 0.00544308
42 *658:19 *685:49 0.00576691
43 *658:33 *685:31 0
44 *658:35 *685:33 0
45 *658:39 *685:21 0.0741636
46 *658:49 *685:13 0.0167792
47 *679:11 *685:21 0.0308463
48 *682:15 *685:25 0.126835
49 *682:21 *685:47 0.000113026
50 *682:23 *685:47 0.00359524
51 *682:29 *685:47 0.000109407
*RES
1 *740:mem_rdata[3] *685:11 10.31 
2 *685:11 *685:13 63.4904 
3 *685:13 *685:19 5.7925 
4 *685:19 *685:21 746.685 
5 *685:21 *685:23 2 
6 *685:23 *685:25 1418.42 
7 *685:25 *685:31 5.485 
8 *685:31 *685:33 74.9475 
9 *685:33 *685:47 43.2933 
10 *685:47 *685:49 316.177 
11 *685:49 *685:51 2 
12 *685:51 *685:53 485.175 
13 *685:53 *739:mem_rdata_i[3] 5.52757 
*END

*D_NET *686 0.483213
*CONN
*I *739:mem_rdata_i[4] I *D ntt_wb_bridge
*I *740:mem_rdata[4] O *D ntt_engine_256
*CAP
1 *739:mem_rdata_i[4] 3.0307e-05
2 *740:mem_rdata[4] 0.0017271
3 *686:23 0.0340308
4 *686:21 0.036419
5 *686:11 0.0277506
6 *686:9 0.0270593
7 *686:11 *721:11 0.160677
8 *73:24 *686:11 0.00562612
9 *73:24 *686:21 0.000881681
10 *75:17 *686:21 0.00170116
11 *76:23 *686:21 0.00191075
12 *102:27 *686:21 0.00439392
13 *113:19 *686:21 0.00170116
14 *659:15 *686:21 0.00439837
15 *665:11 *686:11 0.147666
16 *665:21 *686:11 0.000969287
17 *669:11 *686:11 0.000257066
18 *669:19 *686:21 1.41448e-05
19 *680:11 *686:11 0.0259998
*RES
1 *740:mem_rdata[4] *686:9 3.85667 
2 *686:9 *686:11 1796.83 
3 *686:11 *686:21 15.8475 
4 *686:21 *686:23 86.2727 
5 *686:23 *739:mem_rdata_i[4] 0.0620667 
*END

*D_NET *687 0.0822795
*CONN
*I *739:mem_rdata_i[5] I *D ntt_wb_bridge
*I *740:mem_rdata[5] O *D ntt_engine_256
*CAP
1 *739:mem_rdata_i[5] 0.000373588
2 *740:mem_rdata[5] 0.00529107
3 *687:15 0.00490632
4 *687:13 0.00453273
5 *687:11 0.00529107
6 *739:mem_rdata_i[5] *712:12 0.00032685
7 *687:15 *697:11 0
8 *687:15 *702:16 0.000110459
9 *687:15 *712:24 0.00246253
10 *687:15 *713:11 0.0107463
11 *687:15 *719:9 0.00286266
12 *356:29 *687:11 0.00838257
13 *358:25 *687:11 0.00152568
14 *650:31 *687:11 0.000901951
15 *657:15 *687:11 0.0210748
16 *662:31 *687:11 0.00137748
17 *668:23 *687:15 0.0121134
18 *677:21 *687:11 0
*RES
1 *740:mem_rdata[5] *687:11 49.5122 
2 *687:11 *687:13 0.5 
3 *687:13 *687:15 215.325 
4 *687:15 *739:mem_rdata_i[5] 1.146 
*END

*D_NET *688 0.526237
*CONN
*I *739:mem_rdata_i[6] I *D ntt_wb_bridge
*I *740:mem_rdata[6] O *D ntt_engine_256
*CAP
1 *739:mem_rdata_i[6] 0.00123917
2 *740:mem_rdata[6] 0.000848108
3 *688:27 0.00593652
4 *688:25 0.00469735
5 *688:23 0.0220022
6 *688:21 0.023087
7 *688:11 0.0320774
8 *688:9 0.0318406
9 *739:mem_rdata_i[6] *712:12 0.000229581
10 *688:9 *737:41 2.98432e-05
11 *688:11 *740:mem_wdata[14] 0.00071577
12 *688:11 *740:mem_wdata[8] 0.00195335
13 *688:11 *689:11 0.0084638
14 *688:11 *691:11 0.00864882
15 *688:11 *701:27 0.0138843
16 *688:11 *726:27 0.000409854
17 *688:11 *726:35 0.0241179
18 *688:21 *726:27 0.00249925
19 *688:23 *702:18 0.149447
20 *688:23 *717:15 0.150703
21 *688:23 *718:15 5.12916e-05
22 *688:27 *739:mem_rdata_i[7] 0.001031
23 *688:27 *716:11 0.0189173
24 *688:27 *717:11 0.000809591
25 *688:27 *718:11 0
26 *739:mem_rdata_i[10] *688:27 0.000224622
27 *94:21 *688:11 0.000404558
28 *94:21 *688:21 0.000528309
29 *118:27 *688:21 0
30 *364:19 *688:27 0.0101689
31 *677:11 *688:11 0.00664104
32 *683:13 *688:11 0.00462942
*RES
1 *740:mem_rdata[6] *688:9 1.9934 
2 *688:9 *688:11 154.131 
3 *688:11 *688:21 29.8387 
4 *688:21 *688:23 223.083 
5 *688:23 *688:25 0.5 
6 *688:25 *688:27 227.055 
7 *688:27 *739:mem_rdata_i[6] 2.83827 
*END

*D_NET *689 0.660334
*CONN
*I *739:mem_rdata_i[7] I *D ntt_wb_bridge
*I *740:mem_rdata[7] O *D ntt_engine_256
*CAP
1 *739:mem_rdata_i[7] 0.0135938
2 *740:mem_rdata[7] 0.00072988
3 *689:23 0.0360273
4 *689:21 0.0224335
5 *689:19 0.0140176
6 *689:17 0.014091
7 *689:11 0.0168498
8 *689:9 0.0175062
9 *739:mem_rdata_i[7] *739:mem_rdata_i[8] 0
10 *739:mem_rdata_i[7] *701:11 0.00346295
11 *739:mem_rdata_i[7] *706:11 0.00313206
12 *739:mem_rdata_i[7] *712:12 0.000229581
13 *739:mem_rdata_i[7] *716:11 0.000699601
14 *739:mem_rdata_i[7] *718:11 0.000126782
15 *739:mem_rdata_i[7] *725:11 0.00332807
16 *739:mem_rdata_i[7] *726:11 0.00372142
17 *739:mem_rdata_i[7] *737:11 0.0177259
18 *689:11 *740:mem_wdata[8] 5.79679e-05
19 *689:11 *691:11 0
20 *689:11 *706:35 0.0293172
21 *689:11 *717:27 0.00411135
22 *689:11 *737:43 0.00297098
23 *689:17 *740:mem_wdata[8] 0.0001131
24 *689:19 *740:mem_wdata[14] 0.000423265
25 *689:19 *706:27 0.000232403
26 *689:19 *706:35 0.00959427
27 *689:19 *716:27 0.0102327
28 *689:19 *717:19 0.0566149
29 *689:19 *737:35 0.0704647
30 *689:23 *691:23 0.000189883
31 *689:23 *709:15 0.149867
32 *689:23 *718:15 0
33 *689:23 *736:22 0.148974
34 *739:mem_rdata_i[11] *739:mem_rdata_i[7] 0
35 *101:19 *739:mem_rdata_i[7] 0
36 *688:11 *689:11 0.0084638
37 *688:27 *739:mem_rdata_i[7] 0.001031
*RES
1 *740:mem_rdata[7] *689:9 1.76033 
2 *689:9 *689:11 79.9697 
3 *689:11 *689:17 1.18367 
4 *689:17 *689:19 788.565 
5 *689:19 *689:21 0.5 
6 *689:21 *689:23 222.471 
7 *689:23 *739:mem_rdata_i[7] 39.4319 
*END

*D_NET *690 0.253207
*CONN
*I *739:mem_rdata_i[8] I *D ntt_wb_bridge
*I *740:mem_rdata[8] O *D ntt_engine_256
*CAP
1 *739:mem_rdata_i[8] 0.017437
2 *740:mem_rdata[8] 0.000855927
3 *690:15 0.0481258
4 *690:13 0.0306888
5 *690:11 0.0160602
6 *690:9 0.0169161
7 *739:mem_rdata_i[8] *708:13 0.00602991
8 *739:mem_rdata_i[8] *710:19 0.00415541
9 *739:mem_rdata_i[8] *733:11 0
10 *739:mem_rdata_i[8] *733:37 0
11 *690:11 *705:23 0.0464428
12 *690:11 *715:19 0.0117484
13 *690:11 *738:19 0.0311046
14 *690:15 *691:23 0
15 *690:15 *699:15 0
16 *690:15 *700:17 0.000262368
17 *690:15 *703:15 0
18 *739:mem_rdata_i[7] *739:mem_rdata_i[8] 0
19 *740:mem_addr[3] *690:9 0
20 *115:219 *690:11 0.00675476
21 *354:27 *739:mem_rdata_i[8] 0.0023747
22 *375:19 *739:mem_rdata_i[8] 0.00255194
23 *378:27 *739:mem_rdata_i[8] 0.00238785
24 *650:19 *739:mem_rdata_i[8] 0.00360292
25 *682:31 *690:11 0.00570733
26 *682:35 *690:15 0
*RES
1 *740:mem_rdata[8] *690:9 2.08333 
2 *690:9 *690:11 774.285 
3 *690:11 *690:13 0.5 
4 *690:13 *690:15 79.8925 
5 *690:15 *739:mem_rdata_i[8] 42.5834 
*END

*D_NET *691 0.655652
*CONN
*I *739:mem_rdata_i[9] I *D ntt_wb_bridge
*I *740:mem_rdata[9] O *D ntt_engine_256
*CAP
1 *739:mem_rdata_i[9] 0.00260328
2 *740:mem_rdata[9] 0.000698706
3 *691:27 0.00668458
4 *691:25 0.0040813
5 *691:23 0.0381401
6 *691:21 0.0381401
7 *691:19 0.0131153
8 *691:17 0.0132228
9 *691:11 0.0425661
10 *691:9 0.0431573
11 *691:11 *702:30 0.00575046
12 *691:11 *737:43 0
13 *691:17 *740:op[0] 1.61302e-05
14 *691:19 *709:19 0.0497055
15 *691:19 *729:27 2.03321e-05
16 *691:19 *736:34 0.0108313
17 *691:23 *695:33 0
18 *691:23 *706:23 0
19 *691:23 *709:15 0.150429
20 *691:23 *712:34 0.0302948
21 *691:23 *716:23 0
22 *691:27 *710:19 0.0175028
23 *116:111 *691:11 0.00957429
24 *118:27 *691:11 0.0291542
25 *357:25 *691:23 0.00632466
26 *357:27 *691:27 0
27 *656:27 *691:19 0.0638861
28 *656:35 *691:11 0.0337638
29 *664:31 *691:27 0.0147575
30 *676:17 *691:19 0.00171319
31 *676:31 *691:27 1.07797e-05
32 *677:11 *691:11 0.0142445
33 *677:11 *691:19 0.00642439
34 *688:11 *691:11 0.00864882
35 *689:11 *691:11 0
36 *689:23 *691:23 0.000189883
37 *690:15 *691:23 0
*RES
1 *740:mem_rdata[9] *691:9 1.99847 
2 *691:9 *691:11 172.649 
3 *691:11 *691:17 1.18367 
4 *691:17 *691:19 714.615 
5 *691:19 *691:21 0.5 
6 *691:21 *691:23 226.987 
7 *691:23 *691:25 0.5 
8 *691:25 *691:27 204.615 
9 *691:27 *739:mem_rdata_i[9] 5.75667 
*END

*D_NET *692 0.100574
*CONN
*I *740:mem_re I *D ntt_engine_256
*I *739:mem_re_o O *D ntt_wb_bridge
*CAP
1 *740:mem_re 0.0016311
2 *739:mem_re_o 0.00888298
3 *692:11 0.0221942
4 *692:9 0.0294461
5 la_data_out[90] *692:11 0.0258424
6 *660:11 *740:mem_re 0.00628855
7 *684:13 *740:mem_re 0.00628855
*RES
1 *739:mem_re_o *692:9 22.4792 
2 *692:9 *692:11 531.015 
3 *692:11 *740:mem_re 21.0707 
*END

*D_NET *693 0.107264
*CONN
*I *740:mem_slot[0] I *D ntt_engine_256
*I *739:mem_slot_o[0] O *D ntt_wb_bridge
*CAP
1 *740:mem_slot[0] 0.00236047
2 *739:mem_slot_o[0] 0.000233096
3 *693:11 0.0215051
4 *693:9 0.0193778
5 *693:9 *736:6 0.000262458
6 *693:11 *696:11 0.0391195
7 *693:11 *736:6 0.00903012
8 *693:11 *736:20 0.00928169
9 *79:24 *693:11 0.000967696
10 *295:29 *693:11 0
11 *352:17 *740:mem_slot[0] 0.00381751
12 *359:25 *740:mem_slot[0] 0.00103911
13 *359:41 *693:11 0
14 *531:21 *693:11 0.000166647
15 *657:15 *740:mem_slot[0] 0.000102406
*RES
1 *739:mem_slot_o[0] *693:9 0.973733 
2 *693:9 *693:11 507.045 
3 *693:11 *740:mem_slot[0] 27.4349 
*END

*D_NET *694 0.43823
*CONN
*I *740:mem_slot[1] I *D ntt_engine_256
*I *739:mem_slot_o[1] O *D ntt_wb_bridge
*CAP
1 *740:mem_slot[1] 0.000741874
2 *739:mem_slot_o[1] 2.1597e-05
3 *694:11 0.0486694
4 *694:9 0.0479275
5 *694:7 0.0330603
6 *694:5 0.0330819
7 *740:mem_slot[1] *732:25 1.92979e-05
8 *694:11 *720:11 0.107921
9 *694:11 *723:11 0.00980407
10 *694:11 *732:11 0.117699
11 *694:11 *732:15 0.00557492
12 *74:31 *694:11 2.53191e-06
13 *77:59 *694:7 0
14 *78:55 *694:7 0.00100212
15 *141:17 *694:11 0
16 *648:15 *740:mem_slot[1] 6.23243e-05
17 *663:23 *740:mem_slot[1] 0.000381881
18 *674:13 *694:11 0.0316224
19 *685:21 *740:mem_slot[1] 0.00063815
*RES
1 *739:mem_slot_o[1] *694:5 0.0620667 
2 *694:5 *694:7 85.4861 
3 *694:7 *694:9 0.5 
4 *694:9 *694:11 2325.83 
5 *694:11 *740:mem_slot[1] 19.6825 
*END

*D_NET *695 0.847565
*CONN
*I *740:mem_target I *D ntt_engine_256
*I *739:mem_target_o O *D ntt_wb_bridge
*CAP
1 *740:mem_target 0.000378387
2 *739:mem_target_o 0.00295954
3 *695:49 0.00698446
4 *695:45 0.00760515
5 *695:35 0.0321194
6 *695:33 0.0332022
7 *695:23 0.052845
8 *695:21 0.0507632
9 *695:19 0.0182642
10 *695:17 0.0212237
11 *695:19 *707:11 0.000133605
12 *695:23 *704:23 0.00020643
13 *695:23 *710:23 0.000339524
14 *695:23 *734:23 0.11408
15 *695:33 *740:mem_wdata[30] 0
16 *695:33 *706:23 0.00854229
17 *695:33 *734:31 0.00958074
18 *695:35 *734:35 0.157227
19 *695:45 *740:mem_wdata[22] 0.000937087
20 *695:45 *733:57 0.000944867
21 *695:45 *734:41 0.000591346
22 *695:49 *740:mem_wdata[22] 0.0241211
23 *695:49 *704:47 0.0327544
24 *79:24 *695:17 0.000206859
25 *360:31 *695:17 0.000201712
26 *362:27 *695:19 0.0457635
27 *364:19 *695:17 8.71187e-05
28 *647:11 *695:23 0.0557455
29 *658:11 *695:19 0.00503725
30 *662:17 *695:45 0.00390473
31 *662:19 *695:35 0.157357
32 *664:19 *695:23 0.00345695
33 *691:23 *695:33 0
*RES
1 *739:mem_target_o *695:17 35.986 
2 *695:17 *695:19 518.01 
3 *695:19 *695:21 2 
4 *695:21 *695:23 1273.5 
5 *695:23 *695:33 20.6058 
6 *695:33 *695:35 1816.21 
7 *695:35 *695:45 9.17447 
8 *695:45 *695:49 49.0159 
9 *695:49 *740:mem_target 6.285 
*END

*D_NET *696 0.376331
*CONN
*I *740:mem_wdata[0] I *D ntt_engine_256
*I *739:mem_wdata_o[0] O *D ntt_wb_bridge
*CAP
1 *740:mem_wdata[0] 0.00111896
2 *739:mem_wdata_o[0] 0.000207747
3 *696:23 0.0201316
4 *696:21 0.0190542
5 *696:15 0.00230843
6 *696:13 0.00226686
7 *696:11 0.00783054
8 *696:9 0.00803829
9 *696:9 *736:6 0.000229581
10 *696:11 *697:11 0.0338967
11 *696:11 *736:6 0.00282159
12 *696:11 *736:20 0.00517891
13 *79:24 *696:11 0.000383938
14 *356:29 *696:21 5.02814e-06
15 *359:41 *696:11 0
16 *362:23 *696:15 0.00519137
17 *657:15 *696:15 0.00304207
18 *657:15 *696:23 0.0576752
19 *661:15 *696:23 0.0345835
20 *662:31 *696:15 0.002962
21 *664:25 *696:21 4.97019e-05
22 *664:27 *696:15 0.00170302
23 *676:19 *696:23 0.117537
24 *676:27 *696:15 0.0109952
25 *693:11 *696:11 0.0391195
*RES
1 *739:mem_wdata_o[0] *696:9 0.973733 
2 *696:9 *696:11 442.402 
3 *696:11 *696:13 2 
4 *696:13 *696:15 125.34 
5 *696:15 *696:21 3.2425 
6 *696:21 *696:23 173.964 
7 *696:23 *740:mem_wdata[0] 18.515 
*END

*D_NET *697 0.288039
*CONN
*I *740:mem_wdata[10] I *D ntt_engine_256
*I *739:mem_wdata_o[10] O *D ntt_wb_bridge
*CAP
1 *740:mem_wdata[10] 0.000672782
2 *739:mem_wdata_o[10] 0.000163407
3 *697:15 0.0136371
4 *697:13 0.0129643
5 *697:11 0.00657298
6 *697:9 0.00673638
7 *697:11 *702:12 0.000874982
8 *697:11 *702:16 0.00437979
9 *697:11 *711:11 0.0264468
10 *697:11 *712:24 6.18579e-05
11 *697:11 *713:11 1.79189e-05
12 *697:11 *719:9 0
13 *697:11 *736:20 0.000473516
14 *697:15 *706:23 0.0337355
15 *697:15 *716:23 0.000101532
16 *697:15 *722:19 0.0551702
17 *697:15 *727:15 0.0890788
18 *359:41 *697:11 0.00305423
19 *687:15 *697:11 0
20 *696:11 *697:11 0.0338967
*RES
1 *739:mem_wdata_o[10] *697:9 0.8876 
2 *697:9 *697:11 388.725 
3 *697:11 *697:13 0.5 
4 *697:13 *697:15 131.837 
5 *697:15 *740:mem_wdata[10] 11.555 
*END

*D_NET *698 0.0946455
*CONN
*I *740:mem_wdata[11] I *D ntt_engine_256
*I *739:mem_wdata_o[11] O *D ntt_wb_bridge
*CAP
1 *740:mem_wdata[11] 0.00564865
2 *739:mem_wdata_o[11] 0.00727719
3 *698:11 0.0271395
4 *698:9 0.0287681
5 *740:mem_wdata[11] *699:15 0
6 *698:9 *724:15 0.011593
7 *684:13 *740:mem_wdata[11] 0.0142191
*RES
1 *739:mem_wdata_o[11] *698:9 23.3532 
2 *698:9 *698:11 385.155 
3 *698:11 *740:mem_wdata[11] 32.1073 
*END

*D_NET *699 0.255064
*CONN
*I *740:mem_wdata[12] I *D ntt_engine_256
*I *739:mem_wdata_o[12] O *D ntt_wb_bridge
*CAP
1 *740:mem_wdata[12] 0.000831332
2 *739:mem_wdata_o[12] 0.00395191
3 *699:19 0.0271216
4 *699:17 0.0262903
5 *699:15 0.0192099
6 *699:13 0.0192099
7 *699:11 0.0241388
8 *699:9 0.0280907
9 *699:15 *700:17 0
10 *699:15 *703:15 0.0481513
11 *699:15 *705:21 0
12 *699:19 *705:23 0.00361887
13 *699:19 *715:19 0.0541777
14 *740:mem_wdata[11] *699:15 0
15 *74:31 *699:19 0
16 *78:129 *699:19 0.000272003
17 *651:15 *699:15 0
18 *660:11 *699:15 0
19 *684:13 *699:15 0
20 *690:15 *699:15 0
*RES
1 *739:mem_wdata_o[12] *699:9 9.34007 
2 *699:9 *699:11 64.5519 
3 *699:11 *699:13 0.5 
4 *699:13 *699:15 76.3382 
5 *699:15 *699:17 0.5 
6 *699:17 *699:19 701.865 
7 *699:19 *740:mem_wdata[12] 2.08587 
*END

*D_NET *700 0.18048
*CONN
*I *740:mem_wdata[13] I *D ntt_engine_256
*I *739:mem_wdata_o[13] O *D ntt_wb_bridge
*CAP
1 *740:mem_wdata[13] 0.000541126
2 *739:mem_wdata_o[13] 2.35071e-05
3 *700:19 0.00554518
4 *700:17 0.00558267
5 *700:11 0.023086
6 *700:9 0.0225074
7 *700:7 0.0330142
8 *700:5 0.0330377
9 *700:17 *703:15 0.000179643
10 *700:19 *714:19 0.00644613
11 *700:19 *730:19 0.00374919
12 *77:87 *700:7 0.00273269
13 *114:25 *700:11 0.00375885
14 *646:23 *700:19 0.0121247
15 *646:41 *700:11 0.00225053
16 *658:27 *700:19 0.0208412
17 *685:47 *700:19 0.00479717
18 *690:15 *700:17 0.000262368
19 *699:15 *700:17 0
*RES
1 *739:mem_wdata_o[13] *700:5 0.0620667 
2 *700:5 *700:7 83.0097 
3 *700:7 *700:9 0.5 
4 *700:9 *700:11 64.0351 
5 *700:11 *700:17 2.58207 
6 *700:17 *700:19 305.595 
7 *700:19 *740:mem_wdata[13] 1.56147 
*END

*D_NET *701 0.408834
*CONN
*I *740:mem_wdata[14] I *D ntt_engine_256
*I *739:mem_wdata_o[14] O *D ntt_wb_bridge
*CAP
1 *740:mem_wdata[14] 0.00112871
2 *739:mem_wdata_o[14] 0.000851397
3 *701:27 0.00909134
4 *701:25 0.00796263
5 *701:23 0.0129239
6 *701:21 0.0131414
7 *701:15 0.0307487
8 *701:13 0.0305311
9 *701:11 0.00551293
10 *701:9 0.00636433
11 *740:mem_wdata[14] *706:27 0.000473292
12 *740:mem_wdata[14] *716:27 0.00190392
13 *740:mem_wdata[14] *717:19 0.000423265
14 *740:mem_wdata[14] *726:35 1.86715e-05
15 *740:mem_wdata[14] *737:35 0.000481111
16 *701:11 *706:11 0.0284976
17 *701:11 *718:11 8.78227e-05
18 *701:11 *725:11 8.08645e-05
19 *701:11 *726:11 0.0308118
20 *701:11 *735:11 0.00157842
21 *701:11 *737:11 0.00118565
22 *701:15 *725:23 0.00394416
23 *701:15 *729:15 0
24 *701:21 *740:mem_we 5.06138e-05
25 *701:23 *740:mem_we 6.32125e-05
26 *701:27 *706:27 0.00596005
27 *701:27 *716:27 0.0160811
28 *701:27 *717:19 0.00666448
29 *701:27 *725:27 0.000397853
30 *701:27 *726:27 0.00533958
31 *739:mem_rdata_i[7] *701:11 0.00346295
32 *94:21 *701:27 0.00483206
33 *342:39 *701:23 0.00150609
34 *350:27 *701:15 0.0145969
35 *361:23 *701:15 0.00635341
36 *364:15 *701:15 0.00813892
37 *390:15 *701:15 0.00165438
38 *394:15 *701:15 0.0226992
39 *656:15 *701:15 0
40 *656:15 *701:23 0.000996368
41 *656:23 *701:23 0.0640366
42 *668:11 *701:23 0.0171572
43 *678:11 *701:23 0.00494222
44 *683:15 *701:23 0.0181513
45 *683:23 *701:15 0.00298267
46 *688:11 *740:mem_wdata[14] 0.00071577
47 *688:11 *701:27 0.0138843
48 *689:19 *740:mem_wdata[14] 0.000423265
*RES
1 *739:mem_wdata_o[14] *701:9 2.26067 
2 *701:9 *701:11 352.388 
3 *701:11 *701:13 2 
4 *701:13 *701:15 716.325 
5 *701:15 *701:21 5.7925 
6 *701:21 *701:23 101.801 
7 *701:23 *701:25 0.5 
8 *701:25 *701:27 52.7516 
9 *701:27 *740:mem_wdata[14] 5.02327 
*END

*D_NET *702 0.673132
*CONN
*I *740:mem_wdata[15] I *D ntt_engine_256
*I *739:mem_wdata_o[15] O *D ntt_wb_bridge
*CAP
1 *740:mem_wdata[15] 0.00106095
2 *739:mem_wdata_o[15] 0.00400869
3 *702:30 0.0201401
4 *702:28 0.0192539
5 *702:22 0.0176962
6 *702:20 0.0175214
7 *702:18 0.0491883
8 *702:16 0.0556892
9 *702:12 0.0105097
10 *702:12 *709:9 0.000215324
11 *702:12 *711:11 0.000708018
12 *702:12 *712:12 0.00532051
13 *702:12 *713:11 0.000227963
14 *702:12 *736:6 0.00870726
15 *702:12 *736:20 0.00150475
16 *702:16 *711:11 0.004887
17 *702:16 *712:12 0.0026292
18 *702:16 *712:24 0.0151247
19 *702:16 *713:11 0.000416667
20 *702:16 *736:20 0.0225397
21 *702:18 *718:15 0.000138711
22 *702:28 *740:mem_wdata[2] 0
23 *702:30 *709:27 0.0208768
24 *116:109 *702:18 0.000699837
25 *116:111 *702:22 0.0915654
26 *118:27 *702:22 7.77713e-05
27 *359:41 *702:12 0.00183386
28 *656:27 *702:22 0.0769838
29 *656:35 *702:30 0.04327
30 *677:11 *702:22 0.0197741
31 *687:15 *702:16 0.000110459
32 *688:23 *702:18 0.149447
33 *691:11 *702:30 0.00575046
34 *697:11 *702:12 0.000874982
35 *697:11 *702:16 0.00437979
*RES
1 *739:mem_wdata_o[15] *702:12 21.1061 
2 *702:12 *702:16 43.1259 
3 *702:16 *702:18 221.48 
4 *702:18 *702:20 0.5 
5 *702:20 *702:22 1025.71 
6 *702:22 *702:28 1.35847 
7 *702:28 *702:30 105.293 
8 *702:30 *740:mem_wdata[15] 2.6926 
*END

*D_NET *703 0.159569
*CONN
*I *740:mem_wdata[16] I *D ntt_engine_256
*I *739:mem_wdata_o[16] O *D ntt_wb_bridge
*CAP
1 *740:mem_wdata[16] 0.00457125
2 *739:mem_wdata_o[16] 0.00550819
3 *703:15 0.0218526
4 *703:13 0.0172814
5 *703:11 0.0231926
6 *703:9 0.0287008
7 *740:mem_wdata[16] *724:23 0.00644892
8 la_data_out[86] *703:11 0.00368222
9 *685:47 *740:mem_wdata[16] 0
10 *690:15 *703:15 0
11 *699:15 *703:15 0.0481513
12 *700:17 *703:15 0.000179643
*RES
1 *739:mem_wdata_o[16] *703:9 13.6518 
2 *703:9 *703:11 60.5036 
3 *703:11 *703:13 0.5 
4 *703:13 *703:15 71.4729 
5 *703:15 *740:mem_wdata[16] 14.0429 
*END

*D_NET *704 0.871599
*CONN
*I *740:mem_wdata[17] I *D ntt_engine_256
*I *739:mem_wdata_o[17] O *D ntt_wb_bridge
*CAP
1 *740:mem_wdata[17] 0.000412833
2 *739:mem_wdata_o[17] 0.00264357
3 *704:47 0.00827323
4 *704:45 0.00841316
5 *704:35 0.0434793
6 *704:33 0.0429266
7 *704:31 0.0146405
8 *704:29 0.0146994
9 *704:23 0.0102965
10 *704:21 0.0102376
11 *704:19 0.00644506
12 *704:17 0.00908863
13 *704:17 *705:9 0
14 *704:19 *707:11 0
15 *704:23 *706:15 0.0549081
16 *704:23 *710:23 0.0651235
17 *704:23 *716:15 4.21973e-05
18 *704:31 *710:23 0.00459853
19 *704:31 *710:31 0.060062
20 *704:31 *719:13 0.0766502
21 *704:31 *734:23 0.00351661
22 *704:31 *734:31 0.00503028
23 *704:35 *716:27 0.0129016
24 *704:35 *717:27 0.0144442
25 *704:35 *733:43 0.161941
26 *704:35 *737:35 0.0849714
27 *704:35 *737:43 0.00722764
28 *704:45 *734:41 0.00261382
29 *704:47 *734:43 0.0411151
30 la_data_out[83] *704:19 0.0164289
31 *81:19 *704:35 0.000185636
32 *116:119 *704:35 0
33 *353:23 *704:19 0.0296257
34 *357:27 *704:19 9.94267e-05
35 *358:27 *704:19 0.000334594
36 *360:31 *704:17 0.000109393
37 *364:19 *704:17 4.64544e-05
38 *540:17 *704:45 0.00077505
39 *647:11 *704:31 0.00793336
40 *649:9 *704:29 2.67006e-05
41 *649:11 *704:23 0.0149167
42 *649:11 *704:31 0.000103154
43 *675:13 *704:45 0.00129632
44 *675:25 *704:31 5.37926e-05
45 *695:23 *704:23 0.00020643
46 *695:49 *704:47 0.0327544
*RES
1 *739:mem_wdata_o[17] *704:17 30.3948 
2 *704:17 *704:19 342.825 
3 *704:19 *704:21 2 
4 *704:21 *704:23 593.85 
5 *704:23 *704:29 3.4975 
6 *704:29 *704:31 126.477 
7 *704:31 *704:33 0.5 
8 *704:33 *704:35 1815.7 
9 *704:35 *704:45 7.2136 
10 *704:45 *704:47 60.9267 
11 *704:47 *740:mem_wdata[17] 7.76 
*END

*D_NET *705 0.246193
*CONN
*I *740:mem_wdata[18] I *D ntt_engine_256
*I *739:mem_wdata_o[18] O *D ntt_wb_bridge
*CAP
1 *740:mem_wdata[18] 0.0010451
2 *739:mem_wdata_o[18] 0.0136661
3 *705:23 0.0106681
4 *705:21 0.0194559
5 *705:11 0.0313437
6 *705:9 0.0351769
7 *705:23 *715:19 0.0402618
8 *705:23 *738:19 0.000271386
9 *78:129 *705:23 0.000534368
10 *115:113 *705:9 0.000374457
11 *282:23 *705:9 0.00906567
12 *651:15 *705:21 0.00358007
13 *652:11 *740:mem_wdata[18] 0.000229581
14 *660:11 *705:21 0.0194959
15 *684:13 *705:21 0.0109623
16 *690:11 *705:23 0.0464428
17 *699:15 *705:21 0
18 *699:19 *705:23 0.00361887
19 *704:17 *705:9 0
*RES
1 *739:mem_wdata_o[18] *705:9 40.8041 
2 *705:9 *705:11 57.6612 
3 *705:11 *705:21 46.0059 
4 *705:21 *705:23 544.275 
5 *705:23 *740:mem_wdata[18] 2.31387 
*END

*D_NET *706 0.654998
*CONN
*I *740:mem_wdata[19] I *D ntt_engine_256
*I *739:mem_wdata_o[19] O *D ntt_wb_bridge
*CAP
1 *740:mem_wdata[19] 0.000632588
2 *739:mem_wdata_o[19] 0.000873219
3 *706:35 0.0122373
4 *706:33 0.0116874
5 *706:27 0.00993647
6 *706:25 0.00985376
7 *706:23 0.0154223
8 *706:21 0.0156074
9 *706:15 0.0101743
10 *706:13 0.00998917
11 *706:11 0.00620506
12 *706:9 0.00707828
13 *706:11 *716:11 0.0130054
14 *706:11 *718:11 0
15 *706:11 *735:11 0.00650386
16 *706:11 *737:11 0.00101152
17 *706:15 *716:15 0.0385704
18 *706:23 *740:mem_wdata[9] 0.00358653
19 *706:23 *716:23 0.0936597
20 *706:23 *727:15 0.0127085
21 *706:23 *734:31 0.0149599
22 *706:27 *717:19 0.0418364
23 *706:27 *726:27 0.0287926
24 *706:27 *726:35 0.00319105
25 *706:27 *737:35 0.000167951
26 *706:35 *740:mem_wdata[8] 0.00106795
27 *706:35 *716:27 0.014907
28 *706:35 *717:27 0.0432172
29 *706:35 *726:35 0.0273626
30 *706:35 *737:35 0.0143168
31 *739:mem_rdata_i[24] *706:11 0.000111059
32 *739:mem_rdata_i[25] *706:11 6.3332e-05
33 *739:mem_rdata_i[30] *706:11 6.3332e-05
34 *739:mem_rdata_i[7] *706:11 0.00313206
35 *740:mem_wdata[14] *706:27 0.000473292
36 *118:27 *706:27 0
37 *649:11 *706:15 0.011805
38 *689:11 *706:35 0.0293172
39 *689:19 *706:27 0.000232403
40 *689:19 *706:35 0.00959427
41 *691:23 *706:23 0
42 *695:33 *706:23 0.00854229
43 *697:15 *706:23 0.0337355
44 *701:11 *706:11 0.0284976
45 *701:27 *706:27 0.00596005
46 *704:23 *706:15 0.0549081
*RES
1 *739:mem_wdata_o[19] *706:9 2.31893 
2 *706:9 *706:11 333.008 
3 *706:11 *706:13 2 
4 *706:13 *706:15 496.56 
5 *706:15 *706:21 5.2825 
6 *706:21 *706:23 138.946 
7 *706:23 *706:25 0.5 
8 *706:25 *706:27 477.465 
9 *706:27 *706:33 1.1254 
10 *706:33 *706:35 106.671 
11 *706:35 *740:mem_wdata[19] 1.55767 
*END

*D_NET *707 0.0636928
*CONN
*I *740:mem_wdata[1] I *D ntt_engine_256
*I *739:mem_wdata_o[1] O *D ntt_wb_bridge
*CAP
1 *740:mem_wdata[1] 1.23933e-05
2 *739:mem_wdata_o[1] 0.00300063
3 *707:11 0.0174947
4 *707:9 0.020483
5 io_out[1] *707:9 0
6 la_data_out[83] *707:11 0
7 *362:27 *707:11 0.0225685
8 *695:19 *707:11 0.000133605
9 *704:19 *707:11 0
*RES
1 *739:mem_wdata_o[1] *707:9 7.0968 
2 *707:9 *707:11 455.025 
3 *707:11 *740:mem_wdata[1] 0.225 
*END

*D_NET *708 0.355226
*CONN
*I *740:mem_wdata[20] I *D ntt_engine_256
*I *739:mem_wdata_o[20] O *D ntt_wb_bridge
*CAP
1 *740:mem_wdata[20] 0.000854811
2 *739:mem_wdata_o[20] 0.013338
3 *708:27 0.020706
4 *708:25 0.0275825
5 *708:15 0.0372703
6 *708:13 0.042877
7 *708:13 *733:11 0
8 *708:25 *724:23 0.012722
9 *708:27 *730:19 0.0887615
10 *708:27 *738:19 0.0748436
11 *739:mem_rdata_i[19] *708:15 0.0034908
12 *739:mem_rdata_i[8] *708:13 0.00602991
13 *77:127 *708:15 0
14 *115:219 *708:27 0.0116028
15 *354:27 *708:13 0.00367695
16 *375:19 *708:13 0.00367695
17 *378:27 *708:13 0.00412005
18 *669:19 *708:15 0
19 *685:25 *708:27 0.00367258
*RES
1 *739:mem_wdata_o[20] *708:13 37.8157 
2 *708:13 *708:15 79.6303 
3 *708:15 *708:25 25.0359 
4 *708:25 *708:27 1099.16 
5 *708:27 *740:mem_wdata[20] 2.0808 
*END

*D_NET *709 0.66822
*CONN
*I *740:mem_wdata[21] I *D ntt_engine_256
*I *739:mem_wdata_o[21] O *D ntt_wb_bridge
*CAP
1 *740:mem_wdata[21] 0.0011095
2 *739:mem_wdata_o[21] 0.000715715
3 *709:27 0.0488075
4 *709:25 0.0479088
5 *709:19 0.0113674
6 *709:17 0.0111567
7 *709:15 0.0223173
8 *709:13 0.0223173
9 *709:11 0.0124422
10 *709:9 0.0131579
11 *709:9 *710:17 0
12 *709:11 *718:11 0
13 *709:11 *722:15 4.73268e-05
14 *709:11 *727:11 0.0274719
15 *709:11 *731:11 0
16 *709:11 *737:21 0
17 *709:15 *736:22 0.000319711
18 *709:19 *718:19 0.0349526
19 *709:19 *729:27 0.000237126
20 *709:19 *736:34 0.00967885
21 *709:25 *740:slot_c[0] 5.2007e-06
22 *709:27 *718:27 0.0169245
23 *709:27 *729:35 0.0144196
24 *656:35 *709:27 0.000130989
25 *676:17 *709:19 0.00153211
26 *677:11 *709:19 0.000106321
27 *689:23 *709:15 0.149867
28 *691:19 *709:19 0.0497055
29 *691:23 *709:15 0.150429
30 *702:12 *709:9 0.000215324
31 *702:30 *709:27 0.0208768
*RES
1 *739:mem_wdata_o[21] *709:9 2.0504 
2 *709:9 *709:11 324.975 
3 *709:11 *709:13 0.5 
4 *709:13 *709:15 222.908 
5 *709:15 *709:17 0.5 
6 *709:17 *709:19 556.005 
7 *709:19 *709:25 1.41673 
8 *709:25 *709:27 146.206 
9 *709:27 *740:mem_wdata[21] 2.7534 
*END

*D_NET *710 0.735388
*CONN
*I *740:mem_wdata[22] I *D ntt_engine_256
*I *739:mem_wdata_o[22] O *D ntt_wb_bridge
*CAP
1 *740:mem_wdata[22] 0.00625886
2 *739:mem_wdata_o[22] 0.00239943
3 *710:35 0.042183
4 *710:33 0.0359242
5 *710:31 0.0125194
6 *710:29 0.0125682
7 *710:23 0.0158828
8 *710:21 0.0158339
9 *710:19 0.00714983
10 *710:17 0.00954926
11 *740:mem_wdata[22] *733:57 0.0165987
12 *740:mem_wdata[22] *734:41 0.00256105
13 *740:mem_wdata[22] *734:43 1.47935e-05
14 *710:23 *734:23 0.0888998
15 *739:mem_rdata_i[8] *710:19 0.00415541
16 *81:19 *710:35 0.0700602
17 *119:57 *710:35 0.157376
18 *354:27 *710:19 0
19 *360:31 *710:17 8.40658e-05
20 *364:19 *710:17 3.3481e-05
21 *647:11 *710:23 0.0126022
22 *647:11 *710:31 0.0145312
23 *650:19 *710:19 0.0272677
24 *664:19 *710:31 0.00757135
25 *675:25 *710:31 0.000677809
26 *691:27 *710:19 0.0175028
27 *695:23 *710:23 0.000339524
28 *695:45 *740:mem_wdata[22] 0.000937087
29 *695:49 *740:mem_wdata[22] 0.0241211
30 *704:23 *710:23 0.0651235
31 *704:31 *710:23 0.00459853
32 *704:31 *710:31 0.060062
33 *709:9 *710:17 0
*RES
1 *739:mem_wdata_o[22] *710:17 25.3098 
2 *710:17 *710:19 312.225 
3 *710:19 *710:21 2 
4 *710:21 *710:23 809.13 
5 *710:23 *710:29 3.2425 
6 *710:29 *710:31 89.0112 
7 *710:31 *710:33 0.5 
8 *710:33 *710:35 1817.23 
9 *710:35 *740:mem_wdata[22] 48.0861 
*END

*D_NET *711 0.17474
*CONN
*I *740:mem_wdata[23] I *D ntt_engine_256
*I *739:mem_wdata_o[23] O *D ntt_wb_bridge
*CAP
1 *740:mem_wdata[23] 0.00142808
2 *739:mem_wdata_o[23] 0.000161799
3 *711:15 0.0109482
4 *711:13 0.00952014
5 *711:11 0.00451521
6 *711:9 0.00467701
7 *711:11 *713:11 0.0254462
8 *711:11 *736:20 0.00024374
9 *711:15 *713:17 0.029483
10 *711:15 *725:23 0.00109806
11 *711:15 *728:23 0.00987181
12 *353:21 *711:15 0.0218459
13 *359:41 *711:11 0.000577613
14 *364:15 *711:15 0.00172011
15 *375:15 *711:15 0.000481133
16 *378:21 *711:15 0.00624344
17 *378:23 *711:15 0.000887267
18 *656:15 *711:15 0.0107403
19 *668:11 *711:15 4.02891e-05
20 *668:19 *711:15 0.00114078
21 *678:19 *711:15 0.00162855
22 *697:11 *711:11 0.0264468
23 *702:12 *711:11 0.000708018
24 *702:16 *711:11 0.004887
*RES
1 *739:mem_wdata_o[23] *711:9 0.8876 
2 *711:9 *711:11 297.945 
3 *711:11 *711:13 0.5 
4 *711:13 *711:15 69.084 
5 *711:15 *740:mem_wdata[23] 22.775 
*END

*D_NET *712 0.369873
*CONN
*I *740:mem_wdata[24] I *D ntt_engine_256
*I *739:mem_wdata_o[24] O *D ntt_wb_bridge
*CAP
1 *740:mem_wdata[24] 0.00058026
2 *739:mem_wdata_o[24] 0.0069701
3 *712:34 0.0343937
4 *712:32 0.0339831
5 *712:26 0.00496082
6 *712:24 0.0139546
7 *712:12 0.0161336
8 *712:12 *713:11 0.000651466
9 *712:12 *714:13 0.000229581
10 *712:12 *716:9 0.000223073
11 *712:12 *719:9 0.00192568
12 *712:24 *713:11 0.00287873
13 *712:24 *719:9 0.000419765
14 *712:26 *716:15 0.0043004
15 *712:26 *719:13 0.00277167
16 *712:26 *733:39 0
17 *712:34 *716:23 0.110064
18 *712:34 *722:19 0.0146805
19 *712:34 *733:39 0.0578673
20 *739:mem_rdata_i[10] *712:12 0.000229581
21 *739:mem_rdata_i[5] *712:12 0.00032685
22 *739:mem_rdata_i[6] *712:12 0.000229581
23 *739:mem_rdata_i[7] *712:12 0.000229581
24 *357:25 *712:34 0.00353175
25 *540:13 *740:mem_wdata[24] 0
26 *647:11 *712:24 0.000185699
27 *649:11 *712:24 9.49421e-05
28 *668:23 *712:24 0.0019131
29 *678:23 *712:24 0.000250388
30 *687:15 *712:24 0.00246253
31 *691:23 *712:34 0.0302948
32 *697:11 *712:24 6.18579e-05
33 *702:12 *712:12 0.00532051
34 *702:16 *712:12 0.0026292
35 *702:16 *712:24 0.0151247
*RES
1 *739:mem_wdata_o[24] *712:12 24.0397 
2 *712:12 *712:24 33.637 
3 *712:24 *712:26 113.955 
4 *712:26 *712:32 5.0275 
5 *712:32 *712:34 200.534 
6 *712:34 *740:mem_wdata[24] 10.025 
*END

*D_NET *713 0.125585
*CONN
*I *740:mem_wdata[25] I *D ntt_engine_256
*I *739:mem_wdata_o[25] O *D ntt_wb_bridge
*CAP
1 *740:mem_wdata[25] 0.00137916
2 *739:mem_wdata_o[25] 0.000111594
3 *713:17 0.00603785
4 *713:11 0.0104058
5 *713:9 0.0058587
6 *740:mem_wdata[25] *728:21 2.04314e-05
7 *713:11 *719:9 0
8 *713:11 *735:27 0.000295692
9 *352:17 *713:17 0.0218483
10 *353:21 *713:17 1.57264e-05
11 *359:41 *713:11 0.00302574
12 *386:21 *713:17 0.0054647
13 *668:11 *713:17 0.00124075
14 *676:19 *713:17 1.20008e-05
15 *687:15 *713:11 0.0107463
16 *697:11 *713:11 1.79189e-05
17 *702:12 *713:11 0.000227963
18 *702:16 *713:11 0.000416667
19 *711:11 *713:11 0.0254462
20 *711:15 *713:17 0.029483
21 *712:12 *713:11 0.000651466
22 *712:24 *713:11 0.00287873
*RES
1 *739:mem_wdata_o[25] *713:9 0.715333 
2 *713:9 *713:11 287.235 
3 *713:11 *713:17 44.8545 
4 *713:17 *740:mem_wdata[25] 21.765 
*END

*D_NET *714 0.711305
*CONN
*I *740:mem_wdata[26] I *D ntt_engine_256
*I *739:mem_wdata_o[26] O *D ntt_wb_bridge
*CAP
1 *740:mem_wdata[26] 0.000413566
2 *739:mem_wdata_o[26] 0.00130482
3 *714:39 0.0109392
4 *714:37 0.010608
5 *714:31 0.0426787
6 *714:29 0.0425964
7 *714:27 0.0308259
8 *714:25 0.0309981
9 *714:19 0.0131968
10 *714:17 0.0130246
11 *714:15 0.028051
12 *714:13 0.0293559
13 *714:13 *715:7 0
14 *714:19 *715:11 0
15 *714:19 *724:23 0.00787882
16 *714:19 *730:19 0.0113118
17 *714:27 *715:11 0.000111702
18 *714:27 *720:21 5.99011e-05
19 *714:31 *720:23 0.00486012
20 *714:31 *732:27 0
21 *77:145 *714:27 0.140875
22 *114:37 *714:19 0
23 *114:37 *714:27 0
24 *114:45 *714:27 0.0254825
25 *115:233 *714:31 0.000531642
26 *360:31 *714:13 0.000178288
27 *364:19 *714:13 7.62203e-05
28 *540:17 *714:39 0.0107867
29 *646:11 *714:39 0.0420972
30 *646:19 *714:31 0
31 *646:23 *714:19 0.00462578
32 *648:15 *714:31 0.00106732
33 *653:21 *714:27 7.90693e-05
34 *653:23 *714:31 0.00275859
35 *654:11 *714:27 0.00806061
36 *658:25 *714:25 0.000267944
37 *658:35 *714:27 0.127082
38 *658:39 *714:31 0
39 *658:49 *714:31 0.00428097
40 *663:11 *714:39 0.0249972
41 *663:19 *714:31 0.00354109
42 *666:9 *714:27 0.00330584
43 *673:11 *714:31 0.0180583
44 *673:15 *714:27 2.2876e-05
45 *679:15 *714:27 0.00823849
46 *682:23 *714:27 0
47 *685:21 *714:31 0
48 *685:33 *714:27 0
49 *685:49 *714:19 0
50 *700:19 *714:19 0.00644613
51 *712:12 *714:13 0.000229581
*RES
1 *739:mem_wdata_o[26] *714:13 7.1471 
2 *714:13 *714:15 487.245 
3 *714:15 *714:17 2 
4 *714:17 *714:19 367.815 
5 *714:19 *714:25 7.21 
6 *714:25 *714:27 1736.4 
7 *714:27 *714:29 2 
8 *714:29 *714:31 825.345 
9 *714:31 *714:37 3.7525 
10 *714:37 *714:39 74.9107 
11 *714:39 *740:mem_wdata[26] 7.82 
*END

*D_NET *715 0.633953
*CONN
*I *740:mem_wdata[27] I *D ntt_engine_256
*I *739:mem_wdata_o[27] O *D ntt_wb_bridge
*CAP
1 *740:mem_wdata[27] 0.000350517
2 *739:mem_wdata_o[27] 3.3301e-05
3 *715:23 0.0145789
4 *715:21 0.0142284
5 *715:19 0.0564459
6 *715:17 0.0569134
7 *715:11 0.0121843
8 *715:9 0.0117169
9 *715:7 0.0348922
10 *715:5 0.0349255
11 *715:23 *721:15 0.051697
12 *715:23 *732:27 0.00200057
13 *74:31 *715:19 0
14 *78:161 *715:19 0.0427251
15 *114:37 *715:11 3.20938e-05
16 *115:129 *715:7 0.000476113
17 *115:219 *715:19 0.00550361
18 *646:11 *715:23 0.0424729
19 *646:19 *715:23 0.0018282
20 *648:15 *715:23 0.00182525
21 *653:23 *715:23 0.00537434
22 *654:11 *715:11 0.0103558
23 *658:19 *715:11 0.00577894
24 *658:39 *715:23 0.00345832
25 *663:11 *715:23 0.0764555
26 *663:19 *715:23 0.00392737
27 *663:23 *715:11 0
28 *667:15 *715:11 0
29 *671:15 *715:23 0.0175048
30 *673:11 *715:23 2.71043e-05
31 *673:15 *715:11 0
32 *679:11 *715:23 0.000145317
33 *679:15 *715:11 0.00643383
34 *682:29 *715:17 0.000299201
35 *685:25 *715:19 0
36 *685:47 *715:17 8.61327e-05
37 *685:49 *715:11 0.0129763
38 *690:11 *715:19 0.0117484
39 *699:19 *715:19 0.0541777
40 *705:23 *715:19 0.0402618
41 *714:13 *715:7 0
42 *714:19 *715:11 0
43 *714:27 *715:11 0.000111702
*RES
1 *739:mem_wdata_o[27] *715:5 0.0620667 
2 *715:5 *715:7 84.0294 
3 *715:7 *715:9 0.5 
4 *715:9 *715:11 366.795 
5 *715:11 *715:17 2.02853 
6 *715:17 *715:19 1734.1 
7 *715:19 *715:21 0.5 
8 *715:21 *715:23 139.703 
9 *715:23 *740:mem_wdata[27] 6.44 
*END

*D_NET *716 0.547579
*CONN
*I *740:mem_wdata[28] I *D ntt_engine_256
*I *739:mem_wdata_o[28] O *D ntt_wb_bridge
*CAP
1 *740:mem_wdata[28] 0.000430752
2 *739:mem_wdata_o[28] 0.00112677
3 *716:27 0.0177157
4 *716:25 0.017285
5 *716:23 0.0164456
6 *716:21 0.016648
7 *716:15 0.0109179
8 *716:13 0.0107155
9 *716:11 0.00544208
10 *716:9 0.00656885
11 *716:9 *717:9 0
12 *716:11 *735:11 0.00142111
13 *716:11 *737:11 0.000360847
14 *716:23 *722:19 0.0166847
15 *716:27 *725:27 0.0441595
16 *716:27 *726:35 0.00828043
17 *716:27 *733:43 0.0144146
18 *716:27 *737:35 0.00915641
19 *739:mem_rdata_i[24] *716:11 0.000109393
20 *739:mem_rdata_i[25] *716:11 6.19052e-05
21 *739:mem_rdata_i[30] *716:11 6.19052e-05
22 *739:mem_rdata_i[7] *716:11 0.000699601
23 *740:mem_wdata[14] *716:27 0.00190392
24 *81:19 *716:27 0.00341932
25 *364:19 *716:11 0.00234594
26 *649:11 *716:15 0.00819674
27 *688:27 *716:11 0.0189173
28 *689:19 *716:27 0.0102327
29 *691:23 *716:23 0
30 *697:15 *716:23 0.000101532
31 *701:27 *716:27 0.0160811
32 *704:23 *716:15 4.21973e-05
33 *704:35 *716:27 0.0129016
34 *706:11 *716:11 0.0130054
35 *706:15 *716:15 0.0385704
36 *706:23 *716:23 0.0936597
37 *706:35 *716:27 0.014907
38 *712:12 *716:9 0.000223073
39 *712:26 *716:15 0.0043004
40 *712:34 *716:23 0.110064
*RES
1 *739:mem_wdata_o[28] *716:9 2.78 
2 *716:9 *716:11 276.142 
3 *716:11 *716:13 2 
4 *716:13 *716:15 349.59 
5 *716:15 *716:21 5.5375 
6 *716:21 *716:23 163.68 
7 *716:23 *716:25 0.5 
8 *716:25 *716:27 107.705 
9 *716:27 *740:mem_wdata[28] 1.26887 
*END

*D_NET *717 0.672507
*CONN
*I *740:mem_wdata[29] I *D ntt_engine_256
*I *739:mem_wdata_o[29] O *D ntt_wb_bridge
*CAP
1 *740:mem_wdata[29] 0.000638462
2 *739:mem_wdata_o[29] 0.0011505
3 *717:27 0.0180278
4 *717:25 0.0175105
5 *717:19 0.0122753
6 *717:17 0.0121542
7 *717:15 0.0228915
8 *717:13 0.0228915
9 *717:11 0.00633478
10 *717:9 0.00748528
11 *717:9 *719:7 0
12 *717:15 *718:15 0.15023
13 *717:19 *726:35 0.00737271
14 *717:27 *733:43 0.012509
15 *717:27 *737:43 0.0220253
16 *739:mem_rdata_i[11] *717:11 0.000976369
17 *739:mem_rdata_i[12] *717:11 8.69606e-05
18 *739:mem_rdata_i[13] *717:11 6.31497e-05
19 *739:mem_rdata_i[23] *717:11 7.44413e-05
20 *739:mem_rdata_i[3] *717:11 3.53624e-05
21 *740:mem_wdata[14] *717:19 0.000423265
22 *81:19 *717:27 0.0065638
23 *118:27 *717:19 0
24 *360:31 *717:11 0.00940786
25 *364:19 *717:11 0.0229775
26 *649:15 *717:11 0
27 *688:23 *717:15 0.150703
28 *688:27 *717:11 0.000809591
29 *689:11 *717:27 0.00411135
30 *689:19 *717:19 0.0566149
31 *701:27 *717:19 0.00666448
32 *704:35 *717:27 0.0144442
33 *706:27 *717:19 0.0418364
34 *706:35 *717:27 0.0432172
35 *716:9 *717:9 0
*RES
1 *739:mem_wdata_o[29] *717:9 2.8408 
2 *717:9 *717:11 282.645 
3 *717:11 *717:13 0.5 
4 *717:13 *717:15 223.083 
5 *717:15 *717:17 0.5 
6 *717:17 *717:19 633.525 
7 *717:19 *717:25 1.18367 
8 *717:25 *717:27 92.0284 
9 *717:27 *740:mem_wdata[29] 1.52727 
*END

*D_NET *718 0.553462
*CONN
*I *740:mem_wdata[2] I *D ntt_engine_256
*I *739:mem_wdata_o[2] O *D ntt_wb_bridge
*CAP
1 *740:mem_wdata[2] 0.000914251
2 *739:mem_wdata_o[2] 0.000803234
3 *718:27 0.014419
4 *718:25 0.0135569
5 *718:19 0.0105016
6 *718:17 0.0104495
7 *718:15 0.0535734
8 *718:13 0.0535734
9 *718:11 0.0102914
10 *718:9 0.0110946
11 *718:11 *725:11 0.0347128
12 *718:11 *731:11 0.030225
13 *718:11 *735:11 0
14 *718:11 *737:11 0.00791547
15 *718:11 *737:21 4.80219e-05
16 *718:15 *736:22 0
17 *718:19 *729:27 0.0141454
18 *718:27 *729:35 0.0293281
19 *718:27 *736:34 0.0147131
20 io_out[1] *718:9 0
21 *739:mem_rdata_i[7] *718:11 0.000126782
22 *120:29 *718:19 0
23 *656:35 *718:27 0.0148289
24 *664:13 *718:25 7.65498e-05
25 *664:15 *718:19 0.0089914
26 *677:11 *718:27 0.0167878
27 *688:23 *718:15 5.12916e-05
28 *688:27 *718:11 0
29 *689:23 *718:15 0
30 *701:11 *718:11 8.78227e-05
31 *702:18 *718:15 0.000138711
32 *702:28 *740:mem_wdata[2] 0
33 *706:11 *718:11 0
34 *709:11 *718:11 0
35 *709:19 *718:19 0.0349526
36 *709:27 *718:27 0.0169245
37 *717:15 *718:15 0.15023
*RES
1 *739:mem_wdata_o[2] *718:9 2.172 
2 *718:9 *718:11 447.885 
3 *718:11 *718:13 0.5 
4 *718:13 *718:15 223.432 
5 *718:15 *718:17 0.5 
6 *718:17 *718:19 391.275 
7 *718:19 *718:25 1.1254 
8 *718:25 *718:27 106.671 
9 *718:27 *740:mem_wdata[2] 2.34807 
*END

*D_NET *719 0.354056
*CONN
*I *740:mem_wdata[30] I *D ntt_engine_256
*I *739:mem_wdata_o[30] O *D ntt_wb_bridge
*CAP
1 *740:mem_wdata[30] 0.000735437
2 *739:mem_wdata_o[30] 9.75542e-05
3 *719:13 0.022336
4 *719:11 0.0216005
5 *719:9 0.011471
6 *719:7 0.0115685
7 *719:9 *735:27 0
8 *719:13 *740:mem_wdata[9] 0.00204081
9 *719:13 *727:15 0.111416
10 *719:13 *731:43 0.0368223
11 *719:13 *734:31 0.0255894
12 *356:31 *719:9 0
13 *359:41 *719:9 0
14 *649:11 *719:13 0.0156361
15 *668:23 *719:9 0.00272148
16 *678:23 *719:9 0.00739136
17 *687:15 *719:9 0.00286266
18 *695:33 *740:mem_wdata[30] 0
19 *697:11 *719:9 0
20 *704:31 *719:13 0.0766502
21 *712:12 *719:9 0.00192568
22 *712:24 *719:9 0.000419765
23 *712:26 *719:13 0.00277167
24 *713:11 *719:9 0
25 *717:9 *719:7 0
*RES
1 *739:mem_wdata_o[30] *719:7 0.722933 
2 *719:7 *719:9 267.09 
3 *719:9 *719:11 0.5 
4 *719:11 *719:13 208.108 
5 *719:13 *740:mem_wdata[30] 12.575 
*END

*D_NET *720 0.477623
*CONN
*I *740:mem_wdata[31] I *D ntt_engine_256
*I *739:mem_wdata_o[31] O *D ntt_wb_bridge
*CAP
1 *740:mem_wdata[31] 0.000488816
2 *739:mem_wdata_o[31] 4.39394e-05
3 *720:23 0.00175603
4 *720:21 0.0016692
5 *720:11 0.0341406
6 *720:9 0.0337386
7 *720:7 0.0337437
8 *720:5 0.0337876
9 *720:7 *735:27 6.04275e-07
10 *720:11 *723:11 0.00640925
11 *720:21 *732:25 0.000890013
12 *720:23 *721:15 0.00174073
13 *77:95 *720:7 0
14 *141:17 *720:11 0.000639136
15 *359:39 *720:7 6.04275e-07
16 *648:15 *720:23 4.06895e-05
17 *653:23 *720:23 8.05167e-05
18 *658:35 *720:21 1.88904e-05
19 *663:19 *720:23 0.00794908
20 *671:15 *720:21 0.00100984
21 *671:17 *720:11 0.184437
22 *674:13 *720:11 0.0109445
23 *681:11 *720:11 0.0112532
24 *694:11 *720:11 0.107921
25 *714:27 *720:21 5.99011e-05
26 *714:31 *720:23 0.00486012
*RES
1 *739:mem_wdata_o[31] *720:5 0.0620667 
2 *720:5 *720:7 85.6026 
3 *720:7 *720:9 0.5 
4 *720:9 *720:11 2075.29 
5 *720:11 *720:21 6.31543 
6 *720:21 *720:23 74.28 
7 *720:23 *740:mem_wdata[31] 9.6125 
*END

*D_NET *721 0.66785
*CONN
*I *740:mem_wdata[3] I *D ntt_engine_256
*I *739:mem_wdata_o[3] O *D ntt_wb_bridge
*CAP
1 *740:mem_wdata[3] 0.000484724
2 *739:mem_wdata_o[3] 2.1597e-05
3 *721:15 0.00850049
4 *721:13 0.00801577
5 *721:11 0.0402319
6 *721:9 0.0402319
7 *721:7 0.0334896
8 *721:5 0.0335112
9 *73:24 *721:11 0
10 *77:71 *721:7 0
11 *78:79 *721:7 0.00119838
12 *113:19 *721:11 0.201034
13 *646:17 *740:mem_wdata[3] 0.000102616
14 *653:21 *721:15 0.00140511
15 *665:21 *721:11 0.000309305
16 *669:11 *721:11 0.033025
17 *669:17 *721:11 0.001001
18 *671:15 *721:15 0.000241248
19 *673:11 *721:15 0.0509094
20 *682:11 *721:15 2.21542e-05
21 *686:11 *721:11 0.160677
22 *715:23 *721:15 0.051697
23 *720:23 *721:15 0.00174073
*RES
1 *739:mem_wdata_o[3] *721:5 0.0620667 
2 *721:5 *721:7 86.3601 
3 *721:7 *721:9 0.5 
4 *721:9 *721:11 2248.19 
5 *721:11 *721:13 0.5 
6 *721:13 *721:15 77.9405 
7 *721:15 *740:mem_wdata[3] 8.99 
*END

*D_NET *722 0.209272
*CONN
*I *740:mem_wdata[4] I *D ntt_engine_256
*I *739:mem_wdata_o[4] O *D ntt_wb_bridge
*CAP
1 *740:mem_wdata[4] 0.000638214
2 *739:mem_wdata_o[4] 0.00161785
3 *722:19 0.00979096
4 *722:17 0.00915274
5 *722:15 0.00805136
6 *722:13 0.00966921
7 *722:13 *723:7 0
8 *722:13 *725:9 0.000229382
9 *722:13 *731:11 0.00150397
10 *722:13 *737:11 0.000253564
11 *722:15 *727:11 0.0338148
12 *722:15 *731:11 0
13 *722:19 *740:slot_b[1] 0.012084
14 *722:19 *727:15 0.00040354
15 *79:24 *722:13 0.000318057
16 *356:31 *722:15 0
17 *357:25 *722:19 0.0007089
18 *657:11 *722:13 0
19 *657:11 *722:15 0.0344527
20 *697:15 *722:19 0.0551702
21 *709:11 *722:15 4.73268e-05
22 *712:34 *722:19 0.0146805
23 *716:23 *722:19 0.0166847
*RES
1 *739:mem_wdata_o[4] *722:13 22.2 
2 *722:13 *722:15 408.105 
3 *722:15 *722:17 0.5 
4 *722:17 *722:19 82.7767 
5 *722:19 *740:mem_wdata[4] 11.045 
*END

*D_NET *723 0.507601
*CONN
*I *740:mem_wdata[5] I *D ntt_engine_256
*I *739:mem_wdata_o[5] O *D ntt_wb_bridge
*CAP
1 *740:mem_wdata[5] 0.000899428
2 *739:mem_wdata_o[5] 2.35071e-05
3 *723:11 0.104005
4 *723:9 0.103106
5 *723:7 0.0353764
6 *723:5 0.0353999
7 *723:11 *738:11 0.0257476
8 *74:31 *723:11 0.0386337
9 *659:15 *723:11 0
10 *671:17 *723:11 0.00640925
11 *674:13 *723:11 0.141787
12 *694:11 *723:11 0.00980407
13 *720:11 *723:11 0.00640925
14 *722:13 *723:7 0
*RES
1 *739:mem_wdata_o[5] *723:5 0.0620667 
2 *723:5 *723:7 85.3404 
3 *723:7 *723:9 0.5 
4 *723:9 *723:11 363.348 
5 *723:11 *740:mem_wdata[5] 2.34807 
*END

*D_NET *724 0.183667
*CONN
*I *740:mem_wdata[6] I *D ntt_engine_256
*I *739:mem_wdata_o[6] O *D ntt_wb_bridge
*CAP
1 *740:mem_wdata[6] 0.0007796
2 *739:mem_wdata_o[6] 0.00452443
3 *724:23 0.0224764
4 *724:21 0.0271179
5 *724:15 0.0353438
6 *724:13 0.0344471
7 *724:13 *733:11 0
8 *724:15 *730:17 2.3228e-05
9 *724:21 *730:17 0.000182696
10 *740:mem_wdata[16] *724:23 0.00644892
11 *77:87 *724:15 0.000229501
12 *114:37 *724:23 0.00142219
13 *354:27 *724:13 0.000637661
14 *375:19 *724:13 0.000685256
15 *378:27 *724:13 0.000612825
16 *646:23 *724:23 0.00243026
17 *654:11 *724:21 0
18 *654:11 *724:23 0.00554474
19 *672:6 *740:mem_wdata[6] 0.000318057
20 *682:23 *724:23 0.00146873
21 *685:47 *724:23 0.00677999
22 *698:9 *724:15 0.011593
23 *708:25 *724:23 0.012722
24 *714:19 *724:23 0.00787882
*RES
1 *739:mem_wdata_o[6] *724:13 11.4031 
2 *724:13 *724:15 79.5137 
3 *724:15 *724:21 12.4497 
4 *724:21 *724:23 78.7208 
5 *724:23 *740:mem_wdata[6] 1.84647 
*END

*D_NET *725 0.457686
*CONN
*I *740:mem_wdata[7] I *D ntt_engine_256
*I *739:mem_wdata_o[7] O *D ntt_wb_bridge
*CAP
1 *740:mem_wdata[7] 0.00056074
2 *739:mem_wdata_o[7] 0.000872757
3 *725:27 0.0231317
4 *725:25 0.0225709
5 *725:23 0.049928
6 *725:21 0.050086
7 *725:15 0.00332437
8 *725:13 0.00316634
9 *725:11 0.00608657
10 *725:9 0.00695933
11 *725:11 *726:11 0.0340331
12 *725:11 *735:11 0
13 *725:11 *737:11 0.00370488
14 *725:15 *729:15 0.00660804
15 *725:15 *737:23 0.0207869
16 *725:23 *726:23 0.0613135
17 *725:23 *728:23 0
18 *739:mem_rdata_i[7] *725:11 0.00332807
19 *81:19 *725:27 0.00960484
20 *94:21 *725:27 4.14132e-05
21 *276:15 *725:15 6.13115e-05
22 *315:17 *725:23 0.00290433
23 *335:17 *725:23 0.0262792
24 *336:17 *725:23 0
25 *343:25 *725:23 0.00131342
26 *349:31 *725:23 0.000267785
27 *360:27 *725:15 0.00964979
28 *364:15 *725:23 0.0189799
29 *374:15 *725:23 0
30 *376:15 *725:15 0.0043687
31 *376:15 *725:23 0.00020823
32 *379:15 *725:23 0.00292377
33 *656:23 *725:23 0
34 *701:11 *725:11 8.08645e-05
35 *701:15 *725:23 0.00394416
36 *701:27 *725:27 0.000397853
37 *711:15 *725:23 0.00109806
38 *716:27 *725:27 0.0441595
39 *718:11 *725:11 0.0347128
40 *722:13 *725:9 0.000229382
*RES
1 *739:mem_wdata_o[7] *725:9 2.3164 
2 *725:9 *725:11 391.402 
3 *725:11 *725:13 2 
4 *725:13 *725:15 192.615 
5 *725:15 *725:21 5.0275 
6 *725:21 *725:23 189.783 
7 *725:23 *725:25 0.5 
8 *725:25 *725:27 83.2428 
9 *725:27 *740:mem_wdata[7] 1.41073 
*END

*D_NET *726 0.530103
*CONN
*I *740:mem_wdata[8] I *D ntt_engine_256
*I *739:mem_wdata_o[8] O *D ntt_wb_bridge
*CAP
1 *740:mem_wdata[8] 0.00117318
2 *739:mem_wdata_o[8] 0.000856386
3 *726:35 0.0114395
4 *726:33 0.0103106
5 *726:27 0.0114829
6 *726:25 0.0114386
7 *726:23 0.011507
8 *726:21 0.0118013
9 *726:15 0.0256077
10 *726:13 0.0253134
11 *726:11 0.00593642
12 *726:9 0.00679281
13 *726:11 *735:11 0.00137737
14 *726:11 *737:11 0.00334834
15 *726:15 *737:23 0
16 *726:23 *729:23 0.0609447
17 *726:27 *737:35 0
18 *739:mem_rdata_i[7] *726:11 0.00372142
19 *740:mem_wdata[14] *726:35 1.86715e-05
20 *94:21 *726:27 0.000693804
21 *118:27 *726:27 0
22 *273:15 *726:15 0.00145259
23 *280:15 *726:15 0.00368517
24 *296:15 *726:15 0.00135167
25 *300:15 *726:15 0.00472361
26 *315:17 *726:23 0.000166369
27 *326:15 *726:15 0
28 *339:21 *726:15 0.00481981
29 *340:29 *726:15 0.00105136
30 *342:39 *726:21 0
31 *345:27 *726:15 0.0132375
32 *347:25 *726:15 0.000655747
33 *349:23 *726:15 0.00108009
34 *351:15 *726:15 0.000340336
35 *351:23 *726:15 0.0199793
36 *352:13 *726:15 0.00533166
37 *360:19 *726:15 0.000182206
38 *361:15 *726:15 0.0211933
39 *362:15 *726:15 1.34503e-05
40 *368:15 *726:15 0.000211044
41 *368:19 *726:15 0.00470574
42 *391:15 *726:15 0.000981672
43 *398:15 *726:15 0.0044603
44 *688:11 *740:mem_wdata[8] 0.00195335
45 *688:11 *726:27 0.000409854
46 *688:11 *726:35 0.0241179
47 *688:21 *726:27 0.00249925
48 *689:11 *740:mem_wdata[8] 5.79679e-05
49 *689:17 *740:mem_wdata[8] 0.0001131
50 *701:11 *726:11 0.0308118
51 *701:27 *726:27 0.00533958
52 *706:27 *726:27 0.0287926
53 *706:27 *726:35 0.00319105
54 *706:35 *740:mem_wdata[8] 0.00106795
55 *706:35 *726:35 0.0273626
56 *716:27 *726:35 0.00828043
57 *717:19 *726:35 0.00737271
58 *725:11 *726:11 0.0340331
59 *725:23 *726:23 0.0613135
*RES
1 *739:mem_wdata_o[8] *726:9 2.28853 
2 *726:9 *726:11 383.497 
3 *726:11 *726:13 2 
4 *726:13 *726:15 762.21 
5 *726:15 *726:21 6.8125 
6 *726:21 *726:23 94.0221 
7 *726:23 *726:25 0.5 
8 *726:25 *726:27 337.215 
9 *726:27 *726:33 1.06713 
10 *726:33 *726:35 76.0405 
11 *726:35 *740:mem_wdata[8] 5.39567 
*END

*D_NET *727 0.337237
*CONN
*I *740:mem_wdata[9] I *D ntt_engine_256
*I *739:mem_wdata_o[9] O *D ntt_wb_bridge
*CAP
1 *740:mem_wdata[9] 0.00133781
2 *739:mem_wdata_o[9] 0.000653714
3 *727:15 0.0186039
4 *727:13 0.017266
5 *727:11 0.00881835
6 *727:9 0.00947206
7 *740:mem_wdata[9] *734:31 2.38557e-05
8 *727:11 *731:11 0
9 io_oeb[1] *727:9 0.000147863
10 *79:24 *727:9 0.000215324
11 *357:25 *727:15 3.97095e-06
12 *649:11 *727:15 0.000173151
13 *697:15 *727:15 0.0890788
14 *706:23 *740:mem_wdata[9] 0.00358653
15 *706:23 *727:15 0.0127085
16 *709:11 *727:11 0.0274719
17 *719:13 *740:mem_wdata[9] 0.00204081
18 *719:13 *727:15 0.111416
19 *722:15 *727:11 0.0338148
20 *722:19 *727:15 0.00040354
*RES
1 *739:mem_wdata_o[9] *727:9 1.99213 
2 *727:9 *727:11 393.315 
3 *727:11 *727:13 0.5 
4 *727:13 *727:15 165.719 
5 *727:15 *740:mem_wdata[9] 16.6453 
*END

*D_NET *728 0.276669
*CONN
*I *740:mem_we I *D ntt_engine_256
*I *739:mem_we_o O *D ntt_wb_bridge
*CAP
1 *740:mem_we 0.0020794
2 *739:mem_we_o 0.00046912
3 *728:23 0.0166696
4 *728:21 0.0146967
5 *728:15 0.00418149
6 *728:13 0.00407506
7 *728:11 0.0108814
8 *728:9 0.0113505
9 *728:11 *729:11 0.0448879
10 *740:mem_wdata[25] *728:21 2.04314e-05
11 *335:17 *740:mem_we 8.58052e-05
12 *335:17 *728:23 0
13 *342:39 *740:mem_we 0.000318261
14 *343:25 *740:mem_we 0.000370493
15 *352:19 *728:11 0.000105257
16 *375:15 *728:15 0.000112472
17 *378:21 *728:15 0.00569415
18 *378:23 *728:15 0.000142249
19 *384:21 *728:15 0.0218516
20 *656:11 *728:11 0.0398712
21 *656:15 *740:mem_we 0.000501491
22 *656:15 *728:15 0.000196952
23 *656:15 *728:23 0.0067886
24 *668:11 *740:mem_we 0.0013635
25 *668:11 *728:23 0.0484992
26 *678:19 *728:15 0.0283485
27 *683:23 *728:15 0.00312176
28 *701:21 *740:mem_we 5.06138e-05
29 *701:23 *740:mem_we 6.32125e-05
30 *711:15 *728:23 0.00987181
31 *725:23 *728:23 0
*RES
1 *739:mem_we_o *728:9 1.41453 
2 *728:9 *728:11 524.768 
3 *728:11 *728:13 2 
4 *728:13 *728:15 265.41 
5 *728:15 *728:21 4.2625 
6 *728:21 *728:23 71.7351 
7 *728:23 *740:mem_we 26.0105 
*END

*D_NET *729 0.522436
*CONN
*I *740:op[0] I *D ntt_engine_256
*I *739:op_o[0] O *D ntt_wb_bridge
*CAP
1 *740:op[0] 0.00123455
2 *739:op_o[0] 0.000569635
3 *729:35 0.0216577
4 *729:33 0.0205252
5 *729:27 0.00519485
6 *729:25 0.00509274
7 *729:23 0.0116998
8 *729:21 0.011754
9 *729:15 0.0303364
10 *729:13 0.0302822
11 *729:11 0.0118233
12 *729:9 0.012393
13 *729:9 *730:7 0
14 *729:15 *737:23 0.0256372
15 *729:21 *737:29 2.24574e-05
16 *729:23 *737:31 0.0607142
17 *729:27 *736:26 0.00747932
18 *729:35 *736:34 1.63588e-05
19 *77:47 *729:9 2.22315e-05
20 *79:24 *729:9 0.000318057
21 *115:35 *729:9 0.000101735
22 *118:27 *729:27 0
23 *120:29 *729:27 0
24 *143:19 *729:11 0
25 *315:17 *729:15 0.00241898
26 *315:17 *729:23 2.90027e-05
27 *336:17 *729:15 0.00171408
28 *350:27 *729:15 0
29 *352:19 *729:11 0.000422268
30 *359:41 *729:9 0.000232862
31 *360:27 *729:15 0.00910304
32 *361:23 *729:15 0
33 *363:11 *729:11 0.049132
34 *374:15 *729:15 0.000209882
35 *376:15 *729:15 0.000246578
36 *379:15 *729:15 0.00674168
37 *656:23 *729:23 0
38 *656:27 *729:27 0
39 *664:15 *729:27 0.00325023
40 *664:15 *729:35 0.0214534
41 *691:17 *740:op[0] 1.61302e-05
42 *691:19 *729:27 2.03321e-05
43 *701:15 *729:15 0
44 *709:19 *729:27 0.000237126
45 *709:27 *729:35 0.0144196
46 *718:19 *729:27 0.0141454
47 *718:27 *729:35 0.0293281
48 *725:15 *729:15 0.00660804
49 *726:23 *729:23 0.0609447
50 *728:11 *729:11 0.0448879
*RES
1 *739:op_o[0] *729:9 1.7008 
2 *729:9 *729:11 580.102 
3 *729:11 *729:13 2 
4 *729:13 *729:15 762.21 
5 *729:15 *729:21 3.4975 
6 *729:21 *729:23 93.9639 
7 *729:23 *729:25 0.5 
8 *729:25 *729:27 182.175 
9 *729:27 *729:33 1.18367 
10 *729:33 *729:35 92.7175 
11 *729:35 *740:op[0] 2.80913 
*END

*D_NET *730 0.385298
*CONN
*I *740:op[1] I *D ntt_engine_256
*I *739:op_o[1] O *D ntt_wb_bridge
*CAP
1 *740:op[1] 0.000570278
2 *739:op_o[1] 3.62631e-05
3 *730:19 0.032698
4 *730:17 0.0459206
5 *730:7 0.0347747
6 *730:5 0.0210181
7 *730:19 *738:19 0.00686365
8 io_out[0] *730:7 0.0565927
9 *77:47 *730:7 0
10 *78:129 *730:19 0
11 *114:25 *730:17 0
12 *652:11 *730:17 0
13 *654:11 *730:17 0.00128127
14 *658:27 *730:19 0.027113
15 *682:15 *730:19 0.000127273
16 *685:25 *730:19 0.0542733
17 *700:19 *730:19 0.00374919
18 *708:27 *730:19 0.0887615
19 *714:19 *730:19 0.0113118
20 *724:15 *730:17 2.3228e-05
21 *724:21 *730:17 0.000182696
22 *729:9 *730:7 0
*RES
1 *739:op_o[1] *730:5 0.0620667 
2 *730:5 *730:7 84.4081 
3 *730:7 *730:17 37.4113 
4 *730:17 *730:19 1403.11 
5 *730:19 *740:op[1] 1.678 
*END

*D_NET *731 0.18611
*CONN
*I *740:op[2] I *D ntt_engine_256
*I *739:op_o[2] O *D ntt_wb_bridge
*CAP
1 *740:op[2] 0.00077
2 *739:op_o[2] 0.000909407
3 *731:43 0.00610782
4 *731:41 0.00901045
5 *731:23 0.00692272
6 *731:21 0.00456727
7 *731:11 0.0211602
8 *731:9 0.0207524
9 *731:9 *732:7 0
10 *731:11 *735:11 0
11 *731:11 *737:11 0.00940745
12 *79:24 *731:9 0.000318057
13 *115:35 *731:9 0.000101735
14 *143:19 *731:11 0
15 *298:21 *731:41 0.000212044
16 *359:41 *731:9 0.000232862
17 *364:19 *731:11 0
18 *380:13 *731:41 8.01643e-05
19 *393:21 *731:41 0.000169865
20 *395:21 *731:41 1.08129e-05
21 *649:11 *731:43 0.0368251
22 *657:11 *731:11 0
23 *709:11 *731:11 0
24 *718:11 *731:11 0.030225
25 *719:13 *731:43 0.0368223
26 *722:13 *731:11 0.00150397
27 *722:15 *731:11 0
28 *727:11 *731:11 0
*RES
1 *739:op_o[2] *731:9 2.45827 
2 *731:9 *731:11 484.223 
3 *731:11 *731:21 24.6775 
4 *731:21 *731:23 57.03 
5 *731:23 *731:41 18.0094 
6 *731:41 *731:43 54.4882 
7 *731:43 *740:op[2] 13.085 
*END

*D_NET *732 0.625943
*CONN
*I *740:slot_a[0] I *D ntt_engine_256
*I *739:slot_a_o[0] O *D ntt_wb_bridge
*CAP
1 *740:slot_a[0] 0.000400333
2 *739:slot_a_o[0] 2.893e-05
3 *732:27 0.00706972
4 *732:25 0.00758393
5 *732:15 0.00191822
6 *732:13 0.00102846
7 *732:11 0.0391516
8 *732:9 0.0391268
9 *732:7 0.0334452
10 *732:5 0.0334741
11 *732:11 *738:11 0.00777306
12 *740:mem_slot[1] *732:25 1.92979e-05
13 *74:31 *732:11 0.208383
14 *74:31 *732:15 0.0032381
15 *77:47 *732:7 0.000487632
16 *78:31 *732:7 0
17 *78:39 *732:7 0
18 *78:183 *732:25 0
19 *115:41 *732:7 0.000204043
20 *141:17 *732:11 0
21 *646:19 *732:27 0.040982
22 *648:15 *732:27 0.0326657
23 *663:11 *732:27 0.00359981
24 *663:23 *732:25 3.55814e-05
25 *671:15 *732:25 6.55447e-05
26 *671:15 *732:27 0.00353072
27 *674:13 *732:11 0.0353599
28 *679:11 *732:25 0.000206749
29 *694:11 *732:11 0.117699
30 *694:11 *732:15 0.00557492
31 *714:31 *732:27 0
32 *715:23 *732:27 0.00200057
33 *720:21 *732:25 0.000890013
34 *731:9 *732:7 0
*RES
1 *739:slot_a_o[0] *732:5 0.0620667 
2 *732:5 *732:7 85.3695 
3 *732:7 *732:9 0.5 
4 *732:9 *732:11 2330.9 
5 *732:11 *732:13 0.45 
6 *732:13 *732:15 62.235 
7 *732:15 *732:25 6.15503 
8 *732:25 *732:27 370.635 
9 *732:27 *740:slot_a[0] 8.5925 
*END

*D_NET *733 0.804164
*CONN
*I *740:slot_a[1] I *D ntt_engine_256
*I *739:slot_a_o[1] O *D ntt_wb_bridge
*CAP
1 *740:slot_a[1] 0.000457658
2 *739:slot_a_o[1] 0.0018543
3 *733:57 0.00616543
4 *733:43 0.0307293
5 *733:41 0.0250215
6 *733:39 0.0772414
7 *733:37 0.0862721
8 *733:11 0.0389725
9 *733:9 0.0317962
10 *733:37 *734:19 0.000961046
11 *733:43 *737:43 0.00645606
12 la_data_out[82] *733:11 0.00943609
13 la_data_out[82] *733:37 0.00162181
14 *739:mem_rdata_i[8] *733:11 0
15 *739:mem_rdata_i[8] *733:37 0
16 *740:mem_wdata[22] *733:57 0.0165987
17 *81:19 *733:43 0.161932
18 *105:19 *733:11 0.00471082
19 *105:19 *733:37 0.000511606
20 *354:25 *733:37 2.0104e-05
21 *357:25 *733:39 0.00370608
22 *361:27 *733:11 0.00906856
23 *361:27 *733:37 0.00173793
24 *368:23 *733:11 0.0101567
25 *368:23 *733:37 0.00177256
26 *376:19 *733:11 0.00866884
27 *376:19 *733:37 0.00116021
28 *379:19 *733:11 0.0094513
29 *379:19 *733:37 0.00121322
30 *382:17 *733:37 0.000455938
31 *383:37 *733:37 0.000455938
32 *540:17 *733:57 0.000642152
33 *662:17 *733:57 0.005911
34 *675:31 *733:37 0.000816027
35 *677:27 *733:37 0.000511606
36 *695:45 *733:57 0.000944867
37 *704:35 *733:43 0.161941
38 *708:13 *733:11 0
39 *712:26 *733:39 0
40 *712:34 *733:39 0.0578673
41 *716:27 *733:43 0.0144146
42 *717:27 *733:43 0.012509
43 *724:13 *733:11 0
*RES
1 *739:slot_a_o[1] *733:9 4.5622 
2 *733:9 *733:11 78.0089 
3 *733:11 *733:37 27.072 
4 *733:37 *733:39 1330.77 
5 *733:39 *733:41 2 
6 *733:41 *733:43 1811.62 
7 *733:43 *733:57 48.0708 
8 *733:57 *740:slot_a[1] 7.65 
*END

*D_NET *734 0.928868
*CONN
*I *740:slot_b[0] I *D ntt_engine_256
*I *739:slot_b_o[0] O *D ntt_wb_bridge
*CAP
1 *740:slot_b[0] 0.000380329
2 *739:slot_b_o[0] 0.0018497
3 *734:43 0.00936912
4 *734:41 0.00991951
5 *734:35 0.0320174
6 *734:33 0.0310867
7 *734:31 0.00686606
8 *734:29 0.00703183
9 *734:23 0.0191316
10 *734:21 0.0189658
11 *734:19 0.0107132
12 *734:17 0.0125629
13 *740:mem_wdata[22] *734:41 0.00256105
14 *740:mem_wdata[22] *734:43 1.47935e-05
15 *740:mem_wdata[9] *734:31 2.38557e-05
16 *82:25 *734:35 0
17 *105:19 *734:19 0.0174141
18 *360:31 *734:17 1.79483e-05
19 *361:27 *734:19 0
20 *364:19 *734:17 6.63219e-06
21 *376:19 *734:19 0.0490654
22 *379:19 *734:19 2.2142e-05
23 *540:17 *734:41 4.9691e-05
24 *540:17 *734:43 0.0494645
25 *647:11 *734:23 0.0190784
26 *662:19 *734:35 2.33534e-05
27 *675:13 *734:41 0.000720263
28 *675:15 *734:35 0.157185
29 *675:25 *734:31 0
30 *675:31 *734:19 0.00913677
31 *677:27 *734:19 2.42236e-05
32 *695:23 *734:23 0.11408
33 *695:33 *734:31 0.00958074
34 *695:35 *734:35 0.157227
35 *695:45 *734:41 0.000591346
36 *704:31 *734:23 0.00351661
37 *704:31 *734:31 0.00503028
38 *704:45 *734:41 0.00261382
39 *704:47 *734:43 0.0411151
40 *706:23 *734:31 0.0149599
41 *710:23 *734:23 0.0888998
42 *719:13 *734:31 0.0255894
43 *733:37 *734:19 0.000961046
*RES
1 *739:slot_b_o[0] *734:17 19.1976 
2 *734:17 *734:19 564.675 
3 *734:19 *734:21 2 
4 *734:21 *734:23 1031.66 
5 *734:23 *734:29 5.0275 
6 *734:29 *734:31 52.7693 
7 *734:31 *734:33 0.5 
8 *734:33 *734:35 1815.19 
9 *734:35 *734:41 6.7206 
10 *734:41 *734:43 73.2501 
11 *734:43 *740:slot_b[0] 7.25 
*END

*D_NET *735 0.115797
*CONN
*I *740:slot_b[1] I *D ntt_engine_256
*I *739:slot_b_o[1] O *D ntt_wb_bridge
*CAP
1 *740:slot_b[1] 0.00270728
2 *739:slot_b_o[1] 0.00100641
3 *735:31 0.013855
4 *735:27 0.0123952
5 *735:11 0.0148169
6 *735:9 0.0145759
7 *735:11 *737:11 0.00279366
8 *735:27 *736:20 0
9 *735:31 *736:20 0
10 *79:24 *735:9 0.000262458
11 *357:25 *740:slot_b[1] 0.0069811
12 *359:39 *735:27 9.08601e-05
13 *359:39 *735:31 0.0230513
14 *364:19 *735:11 0
15 *701:11 *735:11 0.00157842
16 *706:11 *735:11 0.00650386
17 *713:11 *735:27 0.000295692
18 *716:11 *735:11 0.00142111
19 *718:11 *735:11 0
20 *719:9 *735:27 0
21 *720:7 *735:27 6.04275e-07
22 *722:19 *740:slot_b[1] 0.012084
23 *725:11 *735:11 0
24 *726:11 *735:11 0.00137737
25 *731:11 *735:11 0
*RES
1 *739:slot_b_o[1] *735:9 2.72173 
2 *735:9 *735:11 297.307 
3 *735:11 *735:27 20.0716 
4 *735:27 *735:31 44.466 
5 *735:31 *740:slot_b[1] 27.3967 
*END

*D_NET *736 0.516288
*CONN
*I *740:slot_c[0] I *D ntt_engine_256
*I *739:slot_c_o[0] O *D ntt_wb_bridge
*CAP
1 *740:slot_c[0] 0.00115487
2 *739:slot_c_o[0] 0.0138256
3 *736:34 0.00956238
4 *736:32 0.00852866
5 *736:26 0.00309507
6 *736:24 0.00297392
7 *736:22 0.0531069
8 *736:20 0.0653654
9 *736:6 0.0260841
10 *79:24 *736:6 0.00498486
11 *120:29 *736:26 0
12 *359:39 *736:20 0.000277917
13 *359:41 *736:6 0.00117964
14 *664:15 *736:26 0.00171174
15 *664:15 *736:34 0.0287036
16 *677:11 *736:34 0.0434422
17 *689:23 *736:22 0.148974
18 *691:19 *736:34 0.0108313
19 *693:9 *736:6 0.000262458
20 *693:11 *736:6 0.00903012
21 *693:11 *736:20 0.00928169
22 *696:9 *736:6 0.000229581
23 *696:11 *736:6 0.00282159
24 *696:11 *736:20 0.00517891
25 *697:11 *736:20 0.000473516
26 *702:12 *736:6 0.00870726
27 *702:12 *736:20 0.00150475
28 *702:16 *736:20 0.0225397
29 *709:15 *736:22 0.000319711
30 *709:19 *736:34 0.00967885
31 *709:25 *740:slot_c[0] 5.2007e-06
32 *711:11 *736:20 0.00024374
33 *718:15 *736:22 0
34 *718:27 *736:34 0.0147131
35 *729:27 *736:26 0.00747932
36 *729:35 *736:34 1.63588e-05
37 *735:27 *736:20 0
38 *735:31 *736:20 0
*RES
1 *739:slot_c_o[0] *736:6 49.6771 
2 *736:6 *736:20 47.7688 
3 *736:20 *736:22 221.714 
4 *736:22 *736:24 0.5 
5 *736:24 *736:26 83.745 
6 *736:26 *736:32 1.18367 
7 *736:32 *736:34 79.1945 
8 *736:34 *740:slot_c[0] 2.57607 
*END

*D_NET *737 0.693889
*CONN
*I *740:slot_c[1] I *D ntt_engine_256
*I *739:slot_c_o[1] O *D ntt_wb_bridge
*CAP
1 *740:slot_c[1] 0.00056074
2 *739:slot_c_o[1] 0.000873483
3 *737:43 0.0363895
4 *737:41 0.0359375
5 *737:35 0.0171922
6 *737:33 0.0170834
7 *737:31 0.0243297
8 *737:29 0.0244013
9 *737:23 0.0253457
10 *737:21 0.0253778
11 *737:11 0.032317
12 *737:9 0.0330868
13 *739:mem_rdata_i[7] *737:11 0.0177259
14 *740:mem_wdata[14] *737:35 0.000481111
15 *79:24 *737:9 0.000262458
16 *81:19 *737:35 0.000471967
17 *81:19 *737:43 0.0129649
18 *101:19 *737:11 0
19 *273:15 *737:23 0.000150497
20 *274:15 *737:23 0.00070082
21 *276:15 *737:23 0.0180123
22 *315:17 *737:23 0.00351233
23 *315:17 *737:31 0.00022179
24 *336:17 *737:31 3.72213e-05
25 *339:25 *737:31 1.19128e-05
26 *345:35 *737:23 0.00233546
27 *346:27 *737:23 0.00120843
28 *351:23 *737:23 0
29 *364:15 *737:21 7.94016e-06
30 *374:15 *737:23 0.00787137
31 *379:15 *737:21 4.00045e-05
32 *650:17 *737:9 0
33 *688:9 *737:41 2.98432e-05
34 *689:11 *737:43 0.00297098
35 *689:19 *737:35 0.0704647
36 *691:11 *737:43 0
37 *701:11 *737:11 0.00118565
38 *704:35 *737:35 0.0849714
39 *704:35 *737:43 0.00722764
40 *706:11 *737:11 0.00101152
41 *706:27 *737:35 0.000167951
42 *706:35 *737:35 0.0143168
43 *709:11 *737:21 0
44 *716:11 *737:11 0.000360847
45 *716:27 *737:35 0.00915641
46 *717:27 *737:43 0.0220253
47 *718:11 *737:11 0.00791547
48 *718:11 *737:21 4.80219e-05
49 *722:13 *737:11 0.000253564
50 *725:11 *737:11 0.00370488
51 *725:15 *737:23 0.0207869
52 *726:11 *737:11 0.00334834
53 *726:15 *737:23 0
54 *726:27 *737:35 0
55 *729:15 *737:23 0.0256372
56 *729:21 *737:29 2.24574e-05
57 *729:23 *737:31 0.0607142
58 *731:11 *737:11 0.00940745
59 *733:43 *737:43 0.00645606
60 *735:11 *737:11 0.00279366
*RES
1 *739:slot_c_o[1] *737:9 2.343 
2 *737:9 *737:11 89.8751 
3 *737:11 *737:21 4.31963 
4 *737:21 *737:23 767.04 
5 *737:23 *737:29 3.7525 
6 *737:29 *737:31 92.7403 
7 *737:31 *737:33 0.5 
8 *737:33 *737:35 964.515 
9 *737:35 *737:41 1.18367 
10 *737:41 *737:43 106.671 
11 *737:43 *740:slot_c[1] 1.41073 
*END

*D_NET *738 0.361307
*CONN
*I *740:start I *D ntt_engine_256
*I *739:start_o O *D ntt_wb_bridge
*CAP
1 *740:start 0.00101758
2 *739:start_o 3.81732e-05
3 *738:19 0.0236969
4 *738:17 0.0229124
5 *738:11 0.0292233
6 *738:9 0.0289901
7 *738:7 0.0351393
8 *738:5 0.0351775
9 *74:31 *738:11 0.0192835
10 *78:129 *738:19 0
11 *115:219 *738:19 0.0134711
12 *659:15 *738:11 0
13 *669:19 *738:17 4.63518e-05
14 *682:31 *738:19 0.00570733
15 *690:11 *738:19 0.0311046
16 *705:23 *738:19 0.000271386
17 *708:27 *738:19 0.0748436
18 *723:11 *738:11 0.0257476
19 *730:19 *738:19 0.00686365
20 *732:11 *738:11 0.00777306
*RES
1 *739:start_o *738:5 0.0620667 
2 *738:5 *738:7 85.2239 
3 *738:7 *738:9 0.5 
4 *738:9 *738:11 79.0223 
5 *738:11 *738:17 1.475 
6 *738:17 *738:19 1003.78 
7 *738:19 *740:start 2.2252 
*END
